p cnf 92 752
1 2 0
3 4 0
5 6 0
7 8 0
9 10 0
11 12 0
13 14 0
15 16 0
17 18 0
19 20 0
21 22 0
23 24 0
25 26 0
27 28 0
29 30 0
31 32 0
33 34 0
35 36 0
37 38 0
39 40 0
41 42 0
43 44 0
45 46 0
47 48 0
49 50 0
51 52 0
53 54 0
55 56 0
57 58 0
59 60 0
61 62 0
63 64 0
65 66 0
67 68 0
69 70 0
71 72 0
73 74 0
75 76 0
77 78 0
79 80 0
81 82 0
83 84 0
85 86 0
87 88 0
89 90 0
91 92 0
-1 -3 -5 0
-3 -5 -7 0
-5 -7 -9 0
-7 -9 -11 0
-9 -11 -13 0
-11 -13 -15 0
-13 -15 -17 0
-15 -17 -19 0
-17 -19 -21 0
-19 -21 -23 0
-21 -23 -25 0
-23 -25 -27 0
-25 -27 -29 0
-27 -29 -31 0
-29 -31 -33 0
-31 -33 -35 0
-33 -35 -37 0
-35 -37 -39 0
-37 -39 -41 0
-39 -41 -43 0
-41 -43 -45 0
-43 -45 -47 0
-45 -47 -49 0
-47 -49 -51 0
-49 -51 -53 0
-51 -53 -55 0
-53 -55 -57 0
-55 -57 -59 0
-57 -59 -61 0
-59 -61 -63 0
-61 -63 -65 0
-63 -65 -67 0
-65 -67 -69 0
-67 -69 -71 0
-69 -71 -73 0
-71 -73 -75 0
-73 -75 -77 0
-75 -77 -79 0
-77 -79 -81 0
-79 -81 -83 0
-81 -83 -85 0
-83 -85 -87 0
-85 -87 -89 0
-87 -89 -91 0
-1 -5 -9 0
-3 -7 -11 0
-5 -9 -13 0
-7 -11 -15 0
-9 -13 -17 0
-11 -15 -19 0
-13 -17 -21 0
-15 -19 -23 0
-17 -21 -25 0
-19 -23 -27 0
-21 -25 -29 0
-23 -27 -31 0
-25 -29 -33 0
-27 -31 -35 0
-29 -33 -37 0
-31 -35 -39 0
-33 -37 -41 0
-35 -39 -43 0
-37 -41 -45 0
-39 -43 -47 0
-41 -45 -49 0
-43 -47 -51 0
-45 -49 -53 0
-47 -51 -55 0
-49 -53 -57 0
-51 -55 -59 0
-53 -57 -61 0
-55 -59 -63 0
-57 -61 -65 0
-59 -63 -67 0
-61 -65 -69 0
-63 -67 -71 0
-65 -69 -73 0
-67 -71 -75 0
-69 -73 -77 0
-71 -75 -79 0
-73 -77 -81 0
-75 -79 -83 0
-77 -81 -85 0
-79 -83 -87 0
-81 -85 -89 0
-83 -87 -91 0
-1 -7 -13 0
-3 -9 -15 0
-5 -11 -17 0
-7 -13 -19 0
-9 -15 -21 0
-11 -17 -23 0
-13 -19 -25 0
-15 -21 -27 0
-17 -23 -29 0
-19 -25 -31 0
-21 -27 -33 0
-23 -29 -35 0
-25 -31 -37 0
-27 -33 -39 0
-29 -35 -41 0
-31 -37 -43 0
-33 -39 -45 0
-35 -41 -47 0
-37 -43 -49 0
-39 -45 -51 0
-41 -47 -53 0
-43 -49 -55 0
-45 -51 -57 0
-47 -53 -59 0
-49 -55 -61 0
-51 -57 -63 0
-53 -59 -65 0
-55 -61 -67 0
-57 -63 -69 0
-59 -65 -71 0
-61 -67 -73 0
-63 -69 -75 0
-65 -71 -77 0
-67 -73 -79 0
-69 -75 -81 0
-71 -77 -83 0
-73 -79 -85 0
-75 -81 -87 0
-77 -83 -89 0
-79 -85 -91 0
-1 -9 -17 0
-3 -11 -19 0
-5 -13 -21 0
-7 -15 -23 0
-9 -17 -25 0
-11 -19 -27 0
-13 -21 -29 0
-15 -23 -31 0
-17 -25 -33 0
-19 -27 -35 0
-21 -29 -37 0
-23 -31 -39 0
-25 -33 -41 0
-27 -35 -43 0
-29 -37 -45 0
-31 -39 -47 0
-33 -41 -49 0
-35 -43 -51 0
-37 -45 -53 0
-39 -47 -55 0
-41 -49 -57 0
-43 -51 -59 0
-45 -53 -61 0
-47 -55 -63 0
-49 -57 -65 0
-51 -59 -67 0
-53 -61 -69 0
-55 -63 -71 0
-57 -65 -73 0
-59 -67 -75 0
-61 -69 -77 0
-63 -71 -79 0
-65 -73 -81 0
-67 -75 -83 0
-69 -77 -85 0
-71 -79 -87 0
-73 -81 -89 0
-75 -83 -91 0
-1 -11 -21 0
-3 -13 -23 0
-5 -15 -25 0
-7 -17 -27 0
-9 -19 -29 0
-11 -21 -31 0
-13 -23 -33 0
-15 -25 -35 0
-17 -27 -37 0
-19 -29 -39 0
-21 -31 -41 0
-23 -33 -43 0
-25 -35 -45 0
-27 -37 -47 0
-29 -39 -49 0
-31 -41 -51 0
-33 -43 -53 0
-35 -45 -55 0
-37 -47 -57 0
-39 -49 -59 0
-41 -51 -61 0
-43 -53 -63 0
-45 -55 -65 0
-47 -57 -67 0
-49 -59 -69 0
-51 -61 -71 0
-53 -63 -73 0
-55 -65 -75 0
-57 -67 -77 0
-59 -69 -79 0
-61 -71 -81 0
-63 -73 -83 0
-65 -75 -85 0
-67 -77 -87 0
-69 -79 -89 0
-71 -81 -91 0
-1 -13 -25 0
-3 -15 -27 0
-5 -17 -29 0
-7 -19 -31 0
-9 -21 -33 0
-11 -23 -35 0
-13 -25 -37 0
-15 -27 -39 0
-17 -29 -41 0
-19 -31 -43 0
-21 -33 -45 0
-23 -35 -47 0
-25 -37 -49 0
-27 -39 -51 0
-29 -41 -53 0
-31 -43 -55 0
-33 -45 -57 0
-35 -47 -59 0
-37 -49 -61 0
-39 -51 -63 0
-41 -53 -65 0
-43 -55 -67 0
-45 -57 -69 0
-47 -59 -71 0
-49 -61 -73 0
-51 -63 -75 0
-53 -65 -77 0
-55 -67 -79 0
-57 -69 -81 0
-59 -71 -83 0
-61 -73 -85 0
-63 -75 -87 0
-65 -77 -89 0
-67 -79 -91 0
-1 -15 -29 0
-3 -17 -31 0
-5 -19 -33 0
-7 -21 -35 0
-9 -23 -37 0
-11 -25 -39 0
-13 -27 -41 0
-15 -29 -43 0
-17 -31 -45 0
-19 -33 -47 0
-21 -35 -49 0
-23 -37 -51 0
-25 -39 -53 0
-27 -41 -55 0
-29 -43 -57 0
-31 -45 -59 0
-33 -47 -61 0
-35 -49 -63 0
-37 -51 -65 0
-39 -53 -67 0
-41 -55 -69 0
-43 -57 -71 0
-45 -59 -73 0
-47 -61 -75 0
-49 -63 -77 0
-51 -65 -79 0
-53 -67 -81 0
-55 -69 -83 0
-57 -71 -85 0
-59 -73 -87 0
-61 -75 -89 0
-63 -77 -91 0
-1 -17 -33 0
-3 -19 -35 0
-5 -21 -37 0
-7 -23 -39 0
-9 -25 -41 0
-11 -27 -43 0
-13 -29 -45 0
-15 -31 -47 0
-17 -33 -49 0
-19 -35 -51 0
-21 -37 -53 0
-23 -39 -55 0
-25 -41 -57 0
-27 -43 -59 0
-29 -45 -61 0
-31 -47 -63 0
-33 -49 -65 0
-35 -51 -67 0
-37 -53 -69 0
-39 -55 -71 0
-41 -57 -73 0
-43 -59 -75 0
-45 -61 -77 0
-47 -63 -79 0
-49 -65 -81 0
-51 -67 -83 0
-53 -69 -85 0
-55 -71 -87 0
-57 -73 -89 0
-59 -75 -91 0
-1 -19 -37 0
-3 -21 -39 0
-5 -23 -41 0
-7 -25 -43 0
-9 -27 -45 0
-11 -29 -47 0
-13 -31 -49 0
-15 -33 -51 0
-17 -35 -53 0
-19 -37 -55 0
-21 -39 -57 0
-23 -41 -59 0
-25 -43 -61 0
-27 -45 -63 0
-29 -47 -65 0
-31 -49 -67 0
-33 -51 -69 0
-35 -53 -71 0
-37 -55 -73 0
-39 -57 -75 0
-41 -59 -77 0
-43 -61 -79 0
-45 -63 -81 0
-47 -65 -83 0
-49 -67 -85 0
-51 -69 -87 0
-53 -71 -89 0
-55 -73 -91 0
-1 -21 -41 0
-3 -23 -43 0
-5 -25 -45 0
-7 -27 -47 0
-9 -29 -49 0
-11 -31 -51 0
-13 -33 -53 0
-15 -35 -55 0
-17 -37 -57 0
-19 -39 -59 0
-21 -41 -61 0
-23 -43 -63 0
-25 -45 -65 0
-27 -47 -67 0
-29 -49 -69 0
-31 -51 -71 0
-33 -53 -73 0
-35 -55 -75 0
-37 -57 -77 0
-39 -59 -79 0
-41 -61 -81 0
-43 -63 -83 0
-45 -65 -85 0
-47 -67 -87 0
-49 -69 -89 0
-51 -71 -91 0
-1 -23 -45 0
-3 -25 -47 0
-5 -27 -49 0
-7 -29 -51 0
-9 -31 -53 0
-11 -33 -55 0
-13 -35 -57 0
-15 -37 -59 0
-17 -39 -61 0
-19 -41 -63 0
-21 -43 -65 0
-23 -45 -67 0
-25 -47 -69 0
-27 -49 -71 0
-29 -51 -73 0
-31 -53 -75 0
-33 -55 -77 0
-35 -57 -79 0
-37 -59 -81 0
-39 -61 -83 0
-41 -63 -85 0
-43 -65 -87 0
-45 -67 -89 0
-47 -69 -91 0
-1 -25 -49 0
-3 -27 -51 0
-5 -29 -53 0
-7 -31 -55 0
-9 -33 -57 0
-11 -35 -59 0
-13 -37 -61 0
-15 -39 -63 0
-17 -41 -65 0
-19 -43 -67 0
-21 -45 -69 0
-23 -47 -71 0
-25 -49 -73 0
-27 -51 -75 0
-29 -53 -77 0
-31 -55 -79 0
-33 -57 -81 0
-35 -59 -83 0
-37 -61 -85 0
-39 -63 -87 0
-41 -65 -89 0
-43 -67 -91 0
-1 -27 -53 0
-3 -29 -55 0
-5 -31 -57 0
-7 -33 -59 0
-9 -35 -61 0
-11 -37 -63 0
-13 -39 -65 0
-15 -41 -67 0
-17 -43 -69 0
-19 -45 -71 0
-21 -47 -73 0
-23 -49 -75 0
-25 -51 -77 0
-27 -53 -79 0
-29 -55 -81 0
-31 -57 -83 0
-33 -59 -85 0
-35 -61 -87 0
-37 -63 -89 0
-39 -65 -91 0
-1 -29 -57 0
-3 -31 -59 0
-5 -33 -61 0
-7 -35 -63 0
-9 -37 -65 0
-11 -39 -67 0
-13 -41 -69 0
-15 -43 -71 0
-17 -45 -73 0
-19 -47 -75 0
-21 -49 -77 0
-23 -51 -79 0
-25 -53 -81 0
-27 -55 -83 0
-29 -57 -85 0
-31 -59 -87 0
-33 -61 -89 0
-35 -63 -91 0
-1 -31 -61 0
-3 -33 -63 0
-5 -35 -65 0
-7 -37 -67 0
-9 -39 -69 0
-11 -41 -71 0
-13 -43 -73 0
-15 -45 -75 0
-17 -47 -77 0
-19 -49 -79 0
-21 -51 -81 0
-23 -53 -83 0
-25 -55 -85 0
-27 -57 -87 0
-29 -59 -89 0
-31 -61 -91 0
-1 -33 -65 0
-3 -35 -67 0
-5 -37 -69 0
-7 -39 -71 0
-9 -41 -73 0
-11 -43 -75 0
-13 -45 -77 0
-15 -47 -79 0
-17 -49 -81 0
-19 -51 -83 0
-21 -53 -85 0
-23 -55 -87 0
-25 -57 -89 0
-27 -59 -91 0
-1 -35 -69 0
-3 -37 -71 0
-5 -39 -73 0
-7 -41 -75 0
-9 -43 -77 0
-11 -45 -79 0
-13 -47 -81 0
-15 -49 -83 0
-17 -51 -85 0
-19 -53 -87 0
-21 -55 -89 0
-23 -57 -91 0
-1 -37 -73 0
-3 -39 -75 0
-5 -41 -77 0
-7 -43 -79 0
-9 -45 -81 0
-11 -47 -83 0
-13 -49 -85 0
-15 -51 -87 0
-17 -53 -89 0
-19 -55 -91 0
-1 -39 -77 0
-3 -41 -79 0
-5 -43 -81 0
-7 -45 -83 0
-9 -47 -85 0
-11 -49 -87 0
-13 -51 -89 0
-15 -53 -91 0
-1 -41 -81 0
-3 -43 -83 0
-5 -45 -85 0
-7 -47 -87 0
-9 -49 -89 0
-11 -51 -91 0
-1 -43 -85 0
-3 -45 -87 0
-5 -47 -89 0
-7 -49 -91 0
-1 -45 -89 0
-3 -47 -91 0
-2 -4 -6 -8 -10 -12 -14 0
-4 -6 -8 -10 -12 -14 -16 0
-6 -8 -10 -12 -14 -16 -18 0
-8 -10 -12 -14 -16 -18 -20 0
-10 -12 -14 -16 -18 -20 -22 0
-12 -14 -16 -18 -20 -22 -24 0
-14 -16 -18 -20 -22 -24 -26 0
-16 -18 -20 -22 -24 -26 -28 0
-18 -20 -22 -24 -26 -28 -30 0
-20 -22 -24 -26 -28 -30 -32 0
-22 -24 -26 -28 -30 -32 -34 0
-24 -26 -28 -30 -32 -34 -36 0
-26 -28 -30 -32 -34 -36 -38 0
-28 -30 -32 -34 -36 -38 -40 0
-30 -32 -34 -36 -38 -40 -42 0
-32 -34 -36 -38 -40 -42 -44 0
-34 -36 -38 -40 -42 -44 -46 0
-36 -38 -40 -42 -44 -46 -48 0
-38 -40 -42 -44 -46 -48 -50 0
-40 -42 -44 -46 -48 -50 -52 0
-42 -44 -46 -48 -50 -52 -54 0
-44 -46 -48 -50 -52 -54 -56 0
-46 -48 -50 -52 -54 -56 -58 0
-48 -50 -52 -54 -56 -58 -60 0
-50 -52 -54 -56 -58 -60 -62 0
-52 -54 -56 -58 -60 -62 -64 0
-54 -56 -58 -60 -62 -64 -66 0
-56 -58 -60 -62 -64 -66 -68 0
-58 -60 -62 -64 -66 -68 -70 0
-60 -62 -64 -66 -68 -70 -72 0
-62 -64 -66 -68 -70 -72 -74 0
-64 -66 -68 -70 -72 -74 -76 0
-66 -68 -70 -72 -74 -76 -78 0
-68 -70 -72 -74 -76 -78 -80 0
-70 -72 -74 -76 -78 -80 -82 0
-72 -74 -76 -78 -80 -82 -84 0
-74 -76 -78 -80 -82 -84 -86 0
-76 -78 -80 -82 -84 -86 -88 0
-78 -80 -82 -84 -86 -88 -90 0
-80 -82 -84 -86 -88 -90 -92 0
-2 -6 -10 -14 -18 -22 -26 0
-4 -8 -12 -16 -20 -24 -28 0
-6 -10 -14 -18 -22 -26 -30 0
-8 -12 -16 -20 -24 -28 -32 0
-10 -14 -18 -22 -26 -30 -34 0
-12 -16 -20 -24 -28 -32 -36 0
-14 -18 -22 -26 -30 -34 -38 0
-16 -20 -24 -28 -32 -36 -40 0
-18 -22 -26 -30 -34 -38 -42 0
-20 -24 -28 -32 -36 -40 -44 0
-22 -26 -30 -34 -38 -42 -46 0
-24 -28 -32 -36 -40 -44 -48 0
-26 -30 -34 -38 -42 -46 -50 0
-28 -32 -36 -40 -44 -48 -52 0
-30 -34 -38 -42 -46 -50 -54 0
-32 -36 -40 -44 -48 -52 -56 0
-34 -38 -42 -46 -50 -54 -58 0
-36 -40 -44 -48 -52 -56 -60 0
-38 -42 -46 -50 -54 -58 -62 0
-40 -44 -48 -52 -56 -60 -64 0
-42 -46 -50 -54 -58 -62 -66 0
-44 -48 -52 -56 -60 -64 -68 0
-46 -50 -54 -58 -62 -66 -70 0
-48 -52 -56 -60 -64 -68 -72 0
-50 -54 -58 -62 -66 -70 -74 0
-52 -56 -60 -64 -68 -72 -76 0
-54 -58 -62 -66 -70 -74 -78 0
-56 -60 -64 -68 -72 -76 -80 0
-58 -62 -66 -70 -74 -78 -82 0
-60 -64 -68 -72 -76 -80 -84 0
-62 -66 -70 -74 -78 -82 -86 0
-64 -68 -72 -76 -80 -84 -88 0
-66 -70 -74 -78 -82 -86 -90 0
-68 -72 -76 -80 -84 -88 -92 0
-2 -8 -14 -20 -26 -32 -38 0
-4 -10 -16 -22 -28 -34 -40 0
-6 -12 -18 -24 -30 -36 -42 0
-8 -14 -20 -26 -32 -38 -44 0
-10 -16 -22 -28 -34 -40 -46 0
-12 -18 -24 -30 -36 -42 -48 0
-14 -20 -26 -32 -38 -44 -50 0
-16 -22 -28 -34 -40 -46 -52 0
-18 -24 -30 -36 -42 -48 -54 0
-20 -26 -32 -38 -44 -50 -56 0
-22 -28 -34 -40 -46 -52 -58 0
-24 -30 -36 -42 -48 -54 -60 0
-26 -32 -38 -44 -50 -56 -62 0
-28 -34 -40 -46 -52 -58 -64 0
-30 -36 -42 -48 -54 -60 -66 0
-32 -38 -44 -50 -56 -62 -68 0
-34 -40 -46 -52 -58 -64 -70 0
-36 -42 -48 -54 -60 -66 -72 0
-38 -44 -50 -56 -62 -68 -74 0
-40 -46 -52 -58 -64 -70 -76 0
-42 -48 -54 -60 -66 -72 -78 0
-44 -50 -56 -62 -68 -74 -80 0
-46 -52 -58 -64 -70 -76 -82 0
-48 -54 -60 -66 -72 -78 -84 0
-50 -56 -62 -68 -74 -80 -86 0
-52 -58 -64 -70 -76 -82 -88 0
-54 -60 -66 -72 -78 -84 -90 0
-56 -62 -68 -74 -80 -86 -92 0
-2 -10 -18 -26 -34 -42 -50 0
-4 -12 -20 -28 -36 -44 -52 0
-6 -14 -22 -30 -38 -46 -54 0
-8 -16 -24 -32 -40 -48 -56 0
-10 -18 -26 -34 -42 -50 -58 0
-12 -20 -28 -36 -44 -52 -60 0
-14 -22 -30 -38 -46 -54 -62 0
-16 -24 -32 -40 -48 -56 -64 0
-18 -26 -34 -42 -50 -58 -66 0
-20 -28 -36 -44 -52 -60 -68 0
-22 -30 -38 -46 -54 -62 -70 0
-24 -32 -40 -48 -56 -64 -72 0
-26 -34 -42 -50 -58 -66 -74 0
-28 -36 -44 -52 -60 -68 -76 0
-30 -38 -46 -54 -62 -70 -78 0
-32 -40 -48 -56 -64 -72 -80 0
-34 -42 -50 -58 -66 -74 -82 0
-36 -44 -52 -60 -68 -76 -84 0
-38 -46 -54 -62 -70 -78 -86 0
-40 -48 -56 -64 -72 -80 -88 0
-42 -50 -58 -66 -74 -82 -90 0
-44 -52 -60 -68 -76 -84 -92 0
-2 -12 -22 -32 -42 -52 -62 0
-4 -14 -24 -34 -44 -54 -64 0
-6 -16 -26 -36 -46 -56 -66 0
-8 -18 -28 -38 -48 -58 -68 0
-10 -20 -30 -40 -50 -60 -70 0
-12 -22 -32 -42 -52 -62 -72 0
-14 -24 -34 -44 -54 -64 -74 0
-16 -26 -36 -46 -56 -66 -76 0
-18 -28 -38 -48 -58 -68 -78 0
-20 -30 -40 -50 -60 -70 -80 0
-22 -32 -42 -52 -62 -72 -82 0
-24 -34 -44 -54 -64 -74 -84 0
-26 -36 -46 -56 -66 -76 -86 0
-28 -38 -48 -58 -68 -78 -88 0
-30 -40 -50 -60 -70 -80 -90 0
-32 -42 -52 -62 -72 -82 -92 0
-2 -14 -26 -38 -50 -62 -74 0
-4 -16 -28 -40 -52 -64 -76 0
-6 -18 -30 -42 -54 -66 -78 0
-8 -20 -32 -44 -56 -68 -80 0
-10 -22 -34 -46 -58 -70 -82 0
-12 -24 -36 -48 -60 -72 -84 0
-14 -26 -38 -50 -62 -74 -86 0
-16 -28 -40 -52 -64 -76 -88 0
-18 -30 -42 -54 -66 -78 -90 0
-20 -32 -44 -56 -68 -80 -92 0
-2 -16 -30 -44 -58 -72 -86 0
-4 -18 -32 -46 -60 -74 -88 0
-6 -20 -34 -48 -62 -76 -90 0
-8 -22 -36 -50 -64 -78 -92 0
-1 -2 0
-3 -4 0
-5 -6 0
-7 -8 0
-9 -10 0
-11 -12 0
-13 -14 0
-15 -16 0
-17 -18 0
-19 -20 0
-21 -22 0
-23 -24 0
-25 -26 0
-27 -28 0
-29 -30 0
-31 -32 0
-33 -34 0
-35 -36 0
-37 -38 0
-39 -40 0
-41 -42 0
-43 -44 0
-45 -46 0
-47 -48 0
-49 -50 0
-51 -52 0
-53 -54 0
-55 -56 0
-57 -58 0
-59 -60 0
-61 -62 0
-63 -64 0
-65 -66 0
-67 -68 0
-69 -70 0
-71 -72 0
-73 -74 0
-75 -76 0
-77 -78 0
-79 -80 0
-81 -82 0
-83 -84 0
-85 -86 0
-87 -88 0
-89 -90 0
-91 -92 0
