p cnf 42 293
1 2 3 0
4 5 6 0
7 8 9 0
10 11 12 0
13 14 15 0
16 17 18 0
19 20 21 0
22 23 24 0
25 26 27 0
28 29 30 0
31 32 33 0
34 35 36 0
37 38 39 0
40 41 42 0
-1 -4 0
-2 -5 0
-3 -6 0
-4 -7 0
-5 -8 0
-6 -9 0
-4 -7 -10 0
-5 -8 -11 0
-6 -9 -12 0
-4 -10 -13 0
-5 -11 -14 0
-6 -12 -15 0
-4 -13 -16 0
-5 -14 -17 0
-6 -15 -18 0
-4 -16 -19 0
-5 -17 -20 0
-6 -18 -21 0
-4 -19 -22 0
-5 -20 -23 0
-6 -21 -24 0
-4 -22 -25 0
-5 -23 -26 0
-6 -24 -27 0
-4 -25 -28 0
-5 -26 -29 0
-6 -27 -30 0
-4 -28 -31 0
-5 -29 -32 0
-6 -30 -33 0
-4 -31 -34 0
-5 -32 -35 0
-6 -33 -36 0
-4 -34 -37 0
-5 -35 -38 0
-6 -36 -39 0
-4 -37 -40 0
-5 -38 -41 0
-6 -39 -42 0
-1 -7 -10 0
-2 -8 -11 0
-3 -9 -12 0
-4 -10 0
-5 -11 0
-6 -12 0
-7 -10 -13 0
-8 -11 -14 0
-9 -12 -15 0
-10 -16 0
-11 -17 0
-12 -18 0
-10 -13 -19 0
-11 -14 -20 0
-12 -15 -21 0
-10 -16 -22 0
-11 -17 -23 0
-12 -18 -24 0
-10 -19 -25 0
-11 -20 -26 0
-12 -21 -27 0
-10 -22 -28 0
-11 -23 -29 0
-12 -24 -30 0
-10 -25 -31 0
-11 -26 -32 0
-12 -27 -33 0
-10 -28 -34 0
-11 -29 -35 0
-12 -30 -36 0
-10 -31 -37 0
-11 -32 -38 0
-12 -33 -39 0
-10 -34 -40 0
-11 -35 -41 0
-12 -36 -42 0
-1 -10 -16 0
-2 -11 -17 0
-3 -12 -18 0
-4 -13 -16 0
-5 -14 -17 0
-6 -15 -18 0
-7 -16 0
-8 -17 0
-9 -18 0
-10 -16 -19 0
-11 -17 -20 0
-12 -18 -21 0
-13 -16 -22 0
-14 -17 -23 0
-15 -18 -24 0
-16 -25 0
-17 -26 0
-18 -27 0
-16 -19 -28 0
-17 -20 -29 0
-18 -21 -30 0
-16 -22 -31 0
-17 -23 -32 0
-18 -24 -33 0
-16 -25 -34 0
-17 -26 -35 0
-18 -27 -36 0
-16 -28 -37 0
-17 -29 -38 0
-18 -30 -39 0
-16 -31 -40 0
-17 -32 -41 0
-18 -33 -42 0
-1 -13 -22 0
-2 -14 -23 0
-3 -15 -24 0
-4 -16 -22 0
-5 -17 -23 0
-6 -18 -24 0
-7 -19 -22 0
-8 -20 -23 0
-9 -21 -24 0
-10 -22 0
-11 -23 0
-12 -24 0
-13 -22 -25 0
-14 -23 -26 0
-15 -24 -27 0
-16 -22 -28 0
-17 -23 -29 0
-18 -24 -30 0
-19 -22 -31 0
-20 -23 -32 0
-21 -24 -33 0
-22 -34 0
-23 -35 0
-24 -36 0
-22 -25 -37 0
-23 -26 -38 0
-24 -27 -39 0
-22 -28 -40 0
-23 -29 -41 0
-24 -30 -42 0
-1 -16 -28 0
-2 -17 -29 0
-3 -18 -30 0
-4 -19 -28 0
-5 -20 -29 0
-6 -21 -30 0
-7 -22 -28 0
-8 -23 -29 0
-9 -24 -30 0
-10 -25 -28 0
-11 -26 -29 0
-12 -27 -30 0
-13 -28 0
-14 -29 0
-15 -30 0
-16 -28 -31 0
-17 -29 -32 0
-18 -30 -33 0
-19 -28 -34 0
-20 -29 -35 0
-21 -30 -36 0
-22 -28 -37 0
-23 -29 -38 0
-24 -30 -39 0
-25 -28 -40 0
-26 -29 -41 0
-27 -30 -42 0
-1 -19 -34 0
-2 -20 -35 0
-3 -21 -36 0
-4 -22 -34 0
-5 -23 -35 0
-6 -24 -36 0
-7 -25 -34 0
-8 -26 -35 0
-9 -27 -36 0
-10 -28 -34 0
-11 -29 -35 0
-12 -30 -36 0
-13 -31 -34 0
-14 -32 -35 0
-15 -33 -36 0
-16 -34 0
-17 -35 0
-18 -36 0
-19 -34 -37 0
-20 -35 -38 0
-21 -36 -39 0
-22 -34 -40 0
-23 -35 -41 0
-24 -36 -42 0
-1 -22 -40 0
-2 -23 -41 0
-3 -24 -42 0
-4 -25 -40 0
-5 -26 -41 0
-6 -27 -42 0
-7 -28 -40 0
-8 -29 -41 0
-9 -30 -42 0
-10 -31 -40 0
-11 -32 -41 0
-12 -33 -42 0
-13 -34 -40 0
-14 -35 -41 0
-15 -36 -42 0
-16 -37 -40 0
-17 -38 -41 0
-18 -39 -42 0
-19 -40 0
-20 -41 0
-21 -42 0
-1 -2 0
-1 -3 0
-2 -3 0
-4 -5 0
-4 -6 0
-5 -6 0
-7 -8 0
-7 -9 0
-8 -9 0
-10 -11 0
-10 -12 0
-11 -12 0
-13 -14 0
-13 -15 0
-14 -15 0
-16 -17 0
-16 -18 0
-17 -18 0
-19 -20 0
-19 -21 0
-20 -21 0
-22 -23 0
-22 -24 0
-23 -24 0
-25 -26 0
-25 -27 0
-26 -27 0
-28 -29 0
-28 -30 0
-29 -30 0
-31 -32 0
-31 -33 0
-32 -33 0
-34 -35 0
-34 -36 0
-35 -36 0
-37 -38 0
-37 -39 0
-38 -39 0
-40 -41 0
-40 -42 0
-41 -42 0
1 0
-5 1 0
-6 0
-8 1 4 0
-9 2 5 0
-11 1 4 7 0
-12 2 5 8 0
-14 1 4 7 10 0
-15 2 5 8 11 0
-17 1 4 7 10 13 0
-18 2 5 8 11 14 0
-20 1 4 7 10 13 16 0
-21 2 5 8 11 14 17 0
-23 1 4 7 10 13 16 19 0
-24 2 5 8 11 14 17 20 0
-26 1 4 7 10 13 16 19 22 0
-27 2 5 8 11 14 17 20 23 0
-29 1 4 7 10 13 16 19 22 25 0
-30 2 5 8 11 14 17 20 23 26 0
-32 1 4 7 10 13 16 19 22 25 28 0
-33 2 5 8 11 14 17 20 23 26 29 0
-35 1 4 7 10 13 16 19 22 25 28 31 0
-36 2 5 8 11 14 17 20 23 26 29 32 0
-38 1 4 7 10 13 16 19 22 25 28 31 34 0
-39 2 5 8 11 14 17 20 23 26 29 32 35 0
-41 1 4 7 10 13 16 19 22 25 28 31 34 37 0
-42 2 5 8 11 14 17 20 23 26 29 32 35 38 0
