p cnf 116 1140
1 2 0
3 4 0
5 6 0
7 8 0
9 10 0
11 12 0
13 14 0
15 16 0
17 18 0
19 20 0
21 22 0
23 24 0
25 26 0
27 28 0
29 30 0
31 32 0
33 34 0
35 36 0
37 38 0
39 40 0
41 42 0
43 44 0
45 46 0
47 48 0
49 50 0
51 52 0
53 54 0
55 56 0
57 58 0
59 60 0
61 62 0
63 64 0
65 66 0
67 68 0
69 70 0
71 72 0
73 74 0
75 76 0
77 78 0
79 80 0
81 82 0
83 84 0
85 86 0
87 88 0
89 90 0
91 92 0
93 94 0
95 96 0
97 98 0
99 100 0
101 102 0
103 104 0
105 106 0
107 108 0
109 110 0
111 112 0
113 114 0
115 116 0
-1 -3 -5 0
-3 -5 -7 0
-5 -7 -9 0
-7 -9 -11 0
-9 -11 -13 0
-11 -13 -15 0
-13 -15 -17 0
-15 -17 -19 0
-17 -19 -21 0
-19 -21 -23 0
-21 -23 -25 0
-23 -25 -27 0
-25 -27 -29 0
-27 -29 -31 0
-29 -31 -33 0
-31 -33 -35 0
-33 -35 -37 0
-35 -37 -39 0
-37 -39 -41 0
-39 -41 -43 0
-41 -43 -45 0
-43 -45 -47 0
-45 -47 -49 0
-47 -49 -51 0
-49 -51 -53 0
-51 -53 -55 0
-53 -55 -57 0
-55 -57 -59 0
-57 -59 -61 0
-59 -61 -63 0
-61 -63 -65 0
-63 -65 -67 0
-65 -67 -69 0
-67 -69 -71 0
-69 -71 -73 0
-71 -73 -75 0
-73 -75 -77 0
-75 -77 -79 0
-77 -79 -81 0
-79 -81 -83 0
-81 -83 -85 0
-83 -85 -87 0
-85 -87 -89 0
-87 -89 -91 0
-89 -91 -93 0
-91 -93 -95 0
-93 -95 -97 0
-95 -97 -99 0
-97 -99 -101 0
-99 -101 -103 0
-101 -103 -105 0
-103 -105 -107 0
-105 -107 -109 0
-107 -109 -111 0
-109 -111 -113 0
-111 -113 -115 0
-1 -5 -9 0
-3 -7 -11 0
-5 -9 -13 0
-7 -11 -15 0
-9 -13 -17 0
-11 -15 -19 0
-13 -17 -21 0
-15 -19 -23 0
-17 -21 -25 0
-19 -23 -27 0
-21 -25 -29 0
-23 -27 -31 0
-25 -29 -33 0
-27 -31 -35 0
-29 -33 -37 0
-31 -35 -39 0
-33 -37 -41 0
-35 -39 -43 0
-37 -41 -45 0
-39 -43 -47 0
-41 -45 -49 0
-43 -47 -51 0
-45 -49 -53 0
-47 -51 -55 0
-49 -53 -57 0
-51 -55 -59 0
-53 -57 -61 0
-55 -59 -63 0
-57 -61 -65 0
-59 -63 -67 0
-61 -65 -69 0
-63 -67 -71 0
-65 -69 -73 0
-67 -71 -75 0
-69 -73 -77 0
-71 -75 -79 0
-73 -77 -81 0
-75 -79 -83 0
-77 -81 -85 0
-79 -83 -87 0
-81 -85 -89 0
-83 -87 -91 0
-85 -89 -93 0
-87 -91 -95 0
-89 -93 -97 0
-91 -95 -99 0
-93 -97 -101 0
-95 -99 -103 0
-97 -101 -105 0
-99 -103 -107 0
-101 -105 -109 0
-103 -107 -111 0
-105 -109 -113 0
-107 -111 -115 0
-1 -7 -13 0
-3 -9 -15 0
-5 -11 -17 0
-7 -13 -19 0
-9 -15 -21 0
-11 -17 -23 0
-13 -19 -25 0
-15 -21 -27 0
-17 -23 -29 0
-19 -25 -31 0
-21 -27 -33 0
-23 -29 -35 0
-25 -31 -37 0
-27 -33 -39 0
-29 -35 -41 0
-31 -37 -43 0
-33 -39 -45 0
-35 -41 -47 0
-37 -43 -49 0
-39 -45 -51 0
-41 -47 -53 0
-43 -49 -55 0
-45 -51 -57 0
-47 -53 -59 0
-49 -55 -61 0
-51 -57 -63 0
-53 -59 -65 0
-55 -61 -67 0
-57 -63 -69 0
-59 -65 -71 0
-61 -67 -73 0
-63 -69 -75 0
-65 -71 -77 0
-67 -73 -79 0
-69 -75 -81 0
-71 -77 -83 0
-73 -79 -85 0
-75 -81 -87 0
-77 -83 -89 0
-79 -85 -91 0
-81 -87 -93 0
-83 -89 -95 0
-85 -91 -97 0
-87 -93 -99 0
-89 -95 -101 0
-91 -97 -103 0
-93 -99 -105 0
-95 -101 -107 0
-97 -103 -109 0
-99 -105 -111 0
-101 -107 -113 0
-103 -109 -115 0
-1 -9 -17 0
-3 -11 -19 0
-5 -13 -21 0
-7 -15 -23 0
-9 -17 -25 0
-11 -19 -27 0
-13 -21 -29 0
-15 -23 -31 0
-17 -25 -33 0
-19 -27 -35 0
-21 -29 -37 0
-23 -31 -39 0
-25 -33 -41 0
-27 -35 -43 0
-29 -37 -45 0
-31 -39 -47 0
-33 -41 -49 0
-35 -43 -51 0
-37 -45 -53 0
-39 -47 -55 0
-41 -49 -57 0
-43 -51 -59 0
-45 -53 -61 0
-47 -55 -63 0
-49 -57 -65 0
-51 -59 -67 0
-53 -61 -69 0
-55 -63 -71 0
-57 -65 -73 0
-59 -67 -75 0
-61 -69 -77 0
-63 -71 -79 0
-65 -73 -81 0
-67 -75 -83 0
-69 -77 -85 0
-71 -79 -87 0
-73 -81 -89 0
-75 -83 -91 0
-77 -85 -93 0
-79 -87 -95 0
-81 -89 -97 0
-83 -91 -99 0
-85 -93 -101 0
-87 -95 -103 0
-89 -97 -105 0
-91 -99 -107 0
-93 -101 -109 0
-95 -103 -111 0
-97 -105 -113 0
-99 -107 -115 0
-1 -11 -21 0
-3 -13 -23 0
-5 -15 -25 0
-7 -17 -27 0
-9 -19 -29 0
-11 -21 -31 0
-13 -23 -33 0
-15 -25 -35 0
-17 -27 -37 0
-19 -29 -39 0
-21 -31 -41 0
-23 -33 -43 0
-25 -35 -45 0
-27 -37 -47 0
-29 -39 -49 0
-31 -41 -51 0
-33 -43 -53 0
-35 -45 -55 0
-37 -47 -57 0
-39 -49 -59 0
-41 -51 -61 0
-43 -53 -63 0
-45 -55 -65 0
-47 -57 -67 0
-49 -59 -69 0
-51 -61 -71 0
-53 -63 -73 0
-55 -65 -75 0
-57 -67 -77 0
-59 -69 -79 0
-61 -71 -81 0
-63 -73 -83 0
-65 -75 -85 0
-67 -77 -87 0
-69 -79 -89 0
-71 -81 -91 0
-73 -83 -93 0
-75 -85 -95 0
-77 -87 -97 0
-79 -89 -99 0
-81 -91 -101 0
-83 -93 -103 0
-85 -95 -105 0
-87 -97 -107 0
-89 -99 -109 0
-91 -101 -111 0
-93 -103 -113 0
-95 -105 -115 0
-1 -13 -25 0
-3 -15 -27 0
-5 -17 -29 0
-7 -19 -31 0
-9 -21 -33 0
-11 -23 -35 0
-13 -25 -37 0
-15 -27 -39 0
-17 -29 -41 0
-19 -31 -43 0
-21 -33 -45 0
-23 -35 -47 0
-25 -37 -49 0
-27 -39 -51 0
-29 -41 -53 0
-31 -43 -55 0
-33 -45 -57 0
-35 -47 -59 0
-37 -49 -61 0
-39 -51 -63 0
-41 -53 -65 0
-43 -55 -67 0
-45 -57 -69 0
-47 -59 -71 0
-49 -61 -73 0
-51 -63 -75 0
-53 -65 -77 0
-55 -67 -79 0
-57 -69 -81 0
-59 -71 -83 0
-61 -73 -85 0
-63 -75 -87 0
-65 -77 -89 0
-67 -79 -91 0
-69 -81 -93 0
-71 -83 -95 0
-73 -85 -97 0
-75 -87 -99 0
-77 -89 -101 0
-79 -91 -103 0
-81 -93 -105 0
-83 -95 -107 0
-85 -97 -109 0
-87 -99 -111 0
-89 -101 -113 0
-91 -103 -115 0
-1 -15 -29 0
-3 -17 -31 0
-5 -19 -33 0
-7 -21 -35 0
-9 -23 -37 0
-11 -25 -39 0
-13 -27 -41 0
-15 -29 -43 0
-17 -31 -45 0
-19 -33 -47 0
-21 -35 -49 0
-23 -37 -51 0
-25 -39 -53 0
-27 -41 -55 0
-29 -43 -57 0
-31 -45 -59 0
-33 -47 -61 0
-35 -49 -63 0
-37 -51 -65 0
-39 -53 -67 0
-41 -55 -69 0
-43 -57 -71 0
-45 -59 -73 0
-47 -61 -75 0
-49 -63 -77 0
-51 -65 -79 0
-53 -67 -81 0
-55 -69 -83 0
-57 -71 -85 0
-59 -73 -87 0
-61 -75 -89 0
-63 -77 -91 0
-65 -79 -93 0
-67 -81 -95 0
-69 -83 -97 0
-71 -85 -99 0
-73 -87 -101 0
-75 -89 -103 0
-77 -91 -105 0
-79 -93 -107 0
-81 -95 -109 0
-83 -97 -111 0
-85 -99 -113 0
-87 -101 -115 0
-1 -17 -33 0
-3 -19 -35 0
-5 -21 -37 0
-7 -23 -39 0
-9 -25 -41 0
-11 -27 -43 0
-13 -29 -45 0
-15 -31 -47 0
-17 -33 -49 0
-19 -35 -51 0
-21 -37 -53 0
-23 -39 -55 0
-25 -41 -57 0
-27 -43 -59 0
-29 -45 -61 0
-31 -47 -63 0
-33 -49 -65 0
-35 -51 -67 0
-37 -53 -69 0
-39 -55 -71 0
-41 -57 -73 0
-43 -59 -75 0
-45 -61 -77 0
-47 -63 -79 0
-49 -65 -81 0
-51 -67 -83 0
-53 -69 -85 0
-55 -71 -87 0
-57 -73 -89 0
-59 -75 -91 0
-61 -77 -93 0
-63 -79 -95 0
-65 -81 -97 0
-67 -83 -99 0
-69 -85 -101 0
-71 -87 -103 0
-73 -89 -105 0
-75 -91 -107 0
-77 -93 -109 0
-79 -95 -111 0
-81 -97 -113 0
-83 -99 -115 0
-1 -19 -37 0
-3 -21 -39 0
-5 -23 -41 0
-7 -25 -43 0
-9 -27 -45 0
-11 -29 -47 0
-13 -31 -49 0
-15 -33 -51 0
-17 -35 -53 0
-19 -37 -55 0
-21 -39 -57 0
-23 -41 -59 0
-25 -43 -61 0
-27 -45 -63 0
-29 -47 -65 0
-31 -49 -67 0
-33 -51 -69 0
-35 -53 -71 0
-37 -55 -73 0
-39 -57 -75 0
-41 -59 -77 0
-43 -61 -79 0
-45 -63 -81 0
-47 -65 -83 0
-49 -67 -85 0
-51 -69 -87 0
-53 -71 -89 0
-55 -73 -91 0
-57 -75 -93 0
-59 -77 -95 0
-61 -79 -97 0
-63 -81 -99 0
-65 -83 -101 0
-67 -85 -103 0
-69 -87 -105 0
-71 -89 -107 0
-73 -91 -109 0
-75 -93 -111 0
-77 -95 -113 0
-79 -97 -115 0
-1 -21 -41 0
-3 -23 -43 0
-5 -25 -45 0
-7 -27 -47 0
-9 -29 -49 0
-11 -31 -51 0
-13 -33 -53 0
-15 -35 -55 0
-17 -37 -57 0
-19 -39 -59 0
-21 -41 -61 0
-23 -43 -63 0
-25 -45 -65 0
-27 -47 -67 0
-29 -49 -69 0
-31 -51 -71 0
-33 -53 -73 0
-35 -55 -75 0
-37 -57 -77 0
-39 -59 -79 0
-41 -61 -81 0
-43 -63 -83 0
-45 -65 -85 0
-47 -67 -87 0
-49 -69 -89 0
-51 -71 -91 0
-53 -73 -93 0
-55 -75 -95 0
-57 -77 -97 0
-59 -79 -99 0
-61 -81 -101 0
-63 -83 -103 0
-65 -85 -105 0
-67 -87 -107 0
-69 -89 -109 0
-71 -91 -111 0
-73 -93 -113 0
-75 -95 -115 0
-1 -23 -45 0
-3 -25 -47 0
-5 -27 -49 0
-7 -29 -51 0
-9 -31 -53 0
-11 -33 -55 0
-13 -35 -57 0
-15 -37 -59 0
-17 -39 -61 0
-19 -41 -63 0
-21 -43 -65 0
-23 -45 -67 0
-25 -47 -69 0
-27 -49 -71 0
-29 -51 -73 0
-31 -53 -75 0
-33 -55 -77 0
-35 -57 -79 0
-37 -59 -81 0
-39 -61 -83 0
-41 -63 -85 0
-43 -65 -87 0
-45 -67 -89 0
-47 -69 -91 0
-49 -71 -93 0
-51 -73 -95 0
-53 -75 -97 0
-55 -77 -99 0
-57 -79 -101 0
-59 -81 -103 0
-61 -83 -105 0
-63 -85 -107 0
-65 -87 -109 0
-67 -89 -111 0
-69 -91 -113 0
-71 -93 -115 0
-1 -25 -49 0
-3 -27 -51 0
-5 -29 -53 0
-7 -31 -55 0
-9 -33 -57 0
-11 -35 -59 0
-13 -37 -61 0
-15 -39 -63 0
-17 -41 -65 0
-19 -43 -67 0
-21 -45 -69 0
-23 -47 -71 0
-25 -49 -73 0
-27 -51 -75 0
-29 -53 -77 0
-31 -55 -79 0
-33 -57 -81 0
-35 -59 -83 0
-37 -61 -85 0
-39 -63 -87 0
-41 -65 -89 0
-43 -67 -91 0
-45 -69 -93 0
-47 -71 -95 0
-49 -73 -97 0
-51 -75 -99 0
-53 -77 -101 0
-55 -79 -103 0
-57 -81 -105 0
-59 -83 -107 0
-61 -85 -109 0
-63 -87 -111 0
-65 -89 -113 0
-67 -91 -115 0
-1 -27 -53 0
-3 -29 -55 0
-5 -31 -57 0
-7 -33 -59 0
-9 -35 -61 0
-11 -37 -63 0
-13 -39 -65 0
-15 -41 -67 0
-17 -43 -69 0
-19 -45 -71 0
-21 -47 -73 0
-23 -49 -75 0
-25 -51 -77 0
-27 -53 -79 0
-29 -55 -81 0
-31 -57 -83 0
-33 -59 -85 0
-35 -61 -87 0
-37 -63 -89 0
-39 -65 -91 0
-41 -67 -93 0
-43 -69 -95 0
-45 -71 -97 0
-47 -73 -99 0
-49 -75 -101 0
-51 -77 -103 0
-53 -79 -105 0
-55 -81 -107 0
-57 -83 -109 0
-59 -85 -111 0
-61 -87 -113 0
-63 -89 -115 0
-1 -29 -57 0
-3 -31 -59 0
-5 -33 -61 0
-7 -35 -63 0
-9 -37 -65 0
-11 -39 -67 0
-13 -41 -69 0
-15 -43 -71 0
-17 -45 -73 0
-19 -47 -75 0
-21 -49 -77 0
-23 -51 -79 0
-25 -53 -81 0
-27 -55 -83 0
-29 -57 -85 0
-31 -59 -87 0
-33 -61 -89 0
-35 -63 -91 0
-37 -65 -93 0
-39 -67 -95 0
-41 -69 -97 0
-43 -71 -99 0
-45 -73 -101 0
-47 -75 -103 0
-49 -77 -105 0
-51 -79 -107 0
-53 -81 -109 0
-55 -83 -111 0
-57 -85 -113 0
-59 -87 -115 0
-1 -31 -61 0
-3 -33 -63 0
-5 -35 -65 0
-7 -37 -67 0
-9 -39 -69 0
-11 -41 -71 0
-13 -43 -73 0
-15 -45 -75 0
-17 -47 -77 0
-19 -49 -79 0
-21 -51 -81 0
-23 -53 -83 0
-25 -55 -85 0
-27 -57 -87 0
-29 -59 -89 0
-31 -61 -91 0
-33 -63 -93 0
-35 -65 -95 0
-37 -67 -97 0
-39 -69 -99 0
-41 -71 -101 0
-43 -73 -103 0
-45 -75 -105 0
-47 -77 -107 0
-49 -79 -109 0
-51 -81 -111 0
-53 -83 -113 0
-55 -85 -115 0
-1 -33 -65 0
-3 -35 -67 0
-5 -37 -69 0
-7 -39 -71 0
-9 -41 -73 0
-11 -43 -75 0
-13 -45 -77 0
-15 -47 -79 0
-17 -49 -81 0
-19 -51 -83 0
-21 -53 -85 0
-23 -55 -87 0
-25 -57 -89 0
-27 -59 -91 0
-29 -61 -93 0
-31 -63 -95 0
-33 -65 -97 0
-35 -67 -99 0
-37 -69 -101 0
-39 -71 -103 0
-41 -73 -105 0
-43 -75 -107 0
-45 -77 -109 0
-47 -79 -111 0
-49 -81 -113 0
-51 -83 -115 0
-1 -35 -69 0
-3 -37 -71 0
-5 -39 -73 0
-7 -41 -75 0
-9 -43 -77 0
-11 -45 -79 0
-13 -47 -81 0
-15 -49 -83 0
-17 -51 -85 0
-19 -53 -87 0
-21 -55 -89 0
-23 -57 -91 0
-25 -59 -93 0
-27 -61 -95 0
-29 -63 -97 0
-31 -65 -99 0
-33 -67 -101 0
-35 -69 -103 0
-37 -71 -105 0
-39 -73 -107 0
-41 -75 -109 0
-43 -77 -111 0
-45 -79 -113 0
-47 -81 -115 0
-1 -37 -73 0
-3 -39 -75 0
-5 -41 -77 0
-7 -43 -79 0
-9 -45 -81 0
-11 -47 -83 0
-13 -49 -85 0
-15 -51 -87 0
-17 -53 -89 0
-19 -55 -91 0
-21 -57 -93 0
-23 -59 -95 0
-25 -61 -97 0
-27 -63 -99 0
-29 -65 -101 0
-31 -67 -103 0
-33 -69 -105 0
-35 -71 -107 0
-37 -73 -109 0
-39 -75 -111 0
-41 -77 -113 0
-43 -79 -115 0
-1 -39 -77 0
-3 -41 -79 0
-5 -43 -81 0
-7 -45 -83 0
-9 -47 -85 0
-11 -49 -87 0
-13 -51 -89 0
-15 -53 -91 0
-17 -55 -93 0
-19 -57 -95 0
-21 -59 -97 0
-23 -61 -99 0
-25 -63 -101 0
-27 -65 -103 0
-29 -67 -105 0
-31 -69 -107 0
-33 -71 -109 0
-35 -73 -111 0
-37 -75 -113 0
-39 -77 -115 0
-1 -41 -81 0
-3 -43 -83 0
-5 -45 -85 0
-7 -47 -87 0
-9 -49 -89 0
-11 -51 -91 0
-13 -53 -93 0
-15 -55 -95 0
-17 -57 -97 0
-19 -59 -99 0
-21 -61 -101 0
-23 -63 -103 0
-25 -65 -105 0
-27 -67 -107 0
-29 -69 -109 0
-31 -71 -111 0
-33 -73 -113 0
-35 -75 -115 0
-1 -43 -85 0
-3 -45 -87 0
-5 -47 -89 0
-7 -49 -91 0
-9 -51 -93 0
-11 -53 -95 0
-13 -55 -97 0
-15 -57 -99 0
-17 -59 -101 0
-19 -61 -103 0
-21 -63 -105 0
-23 -65 -107 0
-25 -67 -109 0
-27 -69 -111 0
-29 -71 -113 0
-31 -73 -115 0
-1 -45 -89 0
-3 -47 -91 0
-5 -49 -93 0
-7 -51 -95 0
-9 -53 -97 0
-11 -55 -99 0
-13 -57 -101 0
-15 -59 -103 0
-17 -61 -105 0
-19 -63 -107 0
-21 -65 -109 0
-23 -67 -111 0
-25 -69 -113 0
-27 -71 -115 0
-1 -47 -93 0
-3 -49 -95 0
-5 -51 -97 0
-7 -53 -99 0
-9 -55 -101 0
-11 -57 -103 0
-13 -59 -105 0
-15 -61 -107 0
-17 -63 -109 0
-19 -65 -111 0
-21 -67 -113 0
-23 -69 -115 0
-1 -49 -97 0
-3 -51 -99 0
-5 -53 -101 0
-7 -55 -103 0
-9 -57 -105 0
-11 -59 -107 0
-13 -61 -109 0
-15 -63 -111 0
-17 -65 -113 0
-19 -67 -115 0
-1 -51 -101 0
-3 -53 -103 0
-5 -55 -105 0
-7 -57 -107 0
-9 -59 -109 0
-11 -61 -111 0
-13 -63 -113 0
-15 -65 -115 0
-1 -53 -105 0
-3 -55 -107 0
-5 -57 -109 0
-7 -59 -111 0
-9 -61 -113 0
-11 -63 -115 0
-1 -55 -109 0
-3 -57 -111 0
-5 -59 -113 0
-7 -61 -115 0
-1 -57 -113 0
-3 -59 -115 0
-2 -4 -6 -8 -10 -12 -14 -16 0
-4 -6 -8 -10 -12 -14 -16 -18 0
-6 -8 -10 -12 -14 -16 -18 -20 0
-8 -10 -12 -14 -16 -18 -20 -22 0
-10 -12 -14 -16 -18 -20 -22 -24 0
-12 -14 -16 -18 -20 -22 -24 -26 0
-14 -16 -18 -20 -22 -24 -26 -28 0
-16 -18 -20 -22 -24 -26 -28 -30 0
-18 -20 -22 -24 -26 -28 -30 -32 0
-20 -22 -24 -26 -28 -30 -32 -34 0
-22 -24 -26 -28 -30 -32 -34 -36 0
-24 -26 -28 -30 -32 -34 -36 -38 0
-26 -28 -30 -32 -34 -36 -38 -40 0
-28 -30 -32 -34 -36 -38 -40 -42 0
-30 -32 -34 -36 -38 -40 -42 -44 0
-32 -34 -36 -38 -40 -42 -44 -46 0
-34 -36 -38 -40 -42 -44 -46 -48 0
-36 -38 -40 -42 -44 -46 -48 -50 0
-38 -40 -42 -44 -46 -48 -50 -52 0
-40 -42 -44 -46 -48 -50 -52 -54 0
-42 -44 -46 -48 -50 -52 -54 -56 0
-44 -46 -48 -50 -52 -54 -56 -58 0
-46 -48 -50 -52 -54 -56 -58 -60 0
-48 -50 -52 -54 -56 -58 -60 -62 0
-50 -52 -54 -56 -58 -60 -62 -64 0
-52 -54 -56 -58 -60 -62 -64 -66 0
-54 -56 -58 -60 -62 -64 -66 -68 0
-56 -58 -60 -62 -64 -66 -68 -70 0
-58 -60 -62 -64 -66 -68 -70 -72 0
-60 -62 -64 -66 -68 -70 -72 -74 0
-62 -64 -66 -68 -70 -72 -74 -76 0
-64 -66 -68 -70 -72 -74 -76 -78 0
-66 -68 -70 -72 -74 -76 -78 -80 0
-68 -70 -72 -74 -76 -78 -80 -82 0
-70 -72 -74 -76 -78 -80 -82 -84 0
-72 -74 -76 -78 -80 -82 -84 -86 0
-74 -76 -78 -80 -82 -84 -86 -88 0
-76 -78 -80 -82 -84 -86 -88 -90 0
-78 -80 -82 -84 -86 -88 -90 -92 0
-80 -82 -84 -86 -88 -90 -92 -94 0
-82 -84 -86 -88 -90 -92 -94 -96 0
-84 -86 -88 -90 -92 -94 -96 -98 0
-86 -88 -90 -92 -94 -96 -98 -100 0
-88 -90 -92 -94 -96 -98 -100 -102 0
-90 -92 -94 -96 -98 -100 -102 -104 0
-92 -94 -96 -98 -100 -102 -104 -106 0
-94 -96 -98 -100 -102 -104 -106 -108 0
-96 -98 -100 -102 -104 -106 -108 -110 0
-98 -100 -102 -104 -106 -108 -110 -112 0
-100 -102 -104 -106 -108 -110 -112 -114 0
-102 -104 -106 -108 -110 -112 -114 -116 0
-2 -6 -10 -14 -18 -22 -26 -30 0
-4 -8 -12 -16 -20 -24 -28 -32 0
-6 -10 -14 -18 -22 -26 -30 -34 0
-8 -12 -16 -20 -24 -28 -32 -36 0
-10 -14 -18 -22 -26 -30 -34 -38 0
-12 -16 -20 -24 -28 -32 -36 -40 0
-14 -18 -22 -26 -30 -34 -38 -42 0
-16 -20 -24 -28 -32 -36 -40 -44 0
-18 -22 -26 -30 -34 -38 -42 -46 0
-20 -24 -28 -32 -36 -40 -44 -48 0
-22 -26 -30 -34 -38 -42 -46 -50 0
-24 -28 -32 -36 -40 -44 -48 -52 0
-26 -30 -34 -38 -42 -46 -50 -54 0
-28 -32 -36 -40 -44 -48 -52 -56 0
-30 -34 -38 -42 -46 -50 -54 -58 0
-32 -36 -40 -44 -48 -52 -56 -60 0
-34 -38 -42 -46 -50 -54 -58 -62 0
-36 -40 -44 -48 -52 -56 -60 -64 0
-38 -42 -46 -50 -54 -58 -62 -66 0
-40 -44 -48 -52 -56 -60 -64 -68 0
-42 -46 -50 -54 -58 -62 -66 -70 0
-44 -48 -52 -56 -60 -64 -68 -72 0
-46 -50 -54 -58 -62 -66 -70 -74 0
-48 -52 -56 -60 -64 -68 -72 -76 0
-50 -54 -58 -62 -66 -70 -74 -78 0
-52 -56 -60 -64 -68 -72 -76 -80 0
-54 -58 -62 -66 -70 -74 -78 -82 0
-56 -60 -64 -68 -72 -76 -80 -84 0
-58 -62 -66 -70 -74 -78 -82 -86 0
-60 -64 -68 -72 -76 -80 -84 -88 0
-62 -66 -70 -74 -78 -82 -86 -90 0
-64 -68 -72 -76 -80 -84 -88 -92 0
-66 -70 -74 -78 -82 -86 -90 -94 0
-68 -72 -76 -80 -84 -88 -92 -96 0
-70 -74 -78 -82 -86 -90 -94 -98 0
-72 -76 -80 -84 -88 -92 -96 -100 0
-74 -78 -82 -86 -90 -94 -98 -102 0
-76 -80 -84 -88 -92 -96 -100 -104 0
-78 -82 -86 -90 -94 -98 -102 -106 0
-80 -84 -88 -92 -96 -100 -104 -108 0
-82 -86 -90 -94 -98 -102 -106 -110 0
-84 -88 -92 -96 -100 -104 -108 -112 0
-86 -90 -94 -98 -102 -106 -110 -114 0
-88 -92 -96 -100 -104 -108 -112 -116 0
-2 -8 -14 -20 -26 -32 -38 -44 0
-4 -10 -16 -22 -28 -34 -40 -46 0
-6 -12 -18 -24 -30 -36 -42 -48 0
-8 -14 -20 -26 -32 -38 -44 -50 0
-10 -16 -22 -28 -34 -40 -46 -52 0
-12 -18 -24 -30 -36 -42 -48 -54 0
-14 -20 -26 -32 -38 -44 -50 -56 0
-16 -22 -28 -34 -40 -46 -52 -58 0
-18 -24 -30 -36 -42 -48 -54 -60 0
-20 -26 -32 -38 -44 -50 -56 -62 0
-22 -28 -34 -40 -46 -52 -58 -64 0
-24 -30 -36 -42 -48 -54 -60 -66 0
-26 -32 -38 -44 -50 -56 -62 -68 0
-28 -34 -40 -46 -52 -58 -64 -70 0
-30 -36 -42 -48 -54 -60 -66 -72 0
-32 -38 -44 -50 -56 -62 -68 -74 0
-34 -40 -46 -52 -58 -64 -70 -76 0
-36 -42 -48 -54 -60 -66 -72 -78 0
-38 -44 -50 -56 -62 -68 -74 -80 0
-40 -46 -52 -58 -64 -70 -76 -82 0
-42 -48 -54 -60 -66 -72 -78 -84 0
-44 -50 -56 -62 -68 -74 -80 -86 0
-46 -52 -58 -64 -70 -76 -82 -88 0
-48 -54 -60 -66 -72 -78 -84 -90 0
-50 -56 -62 -68 -74 -80 -86 -92 0
-52 -58 -64 -70 -76 -82 -88 -94 0
-54 -60 -66 -72 -78 -84 -90 -96 0
-56 -62 -68 -74 -80 -86 -92 -98 0
-58 -64 -70 -76 -82 -88 -94 -100 0
-60 -66 -72 -78 -84 -90 -96 -102 0
-62 -68 -74 -80 -86 -92 -98 -104 0
-64 -70 -76 -82 -88 -94 -100 -106 0
-66 -72 -78 -84 -90 -96 -102 -108 0
-68 -74 -80 -86 -92 -98 -104 -110 0
-70 -76 -82 -88 -94 -100 -106 -112 0
-72 -78 -84 -90 -96 -102 -108 -114 0
-74 -80 -86 -92 -98 -104 -110 -116 0
-2 -10 -18 -26 -34 -42 -50 -58 0
-4 -12 -20 -28 -36 -44 -52 -60 0
-6 -14 -22 -30 -38 -46 -54 -62 0
-8 -16 -24 -32 -40 -48 -56 -64 0
-10 -18 -26 -34 -42 -50 -58 -66 0
-12 -20 -28 -36 -44 -52 -60 -68 0
-14 -22 -30 -38 -46 -54 -62 -70 0
-16 -24 -32 -40 -48 -56 -64 -72 0
-18 -26 -34 -42 -50 -58 -66 -74 0
-20 -28 -36 -44 -52 -60 -68 -76 0
-22 -30 -38 -46 -54 -62 -70 -78 0
-24 -32 -40 -48 -56 -64 -72 -80 0
-26 -34 -42 -50 -58 -66 -74 -82 0
-28 -36 -44 -52 -60 -68 -76 -84 0
-30 -38 -46 -54 -62 -70 -78 -86 0
-32 -40 -48 -56 -64 -72 -80 -88 0
-34 -42 -50 -58 -66 -74 -82 -90 0
-36 -44 -52 -60 -68 -76 -84 -92 0
-38 -46 -54 -62 -70 -78 -86 -94 0
-40 -48 -56 -64 -72 -80 -88 -96 0
-42 -50 -58 -66 -74 -82 -90 -98 0
-44 -52 -60 -68 -76 -84 -92 -100 0
-46 -54 -62 -70 -78 -86 -94 -102 0
-48 -56 -64 -72 -80 -88 -96 -104 0
-50 -58 -66 -74 -82 -90 -98 -106 0
-52 -60 -68 -76 -84 -92 -100 -108 0
-54 -62 -70 -78 -86 -94 -102 -110 0
-56 -64 -72 -80 -88 -96 -104 -112 0
-58 -66 -74 -82 -90 -98 -106 -114 0
-60 -68 -76 -84 -92 -100 -108 -116 0
-2 -12 -22 -32 -42 -52 -62 -72 0
-4 -14 -24 -34 -44 -54 -64 -74 0
-6 -16 -26 -36 -46 -56 -66 -76 0
-8 -18 -28 -38 -48 -58 -68 -78 0
-10 -20 -30 -40 -50 -60 -70 -80 0
-12 -22 -32 -42 -52 -62 -72 -82 0
-14 -24 -34 -44 -54 -64 -74 -84 0
-16 -26 -36 -46 -56 -66 -76 -86 0
-18 -28 -38 -48 -58 -68 -78 -88 0
-20 -30 -40 -50 -60 -70 -80 -90 0
-22 -32 -42 -52 -62 -72 -82 -92 0
-24 -34 -44 -54 -64 -74 -84 -94 0
-26 -36 -46 -56 -66 -76 -86 -96 0
-28 -38 -48 -58 -68 -78 -88 -98 0
-30 -40 -50 -60 -70 -80 -90 -100 0
-32 -42 -52 -62 -72 -82 -92 -102 0
-34 -44 -54 -64 -74 -84 -94 -104 0
-36 -46 -56 -66 -76 -86 -96 -106 0
-38 -48 -58 -68 -78 -88 -98 -108 0
-40 -50 -60 -70 -80 -90 -100 -110 0
-42 -52 -62 -72 -82 -92 -102 -112 0
-44 -54 -64 -74 -84 -94 -104 -114 0
-46 -56 -66 -76 -86 -96 -106 -116 0
-2 -14 -26 -38 -50 -62 -74 -86 0
-4 -16 -28 -40 -52 -64 -76 -88 0
-6 -18 -30 -42 -54 -66 -78 -90 0
-8 -20 -32 -44 -56 -68 -80 -92 0
-10 -22 -34 -46 -58 -70 -82 -94 0
-12 -24 -36 -48 -60 -72 -84 -96 0
-14 -26 -38 -50 -62 -74 -86 -98 0
-16 -28 -40 -52 -64 -76 -88 -100 0
-18 -30 -42 -54 -66 -78 -90 -102 0
-20 -32 -44 -56 -68 -80 -92 -104 0
-22 -34 -46 -58 -70 -82 -94 -106 0
-24 -36 -48 -60 -72 -84 -96 -108 0
-26 -38 -50 -62 -74 -86 -98 -110 0
-28 -40 -52 -64 -76 -88 -100 -112 0
-30 -42 -54 -66 -78 -90 -102 -114 0
-32 -44 -56 -68 -80 -92 -104 -116 0
-2 -16 -30 -44 -58 -72 -86 -100 0
-4 -18 -32 -46 -60 -74 -88 -102 0
-6 -20 -34 -48 -62 -76 -90 -104 0
-8 -22 -36 -50 -64 -78 -92 -106 0
-10 -24 -38 -52 -66 -80 -94 -108 0
-12 -26 -40 -54 -68 -82 -96 -110 0
-14 -28 -42 -56 -70 -84 -98 -112 0
-16 -30 -44 -58 -72 -86 -100 -114 0
-18 -32 -46 -60 -74 -88 -102 -116 0
-2 -18 -34 -50 -66 -82 -98 -114 0
-4 -20 -36 -52 -68 -84 -100 -116 0
-1 -2 0
-3 -4 0
-5 -6 0
-7 -8 0
-9 -10 0
-11 -12 0
-13 -14 0
-15 -16 0
-17 -18 0
-19 -20 0
-21 -22 0
-23 -24 0
-25 -26 0
-27 -28 0
-29 -30 0
-31 -32 0
-33 -34 0
-35 -36 0
-37 -38 0
-39 -40 0
-41 -42 0
-43 -44 0
-45 -46 0
-47 -48 0
-49 -50 0
-51 -52 0
-53 -54 0
-55 -56 0
-57 -58 0
-59 -60 0
-61 -62 0
-63 -64 0
-65 -66 0
-67 -68 0
-69 -70 0
-71 -72 0
-73 -74 0
-75 -76 0
-77 -78 0
-79 -80 0
-81 -82 0
-83 -84 0
-85 -86 0
-87 -88 0
-89 -90 0
-91 -92 0
-93 -94 0
-95 -96 0
-97 -98 0
-99 -100 0
-101 -102 0
-103 -104 0
-105 -106 0
-107 -108 0
-109 -110 0
-111 -112 0
-113 -114 0
-115 -116 0
