p cnf 375 8174
1 2 3 0
4 5 6 0
7 8 9 0
10 11 12 0
13 14 15 0
16 17 18 0
19 20 21 0
22 23 24 0
25 26 27 0
28 29 30 0
31 32 33 0
34 35 36 0
37 38 39 0
40 41 42 0
43 44 45 0
46 47 48 0
49 50 51 0
52 53 54 0
55 56 57 0
58 59 60 0
61 62 63 0
64 65 66 0
67 68 69 0
70 71 72 0
73 74 75 0
76 77 78 0
79 80 81 0
82 83 84 0
85 86 87 0
88 89 90 0
91 92 93 0
94 95 96 0
97 98 99 0
100 101 102 0
103 104 105 0
106 107 108 0
109 110 111 0
112 113 114 0
115 116 117 0
118 119 120 0
121 122 123 0
124 125 126 0
127 128 129 0
130 131 132 0
133 134 135 0
136 137 138 0
139 140 141 0
142 143 144 0
145 146 147 0
148 149 150 0
151 152 153 0
154 155 156 0
157 158 159 0
160 161 162 0
163 164 165 0
166 167 168 0
169 170 171 0
172 173 174 0
175 176 177 0
178 179 180 0
181 182 183 0
184 185 186 0
187 188 189 0
190 191 192 0
193 194 195 0
196 197 198 0
199 200 201 0
202 203 204 0
205 206 207 0
208 209 210 0
211 212 213 0
214 215 216 0
217 218 219 0
220 221 222 0
223 224 225 0
226 227 228 0
229 230 231 0
232 233 234 0
235 236 237 0
238 239 240 0
241 242 243 0
244 245 246 0
247 248 249 0
250 251 252 0
253 254 255 0
256 257 258 0
259 260 261 0
262 263 264 0
265 266 267 0
268 269 270 0
271 272 273 0
274 275 276 0
277 278 279 0
280 281 282 0
283 284 285 0
286 287 288 0
289 290 291 0
292 293 294 0
295 296 297 0
298 299 300 0
301 302 303 0
304 305 306 0
307 308 309 0
310 311 312 0
313 314 315 0
316 317 318 0
319 320 321 0
322 323 324 0
325 326 327 0
328 329 330 0
331 332 333 0
334 335 336 0
337 338 339 0
340 341 342 0
343 344 345 0
346 347 348 0
349 350 351 0
352 353 354 0
355 356 357 0
358 359 360 0
361 362 363 0
364 365 366 0
367 368 369 0
370 371 372 0
373 374 375 0
-1 -7 -13 0
-2 -8 -14 0
-3 -9 -15 0
-4 -10 -13 0
-5 -11 -14 0
-6 -12 -15 0
-7 -13 0
-8 -14 0
-9 -15 0
-10 -13 -16 0
-11 -14 -17 0
-12 -15 -18 0
-13 -19 0
-14 -20 0
-15 -21 0
-13 -16 -22 0
-14 -17 -23 0
-15 -18 -24 0
-13 -19 -25 0
-14 -20 -26 0
-15 -21 -27 0
-13 -22 -28 0
-14 -23 -29 0
-15 -24 -30 0
-13 -25 -31 0
-14 -26 -32 0
-15 -27 -33 0
-13 -28 -34 0
-14 -29 -35 0
-15 -30 -36 0
-13 -31 -37 0
-14 -32 -38 0
-15 -33 -39 0
-13 -34 -40 0
-14 -35 -41 0
-15 -36 -42 0
-13 -37 -43 0
-14 -38 -44 0
-15 -39 -45 0
-13 -40 -46 0
-14 -41 -47 0
-15 -42 -48 0
-13 -43 -49 0
-14 -44 -50 0
-15 -45 -51 0
-13 -46 -52 0
-14 -47 -53 0
-15 -48 -54 0
-13 -49 -55 0
-14 -50 -56 0
-15 -51 -57 0
-13 -52 -58 0
-14 -53 -59 0
-15 -54 -60 0
-13 -55 -61 0
-14 -56 -62 0
-15 -57 -63 0
-13 -58 -64 0
-14 -59 -65 0
-15 -60 -66 0
-13 -61 -67 0
-14 -62 -68 0
-15 -63 -69 0
-13 -64 -70 0
-14 -65 -71 0
-15 -66 -72 0
-13 -67 -73 0
-14 -68 -74 0
-15 -69 -75 0
-13 -70 -76 0
-14 -71 -77 0
-15 -72 -78 0
-13 -73 -79 0
-14 -74 -80 0
-15 -75 -81 0
-13 -76 -82 0
-14 -77 -83 0
-15 -78 -84 0
-13 -79 -85 0
-14 -80 -86 0
-15 -81 -87 0
-13 -82 -88 0
-14 -83 -89 0
-15 -84 -90 0
-13 -85 -91 0
-14 -86 -92 0
-15 -87 -93 0
-13 -88 -94 0
-14 -89 -95 0
-15 -90 -96 0
-13 -91 -97 0
-14 -92 -98 0
-15 -93 -99 0
-13 -94 -100 0
-14 -95 -101 0
-15 -96 -102 0
-13 -97 -103 0
-14 -98 -104 0
-15 -99 -105 0
-13 -100 -106 0
-14 -101 -107 0
-15 -102 -108 0
-13 -103 -109 0
-14 -104 -110 0
-15 -105 -111 0
-13 -106 -112 0
-14 -107 -113 0
-15 -108 -114 0
-13 -109 -115 0
-14 -110 -116 0
-15 -111 -117 0
-13 -112 -118 0
-14 -113 -119 0
-15 -114 -120 0
-13 -115 -121 0
-14 -116 -122 0
-15 -117 -123 0
-13 -118 -124 0
-14 -119 -125 0
-15 -120 -126 0
-13 -121 -127 0
-14 -122 -128 0
-15 -123 -129 0
-13 -124 -130 0
-14 -125 -131 0
-15 -126 -132 0
-13 -127 -133 0
-14 -128 -134 0
-15 -129 -135 0
-13 -130 -136 0
-14 -131 -137 0
-15 -132 -138 0
-13 -133 -139 0
-14 -134 -140 0
-15 -135 -141 0
-13 -136 -142 0
-14 -137 -143 0
-15 -138 -144 0
-13 -139 -145 0
-14 -140 -146 0
-15 -141 -147 0
-13 -142 -148 0
-14 -143 -149 0
-15 -144 -150 0
-13 -145 -151 0
-14 -146 -152 0
-15 -147 -153 0
-13 -148 -154 0
-14 -149 -155 0
-15 -150 -156 0
-13 -151 -157 0
-14 -152 -158 0
-15 -153 -159 0
-13 -154 -160 0
-14 -155 -161 0
-15 -156 -162 0
-13 -157 -163 0
-14 -158 -164 0
-15 -159 -165 0
-13 -160 -166 0
-14 -161 -167 0
-15 -162 -168 0
-13 -163 -169 0
-14 -164 -170 0
-15 -165 -171 0
-13 -166 -172 0
-14 -167 -173 0
-15 -168 -174 0
-13 -169 -175 0
-14 -170 -176 0
-15 -171 -177 0
-13 -172 -178 0
-14 -173 -179 0
-15 -174 -180 0
-13 -175 -181 0
-14 -176 -182 0
-15 -177 -183 0
-13 -178 -184 0
-14 -179 -185 0
-15 -180 -186 0
-13 -181 -187 0
-14 -182 -188 0
-15 -183 -189 0
-13 -184 -190 0
-14 -185 -191 0
-15 -186 -192 0
-13 -187 -193 0
-14 -188 -194 0
-15 -189 -195 0
-13 -190 -196 0
-14 -191 -197 0
-15 -192 -198 0
-13 -193 -199 0
-14 -194 -200 0
-15 -195 -201 0
-13 -196 -202 0
-14 -197 -203 0
-15 -198 -204 0
-13 -199 -205 0
-14 -200 -206 0
-15 -201 -207 0
-13 -202 -208 0
-14 -203 -209 0
-15 -204 -210 0
-13 -205 -211 0
-14 -206 -212 0
-15 -207 -213 0
-13 -208 -214 0
-14 -209 -215 0
-15 -210 -216 0
-13 -211 -217 0
-14 -212 -218 0
-15 -213 -219 0
-13 -214 -220 0
-14 -215 -221 0
-15 -216 -222 0
-13 -217 -223 0
-14 -218 -224 0
-15 -219 -225 0
-13 -220 -226 0
-14 -221 -227 0
-15 -222 -228 0
-13 -223 -229 0
-14 -224 -230 0
-15 -225 -231 0
-13 -226 -232 0
-14 -227 -233 0
-15 -228 -234 0
-13 -229 -235 0
-14 -230 -236 0
-15 -231 -237 0
-13 -232 -238 0
-14 -233 -239 0
-15 -234 -240 0
-13 -235 -241 0
-14 -236 -242 0
-15 -237 -243 0
-13 -238 -244 0
-14 -239 -245 0
-15 -240 -246 0
-13 -241 -247 0
-14 -242 -248 0
-15 -243 -249 0
-13 -244 -250 0
-14 -245 -251 0
-15 -246 -252 0
-13 -247 -253 0
-14 -248 -254 0
-15 -249 -255 0
-13 -250 -256 0
-14 -251 -257 0
-15 -252 -258 0
-13 -253 -259 0
-14 -254 -260 0
-15 -255 -261 0
-13 -256 -262 0
-14 -257 -263 0
-15 -258 -264 0
-13 -259 -265 0
-14 -260 -266 0
-15 -261 -267 0
-13 -262 -268 0
-14 -263 -269 0
-15 -264 -270 0
-13 -265 -271 0
-14 -266 -272 0
-15 -267 -273 0
-13 -268 -274 0
-14 -269 -275 0
-15 -270 -276 0
-13 -271 -277 0
-14 -272 -278 0
-15 -273 -279 0
-13 -274 -280 0
-14 -275 -281 0
-15 -276 -282 0
-13 -277 -283 0
-14 -278 -284 0
-15 -279 -285 0
-13 -280 -286 0
-14 -281 -287 0
-15 -282 -288 0
-13 -283 -289 0
-14 -284 -290 0
-15 -285 -291 0
-13 -286 -292 0
-14 -287 -293 0
-15 -288 -294 0
-13 -289 -295 0
-14 -290 -296 0
-15 -291 -297 0
-13 -292 -298 0
-14 -293 -299 0
-15 -294 -300 0
-13 -295 -301 0
-14 -296 -302 0
-15 -297 -303 0
-13 -298 -304 0
-14 -299 -305 0
-15 -300 -306 0
-13 -301 -307 0
-14 -302 -308 0
-15 -303 -309 0
-13 -304 -310 0
-14 -305 -311 0
-15 -306 -312 0
-13 -307 -313 0
-14 -308 -314 0
-15 -309 -315 0
-13 -310 -316 0
-14 -311 -317 0
-15 -312 -318 0
-13 -313 -319 0
-14 -314 -320 0
-15 -315 -321 0
-13 -316 -322 0
-14 -317 -323 0
-15 -318 -324 0
-13 -319 -325 0
-14 -320 -326 0
-15 -321 -327 0
-13 -322 -328 0
-14 -323 -329 0
-15 -324 -330 0
-13 -325 -331 0
-14 -326 -332 0
-15 -327 -333 0
-13 -328 -334 0
-14 -329 -335 0
-15 -330 -336 0
-13 -331 -337 0
-14 -332 -338 0
-15 -333 -339 0
-13 -334 -340 0
-14 -335 -341 0
-15 -336 -342 0
-13 -337 -343 0
-14 -338 -344 0
-15 -339 -345 0
-13 -340 -346 0
-14 -341 -347 0
-15 -342 -348 0
-13 -343 -349 0
-14 -344 -350 0
-15 -345 -351 0
-13 -346 -352 0
-14 -347 -353 0
-15 -348 -354 0
-13 -349 -355 0
-14 -350 -356 0
-15 -351 -357 0
-13 -352 -358 0
-14 -353 -359 0
-15 -354 -360 0
-13 -355 -361 0
-14 -356 -362 0
-15 -357 -363 0
-13 -358 -364 0
-14 -359 -365 0
-15 -360 -366 0
-13 -361 -367 0
-14 -362 -368 0
-15 -363 -369 0
-13 -364 -370 0
-14 -365 -371 0
-15 -366 -372 0
-13 -367 -373 0
-14 -368 -374 0
-15 -369 -375 0
-1 -13 -28 0
-2 -14 -29 0
-3 -15 -30 0
-4 -16 -28 0
-5 -17 -29 0
-6 -18 -30 0
-7 -19 -28 0
-8 -20 -29 0
-9 -21 -30 0
-10 -22 -28 0
-11 -23 -29 0
-12 -24 -30 0
-13 -25 -28 0
-14 -26 -29 0
-15 -27 -30 0
-16 -28 0
-17 -29 0
-18 -30 0
-19 -28 -31 0
-20 -29 -32 0
-21 -30 -33 0
-22 -28 -34 0
-23 -29 -35 0
-24 -30 -36 0
-25 -28 -37 0
-26 -29 -38 0
-27 -30 -39 0
-28 -40 0
-29 -41 0
-30 -42 0
-28 -31 -43 0
-29 -32 -44 0
-30 -33 -45 0
-28 -34 -46 0
-29 -35 -47 0
-30 -36 -48 0
-28 -37 -49 0
-29 -38 -50 0
-30 -39 -51 0
-28 -40 -52 0
-29 -41 -53 0
-30 -42 -54 0
-28 -43 -55 0
-29 -44 -56 0
-30 -45 -57 0
-28 -46 -58 0
-29 -47 -59 0
-30 -48 -60 0
-28 -49 -61 0
-29 -50 -62 0
-30 -51 -63 0
-28 -52 -64 0
-29 -53 -65 0
-30 -54 -66 0
-28 -55 -67 0
-29 -56 -68 0
-30 -57 -69 0
-28 -58 -70 0
-29 -59 -71 0
-30 -60 -72 0
-28 -61 -73 0
-29 -62 -74 0
-30 -63 -75 0
-28 -64 -76 0
-29 -65 -77 0
-30 -66 -78 0
-28 -67 -79 0
-29 -68 -80 0
-30 -69 -81 0
-28 -70 -82 0
-29 -71 -83 0
-30 -72 -84 0
-28 -73 -85 0
-29 -74 -86 0
-30 -75 -87 0
-28 -76 -88 0
-29 -77 -89 0
-30 -78 -90 0
-28 -79 -91 0
-29 -80 -92 0
-30 -81 -93 0
-28 -82 -94 0
-29 -83 -95 0
-30 -84 -96 0
-28 -85 -97 0
-29 -86 -98 0
-30 -87 -99 0
-28 -88 -100 0
-29 -89 -101 0
-30 -90 -102 0
-28 -91 -103 0
-29 -92 -104 0
-30 -93 -105 0
-28 -94 -106 0
-29 -95 -107 0
-30 -96 -108 0
-28 -97 -109 0
-29 -98 -110 0
-30 -99 -111 0
-28 -100 -112 0
-29 -101 -113 0
-30 -102 -114 0
-28 -103 -115 0
-29 -104 -116 0
-30 -105 -117 0
-28 -106 -118 0
-29 -107 -119 0
-30 -108 -120 0
-28 -109 -121 0
-29 -110 -122 0
-30 -111 -123 0
-28 -112 -124 0
-29 -113 -125 0
-30 -114 -126 0
-28 -115 -127 0
-29 -116 -128 0
-30 -117 -129 0
-28 -118 -130 0
-29 -119 -131 0
-30 -120 -132 0
-28 -121 -133 0
-29 -122 -134 0
-30 -123 -135 0
-28 -124 -136 0
-29 -125 -137 0
-30 -126 -138 0
-28 -127 -139 0
-29 -128 -140 0
-30 -129 -141 0
-28 -130 -142 0
-29 -131 -143 0
-30 -132 -144 0
-28 -133 -145 0
-29 -134 -146 0
-30 -135 -147 0
-28 -136 -148 0
-29 -137 -149 0
-30 -138 -150 0
-28 -139 -151 0
-29 -140 -152 0
-30 -141 -153 0
-28 -142 -154 0
-29 -143 -155 0
-30 -144 -156 0
-28 -145 -157 0
-29 -146 -158 0
-30 -147 -159 0
-28 -148 -160 0
-29 -149 -161 0
-30 -150 -162 0
-28 -151 -163 0
-29 -152 -164 0
-30 -153 -165 0
-28 -154 -166 0
-29 -155 -167 0
-30 -156 -168 0
-28 -157 -169 0
-29 -158 -170 0
-30 -159 -171 0
-28 -160 -172 0
-29 -161 -173 0
-30 -162 -174 0
-28 -163 -175 0
-29 -164 -176 0
-30 -165 -177 0
-28 -166 -178 0
-29 -167 -179 0
-30 -168 -180 0
-28 -169 -181 0
-29 -170 -182 0
-30 -171 -183 0
-28 -172 -184 0
-29 -173 -185 0
-30 -174 -186 0
-28 -175 -187 0
-29 -176 -188 0
-30 -177 -189 0
-28 -178 -190 0
-29 -179 -191 0
-30 -180 -192 0
-28 -181 -193 0
-29 -182 -194 0
-30 -183 -195 0
-28 -184 -196 0
-29 -185 -197 0
-30 -186 -198 0
-28 -187 -199 0
-29 -188 -200 0
-30 -189 -201 0
-28 -190 -202 0
-29 -191 -203 0
-30 -192 -204 0
-28 -193 -205 0
-29 -194 -206 0
-30 -195 -207 0
-28 -196 -208 0
-29 -197 -209 0
-30 -198 -210 0
-28 -199 -211 0
-29 -200 -212 0
-30 -201 -213 0
-28 -202 -214 0
-29 -203 -215 0
-30 -204 -216 0
-28 -205 -217 0
-29 -206 -218 0
-30 -207 -219 0
-28 -208 -220 0
-29 -209 -221 0
-30 -210 -222 0
-28 -211 -223 0
-29 -212 -224 0
-30 -213 -225 0
-28 -214 -226 0
-29 -215 -227 0
-30 -216 -228 0
-28 -217 -229 0
-29 -218 -230 0
-30 -219 -231 0
-28 -220 -232 0
-29 -221 -233 0
-30 -222 -234 0
-28 -223 -235 0
-29 -224 -236 0
-30 -225 -237 0
-28 -226 -238 0
-29 -227 -239 0
-30 -228 -240 0
-28 -229 -241 0
-29 -230 -242 0
-30 -231 -243 0
-28 -232 -244 0
-29 -233 -245 0
-30 -234 -246 0
-28 -235 -247 0
-29 -236 -248 0
-30 -237 -249 0
-28 -238 -250 0
-29 -239 -251 0
-30 -240 -252 0
-28 -241 -253 0
-29 -242 -254 0
-30 -243 -255 0
-28 -244 -256 0
-29 -245 -257 0
-30 -246 -258 0
-28 -247 -259 0
-29 -248 -260 0
-30 -249 -261 0
-28 -250 -262 0
-29 -251 -263 0
-30 -252 -264 0
-28 -253 -265 0
-29 -254 -266 0
-30 -255 -267 0
-28 -256 -268 0
-29 -257 -269 0
-30 -258 -270 0
-28 -259 -271 0
-29 -260 -272 0
-30 -261 -273 0
-28 -262 -274 0
-29 -263 -275 0
-30 -264 -276 0
-28 -265 -277 0
-29 -266 -278 0
-30 -267 -279 0
-28 -268 -280 0
-29 -269 -281 0
-30 -270 -282 0
-28 -271 -283 0
-29 -272 -284 0
-30 -273 -285 0
-28 -274 -286 0
-29 -275 -287 0
-30 -276 -288 0
-28 -277 -289 0
-29 -278 -290 0
-30 -279 -291 0
-28 -280 -292 0
-29 -281 -293 0
-30 -282 -294 0
-28 -283 -295 0
-29 -284 -296 0
-30 -285 -297 0
-28 -286 -298 0
-29 -287 -299 0
-30 -288 -300 0
-28 -289 -301 0
-29 -290 -302 0
-30 -291 -303 0
-28 -292 -304 0
-29 -293 -305 0
-30 -294 -306 0
-28 -295 -307 0
-29 -296 -308 0
-30 -297 -309 0
-28 -298 -310 0
-29 -299 -311 0
-30 -300 -312 0
-28 -301 -313 0
-29 -302 -314 0
-30 -303 -315 0
-28 -304 -316 0
-29 -305 -317 0
-30 -306 -318 0
-28 -307 -319 0
-29 -308 -320 0
-30 -309 -321 0
-28 -310 -322 0
-29 -311 -323 0
-30 -312 -324 0
-28 -313 -325 0
-29 -314 -326 0
-30 -315 -327 0
-28 -316 -328 0
-29 -317 -329 0
-30 -318 -330 0
-28 -319 -331 0
-29 -320 -332 0
-30 -321 -333 0
-28 -322 -334 0
-29 -323 -335 0
-30 -324 -336 0
-28 -325 -337 0
-29 -326 -338 0
-30 -327 -339 0
-28 -328 -340 0
-29 -329 -341 0
-30 -330 -342 0
-28 -331 -343 0
-29 -332 -344 0
-30 -333 -345 0
-28 -334 -346 0
-29 -335 -347 0
-30 -336 -348 0
-28 -337 -349 0
-29 -338 -350 0
-30 -339 -351 0
-28 -340 -352 0
-29 -341 -353 0
-30 -342 -354 0
-28 -343 -355 0
-29 -344 -356 0
-30 -345 -357 0
-28 -346 -358 0
-29 -347 -359 0
-30 -348 -360 0
-28 -349 -361 0
-29 -350 -362 0
-30 -351 -363 0
-28 -352 -364 0
-29 -353 -365 0
-30 -354 -366 0
-28 -355 -367 0
-29 -356 -368 0
-30 -357 -369 0
-28 -358 -370 0
-29 -359 -371 0
-30 -360 -372 0
-28 -361 -373 0
-29 -362 -374 0
-30 -363 -375 0
-1 -19 -43 0
-2 -20 -44 0
-3 -21 -45 0
-4 -22 -43 0
-5 -23 -44 0
-6 -24 -45 0
-7 -25 -43 0
-8 -26 -44 0
-9 -27 -45 0
-10 -28 -43 0
-11 -29 -44 0
-12 -30 -45 0
-13 -31 -43 0
-14 -32 -44 0
-15 -33 -45 0
-16 -34 -43 0
-17 -35 -44 0
-18 -36 -45 0
-19 -37 -43 0
-20 -38 -44 0
-21 -39 -45 0
-22 -40 -43 0
-23 -41 -44 0
-24 -42 -45 0
-25 -43 0
-26 -44 0
-27 -45 0
-28 -43 -46 0
-29 -44 -47 0
-30 -45 -48 0
-31 -43 -49 0
-32 -44 -50 0
-33 -45 -51 0
-34 -43 -52 0
-35 -44 -53 0
-36 -45 -54 0
-37 -43 -55 0
-38 -44 -56 0
-39 -45 -57 0
-40 -43 -58 0
-41 -44 -59 0
-42 -45 -60 0
-43 -61 0
-44 -62 0
-45 -63 0
-43 -46 -64 0
-44 -47 -65 0
-45 -48 -66 0
-43 -49 -67 0
-44 -50 -68 0
-45 -51 -69 0
-43 -52 -70 0
-44 -53 -71 0
-45 -54 -72 0
-43 -55 -73 0
-44 -56 -74 0
-45 -57 -75 0
-43 -58 -76 0
-44 -59 -77 0
-45 -60 -78 0
-43 -61 -79 0
-44 -62 -80 0
-45 -63 -81 0
-43 -64 -82 0
-44 -65 -83 0
-45 -66 -84 0
-43 -67 -85 0
-44 -68 -86 0
-45 -69 -87 0
-43 -70 -88 0
-44 -71 -89 0
-45 -72 -90 0
-43 -73 -91 0
-44 -74 -92 0
-45 -75 -93 0
-43 -76 -94 0
-44 -77 -95 0
-45 -78 -96 0
-43 -79 -97 0
-44 -80 -98 0
-45 -81 -99 0
-43 -82 -100 0
-44 -83 -101 0
-45 -84 -102 0
-43 -85 -103 0
-44 -86 -104 0
-45 -87 -105 0
-43 -88 -106 0
-44 -89 -107 0
-45 -90 -108 0
-43 -91 -109 0
-44 -92 -110 0
-45 -93 -111 0
-43 -94 -112 0
-44 -95 -113 0
-45 -96 -114 0
-43 -97 -115 0
-44 -98 -116 0
-45 -99 -117 0
-43 -100 -118 0
-44 -101 -119 0
-45 -102 -120 0
-43 -103 -121 0
-44 -104 -122 0
-45 -105 -123 0
-43 -106 -124 0
-44 -107 -125 0
-45 -108 -126 0
-43 -109 -127 0
-44 -110 -128 0
-45 -111 -129 0
-43 -112 -130 0
-44 -113 -131 0
-45 -114 -132 0
-43 -115 -133 0
-44 -116 -134 0
-45 -117 -135 0
-43 -118 -136 0
-44 -119 -137 0
-45 -120 -138 0
-43 -121 -139 0
-44 -122 -140 0
-45 -123 -141 0
-43 -124 -142 0
-44 -125 -143 0
-45 -126 -144 0
-43 -127 -145 0
-44 -128 -146 0
-45 -129 -147 0
-43 -130 -148 0
-44 -131 -149 0
-45 -132 -150 0
-43 -133 -151 0
-44 -134 -152 0
-45 -135 -153 0
-43 -136 -154 0
-44 -137 -155 0
-45 -138 -156 0
-43 -139 -157 0
-44 -140 -158 0
-45 -141 -159 0
-43 -142 -160 0
-44 -143 -161 0
-45 -144 -162 0
-43 -145 -163 0
-44 -146 -164 0
-45 -147 -165 0
-43 -148 -166 0
-44 -149 -167 0
-45 -150 -168 0
-43 -151 -169 0
-44 -152 -170 0
-45 -153 -171 0
-43 -154 -172 0
-44 -155 -173 0
-45 -156 -174 0
-43 -157 -175 0
-44 -158 -176 0
-45 -159 -177 0
-43 -160 -178 0
-44 -161 -179 0
-45 -162 -180 0
-43 -163 -181 0
-44 -164 -182 0
-45 -165 -183 0
-43 -166 -184 0
-44 -167 -185 0
-45 -168 -186 0
-43 -169 -187 0
-44 -170 -188 0
-45 -171 -189 0
-43 -172 -190 0
-44 -173 -191 0
-45 -174 -192 0
-43 -175 -193 0
-44 -176 -194 0
-45 -177 -195 0
-43 -178 -196 0
-44 -179 -197 0
-45 -180 -198 0
-43 -181 -199 0
-44 -182 -200 0
-45 -183 -201 0
-43 -184 -202 0
-44 -185 -203 0
-45 -186 -204 0
-43 -187 -205 0
-44 -188 -206 0
-45 -189 -207 0
-43 -190 -208 0
-44 -191 -209 0
-45 -192 -210 0
-43 -193 -211 0
-44 -194 -212 0
-45 -195 -213 0
-43 -196 -214 0
-44 -197 -215 0
-45 -198 -216 0
-43 -199 -217 0
-44 -200 -218 0
-45 -201 -219 0
-43 -202 -220 0
-44 -203 -221 0
-45 -204 -222 0
-43 -205 -223 0
-44 -206 -224 0
-45 -207 -225 0
-43 -208 -226 0
-44 -209 -227 0
-45 -210 -228 0
-43 -211 -229 0
-44 -212 -230 0
-45 -213 -231 0
-43 -214 -232 0
-44 -215 -233 0
-45 -216 -234 0
-43 -217 -235 0
-44 -218 -236 0
-45 -219 -237 0
-43 -220 -238 0
-44 -221 -239 0
-45 -222 -240 0
-43 -223 -241 0
-44 -224 -242 0
-45 -225 -243 0
-43 -226 -244 0
-44 -227 -245 0
-45 -228 -246 0
-43 -229 -247 0
-44 -230 -248 0
-45 -231 -249 0
-43 -232 -250 0
-44 -233 -251 0
-45 -234 -252 0
-43 -235 -253 0
-44 -236 -254 0
-45 -237 -255 0
-43 -238 -256 0
-44 -239 -257 0
-45 -240 -258 0
-43 -241 -259 0
-44 -242 -260 0
-45 -243 -261 0
-43 -244 -262 0
-44 -245 -263 0
-45 -246 -264 0
-43 -247 -265 0
-44 -248 -266 0
-45 -249 -267 0
-43 -250 -268 0
-44 -251 -269 0
-45 -252 -270 0
-43 -253 -271 0
-44 -254 -272 0
-45 -255 -273 0
-43 -256 -274 0
-44 -257 -275 0
-45 -258 -276 0
-43 -259 -277 0
-44 -260 -278 0
-45 -261 -279 0
-43 -262 -280 0
-44 -263 -281 0
-45 -264 -282 0
-43 -265 -283 0
-44 -266 -284 0
-45 -267 -285 0
-43 -268 -286 0
-44 -269 -287 0
-45 -270 -288 0
-43 -271 -289 0
-44 -272 -290 0
-45 -273 -291 0
-43 -274 -292 0
-44 -275 -293 0
-45 -276 -294 0
-43 -277 -295 0
-44 -278 -296 0
-45 -279 -297 0
-43 -280 -298 0
-44 -281 -299 0
-45 -282 -300 0
-43 -283 -301 0
-44 -284 -302 0
-45 -285 -303 0
-43 -286 -304 0
-44 -287 -305 0
-45 -288 -306 0
-43 -289 -307 0
-44 -290 -308 0
-45 -291 -309 0
-43 -292 -310 0
-44 -293 -311 0
-45 -294 -312 0
-43 -295 -313 0
-44 -296 -314 0
-45 -297 -315 0
-43 -298 -316 0
-44 -299 -317 0
-45 -300 -318 0
-43 -301 -319 0
-44 -302 -320 0
-45 -303 -321 0
-43 -304 -322 0
-44 -305 -323 0
-45 -306 -324 0
-43 -307 -325 0
-44 -308 -326 0
-45 -309 -327 0
-43 -310 -328 0
-44 -311 -329 0
-45 -312 -330 0
-43 -313 -331 0
-44 -314 -332 0
-45 -315 -333 0
-43 -316 -334 0
-44 -317 -335 0
-45 -318 -336 0
-43 -319 -337 0
-44 -320 -338 0
-45 -321 -339 0
-43 -322 -340 0
-44 -323 -341 0
-45 -324 -342 0
-43 -325 -343 0
-44 -326 -344 0
-45 -327 -345 0
-43 -328 -346 0
-44 -329 -347 0
-45 -330 -348 0
-43 -331 -349 0
-44 -332 -350 0
-45 -333 -351 0
-43 -334 -352 0
-44 -335 -353 0
-45 -336 -354 0
-43 -337 -355 0
-44 -338 -356 0
-45 -339 -357 0
-43 -340 -358 0
-44 -341 -359 0
-45 -342 -360 0
-43 -343 -361 0
-44 -344 -362 0
-45 -345 -363 0
-43 -346 -364 0
-44 -347 -365 0
-45 -348 -366 0
-43 -349 -367 0
-44 -350 -368 0
-45 -351 -369 0
-43 -352 -370 0
-44 -353 -371 0
-45 -354 -372 0
-43 -355 -373 0
-44 -356 -374 0
-45 -357 -375 0
-1 -25 -58 0
-2 -26 -59 0
-3 -27 -60 0
-4 -28 -58 0
-5 -29 -59 0
-6 -30 -60 0
-7 -31 -58 0
-8 -32 -59 0
-9 -33 -60 0
-10 -34 -58 0
-11 -35 -59 0
-12 -36 -60 0
-13 -37 -58 0
-14 -38 -59 0
-15 -39 -60 0
-16 -40 -58 0
-17 -41 -59 0
-18 -42 -60 0
-19 -43 -58 0
-20 -44 -59 0
-21 -45 -60 0
-22 -46 -58 0
-23 -47 -59 0
-24 -48 -60 0
-25 -49 -58 0
-26 -50 -59 0
-27 -51 -60 0
-28 -52 -58 0
-29 -53 -59 0
-30 -54 -60 0
-31 -55 -58 0
-32 -56 -59 0
-33 -57 -60 0
-34 -58 0
-35 -59 0
-36 -60 0
-37 -58 -61 0
-38 -59 -62 0
-39 -60 -63 0
-40 -58 -64 0
-41 -59 -65 0
-42 -60 -66 0
-43 -58 -67 0
-44 -59 -68 0
-45 -60 -69 0
-46 -58 -70 0
-47 -59 -71 0
-48 -60 -72 0
-49 -58 -73 0
-50 -59 -74 0
-51 -60 -75 0
-52 -58 -76 0
-53 -59 -77 0
-54 -60 -78 0
-55 -58 -79 0
-56 -59 -80 0
-57 -60 -81 0
-58 -82 0
-59 -83 0
-60 -84 0
-58 -61 -85 0
-59 -62 -86 0
-60 -63 -87 0
-58 -64 -88 0
-59 -65 -89 0
-60 -66 -90 0
-58 -67 -91 0
-59 -68 -92 0
-60 -69 -93 0
-58 -70 -94 0
-59 -71 -95 0
-60 -72 -96 0
-58 -73 -97 0
-59 -74 -98 0
-60 -75 -99 0
-58 -76 -100 0
-59 -77 -101 0
-60 -78 -102 0
-58 -79 -103 0
-59 -80 -104 0
-60 -81 -105 0
-58 -82 -106 0
-59 -83 -107 0
-60 -84 -108 0
-58 -85 -109 0
-59 -86 -110 0
-60 -87 -111 0
-58 -88 -112 0
-59 -89 -113 0
-60 -90 -114 0
-58 -91 -115 0
-59 -92 -116 0
-60 -93 -117 0
-58 -94 -118 0
-59 -95 -119 0
-60 -96 -120 0
-58 -97 -121 0
-59 -98 -122 0
-60 -99 -123 0
-58 -100 -124 0
-59 -101 -125 0
-60 -102 -126 0
-58 -103 -127 0
-59 -104 -128 0
-60 -105 -129 0
-58 -106 -130 0
-59 -107 -131 0
-60 -108 -132 0
-58 -109 -133 0
-59 -110 -134 0
-60 -111 -135 0
-58 -112 -136 0
-59 -113 -137 0
-60 -114 -138 0
-58 -115 -139 0
-59 -116 -140 0
-60 -117 -141 0
-58 -118 -142 0
-59 -119 -143 0
-60 -120 -144 0
-58 -121 -145 0
-59 -122 -146 0
-60 -123 -147 0
-58 -124 -148 0
-59 -125 -149 0
-60 -126 -150 0
-58 -127 -151 0
-59 -128 -152 0
-60 -129 -153 0
-58 -130 -154 0
-59 -131 -155 0
-60 -132 -156 0
-58 -133 -157 0
-59 -134 -158 0
-60 -135 -159 0
-58 -136 -160 0
-59 -137 -161 0
-60 -138 -162 0
-58 -139 -163 0
-59 -140 -164 0
-60 -141 -165 0
-58 -142 -166 0
-59 -143 -167 0
-60 -144 -168 0
-58 -145 -169 0
-59 -146 -170 0
-60 -147 -171 0
-58 -148 -172 0
-59 -149 -173 0
-60 -150 -174 0
-58 -151 -175 0
-59 -152 -176 0
-60 -153 -177 0
-58 -154 -178 0
-59 -155 -179 0
-60 -156 -180 0
-58 -157 -181 0
-59 -158 -182 0
-60 -159 -183 0
-58 -160 -184 0
-59 -161 -185 0
-60 -162 -186 0
-58 -163 -187 0
-59 -164 -188 0
-60 -165 -189 0
-58 -166 -190 0
-59 -167 -191 0
-60 -168 -192 0
-58 -169 -193 0
-59 -170 -194 0
-60 -171 -195 0
-58 -172 -196 0
-59 -173 -197 0
-60 -174 -198 0
-58 -175 -199 0
-59 -176 -200 0
-60 -177 -201 0
-58 -178 -202 0
-59 -179 -203 0
-60 -180 -204 0
-58 -181 -205 0
-59 -182 -206 0
-60 -183 -207 0
-58 -184 -208 0
-59 -185 -209 0
-60 -186 -210 0
-58 -187 -211 0
-59 -188 -212 0
-60 -189 -213 0
-58 -190 -214 0
-59 -191 -215 0
-60 -192 -216 0
-58 -193 -217 0
-59 -194 -218 0
-60 -195 -219 0
-58 -196 -220 0
-59 -197 -221 0
-60 -198 -222 0
-58 -199 -223 0
-59 -200 -224 0
-60 -201 -225 0
-58 -202 -226 0
-59 -203 -227 0
-60 -204 -228 0
-58 -205 -229 0
-59 -206 -230 0
-60 -207 -231 0
-58 -208 -232 0
-59 -209 -233 0
-60 -210 -234 0
-58 -211 -235 0
-59 -212 -236 0
-60 -213 -237 0
-58 -214 -238 0
-59 -215 -239 0
-60 -216 -240 0
-58 -217 -241 0
-59 -218 -242 0
-60 -219 -243 0
-58 -220 -244 0
-59 -221 -245 0
-60 -222 -246 0
-58 -223 -247 0
-59 -224 -248 0
-60 -225 -249 0
-58 -226 -250 0
-59 -227 -251 0
-60 -228 -252 0
-58 -229 -253 0
-59 -230 -254 0
-60 -231 -255 0
-58 -232 -256 0
-59 -233 -257 0
-60 -234 -258 0
-58 -235 -259 0
-59 -236 -260 0
-60 -237 -261 0
-58 -238 -262 0
-59 -239 -263 0
-60 -240 -264 0
-58 -241 -265 0
-59 -242 -266 0
-60 -243 -267 0
-58 -244 -268 0
-59 -245 -269 0
-60 -246 -270 0
-58 -247 -271 0
-59 -248 -272 0
-60 -249 -273 0
-58 -250 -274 0
-59 -251 -275 0
-60 -252 -276 0
-58 -253 -277 0
-59 -254 -278 0
-60 -255 -279 0
-58 -256 -280 0
-59 -257 -281 0
-60 -258 -282 0
-58 -259 -283 0
-59 -260 -284 0
-60 -261 -285 0
-58 -262 -286 0
-59 -263 -287 0
-60 -264 -288 0
-58 -265 -289 0
-59 -266 -290 0
-60 -267 -291 0
-58 -268 -292 0
-59 -269 -293 0
-60 -270 -294 0
-58 -271 -295 0
-59 -272 -296 0
-60 -273 -297 0
-58 -274 -298 0
-59 -275 -299 0
-60 -276 -300 0
-58 -277 -301 0
-59 -278 -302 0
-60 -279 -303 0
-58 -280 -304 0
-59 -281 -305 0
-60 -282 -306 0
-58 -283 -307 0
-59 -284 -308 0
-60 -285 -309 0
-58 -286 -310 0
-59 -287 -311 0
-60 -288 -312 0
-58 -289 -313 0
-59 -290 -314 0
-60 -291 -315 0
-58 -292 -316 0
-59 -293 -317 0
-60 -294 -318 0
-58 -295 -319 0
-59 -296 -320 0
-60 -297 -321 0
-58 -298 -322 0
-59 -299 -323 0
-60 -300 -324 0
-58 -301 -325 0
-59 -302 -326 0
-60 -303 -327 0
-58 -304 -328 0
-59 -305 -329 0
-60 -306 -330 0
-58 -307 -331 0
-59 -308 -332 0
-60 -309 -333 0
-58 -310 -334 0
-59 -311 -335 0
-60 -312 -336 0
-58 -313 -337 0
-59 -314 -338 0
-60 -315 -339 0
-58 -316 -340 0
-59 -317 -341 0
-60 -318 -342 0
-58 -319 -343 0
-59 -320 -344 0
-60 -321 -345 0
-58 -322 -346 0
-59 -323 -347 0
-60 -324 -348 0
-58 -325 -349 0
-59 -326 -350 0
-60 -327 -351 0
-58 -328 -352 0
-59 -329 -353 0
-60 -330 -354 0
-58 -331 -355 0
-59 -332 -356 0
-60 -333 -357 0
-58 -334 -358 0
-59 -335 -359 0
-60 -336 -360 0
-58 -337 -361 0
-59 -338 -362 0
-60 -339 -363 0
-58 -340 -364 0
-59 -341 -365 0
-60 -342 -366 0
-58 -343 -367 0
-59 -344 -368 0
-60 -345 -369 0
-58 -346 -370 0
-59 -347 -371 0
-60 -348 -372 0
-58 -349 -373 0
-59 -350 -374 0
-60 -351 -375 0
-1 -31 -73 0
-2 -32 -74 0
-3 -33 -75 0
-4 -34 -73 0
-5 -35 -74 0
-6 -36 -75 0
-7 -37 -73 0
-8 -38 -74 0
-9 -39 -75 0
-10 -40 -73 0
-11 -41 -74 0
-12 -42 -75 0
-13 -43 -73 0
-14 -44 -74 0
-15 -45 -75 0
-16 -46 -73 0
-17 -47 -74 0
-18 -48 -75 0
-19 -49 -73 0
-20 -50 -74 0
-21 -51 -75 0
-22 -52 -73 0
-23 -53 -74 0
-24 -54 -75 0
-25 -55 -73 0
-26 -56 -74 0
-27 -57 -75 0
-28 -58 -73 0
-29 -59 -74 0
-30 -60 -75 0
-31 -61 -73 0
-32 -62 -74 0
-33 -63 -75 0
-34 -64 -73 0
-35 -65 -74 0
-36 -66 -75 0
-37 -67 -73 0
-38 -68 -74 0
-39 -69 -75 0
-40 -70 -73 0
-41 -71 -74 0
-42 -72 -75 0
-43 -73 0
-44 -74 0
-45 -75 0
-46 -73 -76 0
-47 -74 -77 0
-48 -75 -78 0
-49 -73 -79 0
-50 -74 -80 0
-51 -75 -81 0
-52 -73 -82 0
-53 -74 -83 0
-54 -75 -84 0
-55 -73 -85 0
-56 -74 -86 0
-57 -75 -87 0
-58 -73 -88 0
-59 -74 -89 0
-60 -75 -90 0
-61 -73 -91 0
-62 -74 -92 0
-63 -75 -93 0
-64 -73 -94 0
-65 -74 -95 0
-66 -75 -96 0
-67 -73 -97 0
-68 -74 -98 0
-69 -75 -99 0
-70 -73 -100 0
-71 -74 -101 0
-72 -75 -102 0
-73 -103 0
-74 -104 0
-75 -105 0
-73 -76 -106 0
-74 -77 -107 0
-75 -78 -108 0
-73 -79 -109 0
-74 -80 -110 0
-75 -81 -111 0
-73 -82 -112 0
-74 -83 -113 0
-75 -84 -114 0
-73 -85 -115 0
-74 -86 -116 0
-75 -87 -117 0
-73 -88 -118 0
-74 -89 -119 0
-75 -90 -120 0
-73 -91 -121 0
-74 -92 -122 0
-75 -93 -123 0
-73 -94 -124 0
-74 -95 -125 0
-75 -96 -126 0
-73 -97 -127 0
-74 -98 -128 0
-75 -99 -129 0
-73 -100 -130 0
-74 -101 -131 0
-75 -102 -132 0
-73 -103 -133 0
-74 -104 -134 0
-75 -105 -135 0
-73 -106 -136 0
-74 -107 -137 0
-75 -108 -138 0
-73 -109 -139 0
-74 -110 -140 0
-75 -111 -141 0
-73 -112 -142 0
-74 -113 -143 0
-75 -114 -144 0
-73 -115 -145 0
-74 -116 -146 0
-75 -117 -147 0
-73 -118 -148 0
-74 -119 -149 0
-75 -120 -150 0
-73 -121 -151 0
-74 -122 -152 0
-75 -123 -153 0
-73 -124 -154 0
-74 -125 -155 0
-75 -126 -156 0
-73 -127 -157 0
-74 -128 -158 0
-75 -129 -159 0
-73 -130 -160 0
-74 -131 -161 0
-75 -132 -162 0
-73 -133 -163 0
-74 -134 -164 0
-75 -135 -165 0
-73 -136 -166 0
-74 -137 -167 0
-75 -138 -168 0
-73 -139 -169 0
-74 -140 -170 0
-75 -141 -171 0
-73 -142 -172 0
-74 -143 -173 0
-75 -144 -174 0
-73 -145 -175 0
-74 -146 -176 0
-75 -147 -177 0
-73 -148 -178 0
-74 -149 -179 0
-75 -150 -180 0
-73 -151 -181 0
-74 -152 -182 0
-75 -153 -183 0
-73 -154 -184 0
-74 -155 -185 0
-75 -156 -186 0
-73 -157 -187 0
-74 -158 -188 0
-75 -159 -189 0
-73 -160 -190 0
-74 -161 -191 0
-75 -162 -192 0
-73 -163 -193 0
-74 -164 -194 0
-75 -165 -195 0
-73 -166 -196 0
-74 -167 -197 0
-75 -168 -198 0
-73 -169 -199 0
-74 -170 -200 0
-75 -171 -201 0
-73 -172 -202 0
-74 -173 -203 0
-75 -174 -204 0
-73 -175 -205 0
-74 -176 -206 0
-75 -177 -207 0
-73 -178 -208 0
-74 -179 -209 0
-75 -180 -210 0
-73 -181 -211 0
-74 -182 -212 0
-75 -183 -213 0
-73 -184 -214 0
-74 -185 -215 0
-75 -186 -216 0
-73 -187 -217 0
-74 -188 -218 0
-75 -189 -219 0
-73 -190 -220 0
-74 -191 -221 0
-75 -192 -222 0
-73 -193 -223 0
-74 -194 -224 0
-75 -195 -225 0
-73 -196 -226 0
-74 -197 -227 0
-75 -198 -228 0
-73 -199 -229 0
-74 -200 -230 0
-75 -201 -231 0
-73 -202 -232 0
-74 -203 -233 0
-75 -204 -234 0
-73 -205 -235 0
-74 -206 -236 0
-75 -207 -237 0
-73 -208 -238 0
-74 -209 -239 0
-75 -210 -240 0
-73 -211 -241 0
-74 -212 -242 0
-75 -213 -243 0
-73 -214 -244 0
-74 -215 -245 0
-75 -216 -246 0
-73 -217 -247 0
-74 -218 -248 0
-75 -219 -249 0
-73 -220 -250 0
-74 -221 -251 0
-75 -222 -252 0
-73 -223 -253 0
-74 -224 -254 0
-75 -225 -255 0
-73 -226 -256 0
-74 -227 -257 0
-75 -228 -258 0
-73 -229 -259 0
-74 -230 -260 0
-75 -231 -261 0
-73 -232 -262 0
-74 -233 -263 0
-75 -234 -264 0
-73 -235 -265 0
-74 -236 -266 0
-75 -237 -267 0
-73 -238 -268 0
-74 -239 -269 0
-75 -240 -270 0
-73 -241 -271 0
-74 -242 -272 0
-75 -243 -273 0
-73 -244 -274 0
-74 -245 -275 0
-75 -246 -276 0
-73 -247 -277 0
-74 -248 -278 0
-75 -249 -279 0
-73 -250 -280 0
-74 -251 -281 0
-75 -252 -282 0
-73 -253 -283 0
-74 -254 -284 0
-75 -255 -285 0
-73 -256 -286 0
-74 -257 -287 0
-75 -258 -288 0
-73 -259 -289 0
-74 -260 -290 0
-75 -261 -291 0
-73 -262 -292 0
-74 -263 -293 0
-75 -264 -294 0
-73 -265 -295 0
-74 -266 -296 0
-75 -267 -297 0
-73 -268 -298 0
-74 -269 -299 0
-75 -270 -300 0
-73 -271 -301 0
-74 -272 -302 0
-75 -273 -303 0
-73 -274 -304 0
-74 -275 -305 0
-75 -276 -306 0
-73 -277 -307 0
-74 -278 -308 0
-75 -279 -309 0
-73 -280 -310 0
-74 -281 -311 0
-75 -282 -312 0
-73 -283 -313 0
-74 -284 -314 0
-75 -285 -315 0
-73 -286 -316 0
-74 -287 -317 0
-75 -288 -318 0
-73 -289 -319 0
-74 -290 -320 0
-75 -291 -321 0
-73 -292 -322 0
-74 -293 -323 0
-75 -294 -324 0
-73 -295 -325 0
-74 -296 -326 0
-75 -297 -327 0
-73 -298 -328 0
-74 -299 -329 0
-75 -300 -330 0
-73 -301 -331 0
-74 -302 -332 0
-75 -303 -333 0
-73 -304 -334 0
-74 -305 -335 0
-75 -306 -336 0
-73 -307 -337 0
-74 -308 -338 0
-75 -309 -339 0
-73 -310 -340 0
-74 -311 -341 0
-75 -312 -342 0
-73 -313 -343 0
-74 -314 -344 0
-75 -315 -345 0
-73 -316 -346 0
-74 -317 -347 0
-75 -318 -348 0
-73 -319 -349 0
-74 -320 -350 0
-75 -321 -351 0
-73 -322 -352 0
-74 -323 -353 0
-75 -324 -354 0
-73 -325 -355 0
-74 -326 -356 0
-75 -327 -357 0
-73 -328 -358 0
-74 -329 -359 0
-75 -330 -360 0
-73 -331 -361 0
-74 -332 -362 0
-75 -333 -363 0
-73 -334 -364 0
-74 -335 -365 0
-75 -336 -366 0
-73 -337 -367 0
-74 -338 -368 0
-75 -339 -369 0
-73 -340 -370 0
-74 -341 -371 0
-75 -342 -372 0
-73 -343 -373 0
-74 -344 -374 0
-75 -345 -375 0
-1 -37 -88 0
-2 -38 -89 0
-3 -39 -90 0
-4 -40 -88 0
-5 -41 -89 0
-6 -42 -90 0
-7 -43 -88 0
-8 -44 -89 0
-9 -45 -90 0
-10 -46 -88 0
-11 -47 -89 0
-12 -48 -90 0
-13 -49 -88 0
-14 -50 -89 0
-15 -51 -90 0
-16 -52 -88 0
-17 -53 -89 0
-18 -54 -90 0
-19 -55 -88 0
-20 -56 -89 0
-21 -57 -90 0
-22 -58 -88 0
-23 -59 -89 0
-24 -60 -90 0
-25 -61 -88 0
-26 -62 -89 0
-27 -63 -90 0
-28 -64 -88 0
-29 -65 -89 0
-30 -66 -90 0
-31 -67 -88 0
-32 -68 -89 0
-33 -69 -90 0
-34 -70 -88 0
-35 -71 -89 0
-36 -72 -90 0
-37 -73 -88 0
-38 -74 -89 0
-39 -75 -90 0
-40 -76 -88 0
-41 -77 -89 0
-42 -78 -90 0
-43 -79 -88 0
-44 -80 -89 0
-45 -81 -90 0
-46 -82 -88 0
-47 -83 -89 0
-48 -84 -90 0
-49 -85 -88 0
-50 -86 -89 0
-51 -87 -90 0
-52 -88 0
-53 -89 0
-54 -90 0
-55 -88 -91 0
-56 -89 -92 0
-57 -90 -93 0
-58 -88 -94 0
-59 -89 -95 0
-60 -90 -96 0
-61 -88 -97 0
-62 -89 -98 0
-63 -90 -99 0
-64 -88 -100 0
-65 -89 -101 0
-66 -90 -102 0
-67 -88 -103 0
-68 -89 -104 0
-69 -90 -105 0
-70 -88 -106 0
-71 -89 -107 0
-72 -90 -108 0
-73 -88 -109 0
-74 -89 -110 0
-75 -90 -111 0
-76 -88 -112 0
-77 -89 -113 0
-78 -90 -114 0
-79 -88 -115 0
-80 -89 -116 0
-81 -90 -117 0
-82 -88 -118 0
-83 -89 -119 0
-84 -90 -120 0
-85 -88 -121 0
-86 -89 -122 0
-87 -90 -123 0
-88 -124 0
-89 -125 0
-90 -126 0
-88 -91 -127 0
-89 -92 -128 0
-90 -93 -129 0
-88 -94 -130 0
-89 -95 -131 0
-90 -96 -132 0
-88 -97 -133 0
-89 -98 -134 0
-90 -99 -135 0
-88 -100 -136 0
-89 -101 -137 0
-90 -102 -138 0
-88 -103 -139 0
-89 -104 -140 0
-90 -105 -141 0
-88 -106 -142 0
-89 -107 -143 0
-90 -108 -144 0
-88 -109 -145 0
-89 -110 -146 0
-90 -111 -147 0
-88 -112 -148 0
-89 -113 -149 0
-90 -114 -150 0
-88 -115 -151 0
-89 -116 -152 0
-90 -117 -153 0
-88 -118 -154 0
-89 -119 -155 0
-90 -120 -156 0
-88 -121 -157 0
-89 -122 -158 0
-90 -123 -159 0
-88 -124 -160 0
-89 -125 -161 0
-90 -126 -162 0
-88 -127 -163 0
-89 -128 -164 0
-90 -129 -165 0
-88 -130 -166 0
-89 -131 -167 0
-90 -132 -168 0
-88 -133 -169 0
-89 -134 -170 0
-90 -135 -171 0
-88 -136 -172 0
-89 -137 -173 0
-90 -138 -174 0
-88 -139 -175 0
-89 -140 -176 0
-90 -141 -177 0
-88 -142 -178 0
-89 -143 -179 0
-90 -144 -180 0
-88 -145 -181 0
-89 -146 -182 0
-90 -147 -183 0
-88 -148 -184 0
-89 -149 -185 0
-90 -150 -186 0
-88 -151 -187 0
-89 -152 -188 0
-90 -153 -189 0
-88 -154 -190 0
-89 -155 -191 0
-90 -156 -192 0
-88 -157 -193 0
-89 -158 -194 0
-90 -159 -195 0
-88 -160 -196 0
-89 -161 -197 0
-90 -162 -198 0
-88 -163 -199 0
-89 -164 -200 0
-90 -165 -201 0
-88 -166 -202 0
-89 -167 -203 0
-90 -168 -204 0
-88 -169 -205 0
-89 -170 -206 0
-90 -171 -207 0
-88 -172 -208 0
-89 -173 -209 0
-90 -174 -210 0
-88 -175 -211 0
-89 -176 -212 0
-90 -177 -213 0
-88 -178 -214 0
-89 -179 -215 0
-90 -180 -216 0
-88 -181 -217 0
-89 -182 -218 0
-90 -183 -219 0
-88 -184 -220 0
-89 -185 -221 0
-90 -186 -222 0
-88 -187 -223 0
-89 -188 -224 0
-90 -189 -225 0
-88 -190 -226 0
-89 -191 -227 0
-90 -192 -228 0
-88 -193 -229 0
-89 -194 -230 0
-90 -195 -231 0
-88 -196 -232 0
-89 -197 -233 0
-90 -198 -234 0
-88 -199 -235 0
-89 -200 -236 0
-90 -201 -237 0
-88 -202 -238 0
-89 -203 -239 0
-90 -204 -240 0
-88 -205 -241 0
-89 -206 -242 0
-90 -207 -243 0
-88 -208 -244 0
-89 -209 -245 0
-90 -210 -246 0
-88 -211 -247 0
-89 -212 -248 0
-90 -213 -249 0
-88 -214 -250 0
-89 -215 -251 0
-90 -216 -252 0
-88 -217 -253 0
-89 -218 -254 0
-90 -219 -255 0
-88 -220 -256 0
-89 -221 -257 0
-90 -222 -258 0
-88 -223 -259 0
-89 -224 -260 0
-90 -225 -261 0
-88 -226 -262 0
-89 -227 -263 0
-90 -228 -264 0
-88 -229 -265 0
-89 -230 -266 0
-90 -231 -267 0
-88 -232 -268 0
-89 -233 -269 0
-90 -234 -270 0
-88 -235 -271 0
-89 -236 -272 0
-90 -237 -273 0
-88 -238 -274 0
-89 -239 -275 0
-90 -240 -276 0
-88 -241 -277 0
-89 -242 -278 0
-90 -243 -279 0
-88 -244 -280 0
-89 -245 -281 0
-90 -246 -282 0
-88 -247 -283 0
-89 -248 -284 0
-90 -249 -285 0
-88 -250 -286 0
-89 -251 -287 0
-90 -252 -288 0
-88 -253 -289 0
-89 -254 -290 0
-90 -255 -291 0
-88 -256 -292 0
-89 -257 -293 0
-90 -258 -294 0
-88 -259 -295 0
-89 -260 -296 0
-90 -261 -297 0
-88 -262 -298 0
-89 -263 -299 0
-90 -264 -300 0
-88 -265 -301 0
-89 -266 -302 0
-90 -267 -303 0
-88 -268 -304 0
-89 -269 -305 0
-90 -270 -306 0
-88 -271 -307 0
-89 -272 -308 0
-90 -273 -309 0
-88 -274 -310 0
-89 -275 -311 0
-90 -276 -312 0
-88 -277 -313 0
-89 -278 -314 0
-90 -279 -315 0
-88 -280 -316 0
-89 -281 -317 0
-90 -282 -318 0
-88 -283 -319 0
-89 -284 -320 0
-90 -285 -321 0
-88 -286 -322 0
-89 -287 -323 0
-90 -288 -324 0
-88 -289 -325 0
-89 -290 -326 0
-90 -291 -327 0
-88 -292 -328 0
-89 -293 -329 0
-90 -294 -330 0
-88 -295 -331 0
-89 -296 -332 0
-90 -297 -333 0
-88 -298 -334 0
-89 -299 -335 0
-90 -300 -336 0
-88 -301 -337 0
-89 -302 -338 0
-90 -303 -339 0
-88 -304 -340 0
-89 -305 -341 0
-90 -306 -342 0
-88 -307 -343 0
-89 -308 -344 0
-90 -309 -345 0
-88 -310 -346 0
-89 -311 -347 0
-90 -312 -348 0
-88 -313 -349 0
-89 -314 -350 0
-90 -315 -351 0
-88 -316 -352 0
-89 -317 -353 0
-90 -318 -354 0
-88 -319 -355 0
-89 -320 -356 0
-90 -321 -357 0
-88 -322 -358 0
-89 -323 -359 0
-90 -324 -360 0
-88 -325 -361 0
-89 -326 -362 0
-90 -327 -363 0
-88 -328 -364 0
-89 -329 -365 0
-90 -330 -366 0
-88 -331 -367 0
-89 -332 -368 0
-90 -333 -369 0
-88 -334 -370 0
-89 -335 -371 0
-90 -336 -372 0
-88 -337 -373 0
-89 -338 -374 0
-90 -339 -375 0
-1 -43 -103 0
-2 -44 -104 0
-3 -45 -105 0
-4 -46 -103 0
-5 -47 -104 0
-6 -48 -105 0
-7 -49 -103 0
-8 -50 -104 0
-9 -51 -105 0
-10 -52 -103 0
-11 -53 -104 0
-12 -54 -105 0
-13 -55 -103 0
-14 -56 -104 0
-15 -57 -105 0
-16 -58 -103 0
-17 -59 -104 0
-18 -60 -105 0
-19 -61 -103 0
-20 -62 -104 0
-21 -63 -105 0
-22 -64 -103 0
-23 -65 -104 0
-24 -66 -105 0
-25 -67 -103 0
-26 -68 -104 0
-27 -69 -105 0
-28 -70 -103 0
-29 -71 -104 0
-30 -72 -105 0
-31 -73 -103 0
-32 -74 -104 0
-33 -75 -105 0
-34 -76 -103 0
-35 -77 -104 0
-36 -78 -105 0
-37 -79 -103 0
-38 -80 -104 0
-39 -81 -105 0
-40 -82 -103 0
-41 -83 -104 0
-42 -84 -105 0
-43 -85 -103 0
-44 -86 -104 0
-45 -87 -105 0
-46 -88 -103 0
-47 -89 -104 0
-48 -90 -105 0
-49 -91 -103 0
-50 -92 -104 0
-51 -93 -105 0
-52 -94 -103 0
-53 -95 -104 0
-54 -96 -105 0
-55 -97 -103 0
-56 -98 -104 0
-57 -99 -105 0
-58 -100 -103 0
-59 -101 -104 0
-60 -102 -105 0
-61 -103 0
-62 -104 0
-63 -105 0
-64 -103 -106 0
-65 -104 -107 0
-66 -105 -108 0
-67 -103 -109 0
-68 -104 -110 0
-69 -105 -111 0
-70 -103 -112 0
-71 -104 -113 0
-72 -105 -114 0
-73 -103 -115 0
-74 -104 -116 0
-75 -105 -117 0
-76 -103 -118 0
-77 -104 -119 0
-78 -105 -120 0
-79 -103 -121 0
-80 -104 -122 0
-81 -105 -123 0
-82 -103 -124 0
-83 -104 -125 0
-84 -105 -126 0
-85 -103 -127 0
-86 -104 -128 0
-87 -105 -129 0
-88 -103 -130 0
-89 -104 -131 0
-90 -105 -132 0
-91 -103 -133 0
-92 -104 -134 0
-93 -105 -135 0
-94 -103 -136 0
-95 -104 -137 0
-96 -105 -138 0
-97 -103 -139 0
-98 -104 -140 0
-99 -105 -141 0
-100 -103 -142 0
-101 -104 -143 0
-102 -105 -144 0
-103 -145 0
-104 -146 0
-105 -147 0
-103 -106 -148 0
-104 -107 -149 0
-105 -108 -150 0
-103 -109 -151 0
-104 -110 -152 0
-105 -111 -153 0
-103 -112 -154 0
-104 -113 -155 0
-105 -114 -156 0
-103 -115 -157 0
-104 -116 -158 0
-105 -117 -159 0
-103 -118 -160 0
-104 -119 -161 0
-105 -120 -162 0
-103 -121 -163 0
-104 -122 -164 0
-105 -123 -165 0
-103 -124 -166 0
-104 -125 -167 0
-105 -126 -168 0
-103 -127 -169 0
-104 -128 -170 0
-105 -129 -171 0
-103 -130 -172 0
-104 -131 -173 0
-105 -132 -174 0
-103 -133 -175 0
-104 -134 -176 0
-105 -135 -177 0
-103 -136 -178 0
-104 -137 -179 0
-105 -138 -180 0
-103 -139 -181 0
-104 -140 -182 0
-105 -141 -183 0
-103 -142 -184 0
-104 -143 -185 0
-105 -144 -186 0
-103 -145 -187 0
-104 -146 -188 0
-105 -147 -189 0
-103 -148 -190 0
-104 -149 -191 0
-105 -150 -192 0
-103 -151 -193 0
-104 -152 -194 0
-105 -153 -195 0
-103 -154 -196 0
-104 -155 -197 0
-105 -156 -198 0
-103 -157 -199 0
-104 -158 -200 0
-105 -159 -201 0
-103 -160 -202 0
-104 -161 -203 0
-105 -162 -204 0
-103 -163 -205 0
-104 -164 -206 0
-105 -165 -207 0
-103 -166 -208 0
-104 -167 -209 0
-105 -168 -210 0
-103 -169 -211 0
-104 -170 -212 0
-105 -171 -213 0
-103 -172 -214 0
-104 -173 -215 0
-105 -174 -216 0
-103 -175 -217 0
-104 -176 -218 0
-105 -177 -219 0
-103 -178 -220 0
-104 -179 -221 0
-105 -180 -222 0
-103 -181 -223 0
-104 -182 -224 0
-105 -183 -225 0
-103 -184 -226 0
-104 -185 -227 0
-105 -186 -228 0
-103 -187 -229 0
-104 -188 -230 0
-105 -189 -231 0
-103 -190 -232 0
-104 -191 -233 0
-105 -192 -234 0
-103 -193 -235 0
-104 -194 -236 0
-105 -195 -237 0
-103 -196 -238 0
-104 -197 -239 0
-105 -198 -240 0
-103 -199 -241 0
-104 -200 -242 0
-105 -201 -243 0
-103 -202 -244 0
-104 -203 -245 0
-105 -204 -246 0
-103 -205 -247 0
-104 -206 -248 0
-105 -207 -249 0
-103 -208 -250 0
-104 -209 -251 0
-105 -210 -252 0
-103 -211 -253 0
-104 -212 -254 0
-105 -213 -255 0
-103 -214 -256 0
-104 -215 -257 0
-105 -216 -258 0
-103 -217 -259 0
-104 -218 -260 0
-105 -219 -261 0
-103 -220 -262 0
-104 -221 -263 0
-105 -222 -264 0
-103 -223 -265 0
-104 -224 -266 0
-105 -225 -267 0
-103 -226 -268 0
-104 -227 -269 0
-105 -228 -270 0
-103 -229 -271 0
-104 -230 -272 0
-105 -231 -273 0
-103 -232 -274 0
-104 -233 -275 0
-105 -234 -276 0
-103 -235 -277 0
-104 -236 -278 0
-105 -237 -279 0
-103 -238 -280 0
-104 -239 -281 0
-105 -240 -282 0
-103 -241 -283 0
-104 -242 -284 0
-105 -243 -285 0
-103 -244 -286 0
-104 -245 -287 0
-105 -246 -288 0
-103 -247 -289 0
-104 -248 -290 0
-105 -249 -291 0
-103 -250 -292 0
-104 -251 -293 0
-105 -252 -294 0
-103 -253 -295 0
-104 -254 -296 0
-105 -255 -297 0
-103 -256 -298 0
-104 -257 -299 0
-105 -258 -300 0
-103 -259 -301 0
-104 -260 -302 0
-105 -261 -303 0
-103 -262 -304 0
-104 -263 -305 0
-105 -264 -306 0
-103 -265 -307 0
-104 -266 -308 0
-105 -267 -309 0
-103 -268 -310 0
-104 -269 -311 0
-105 -270 -312 0
-103 -271 -313 0
-104 -272 -314 0
-105 -273 -315 0
-103 -274 -316 0
-104 -275 -317 0
-105 -276 -318 0
-103 -277 -319 0
-104 -278 -320 0
-105 -279 -321 0
-103 -280 -322 0
-104 -281 -323 0
-105 -282 -324 0
-103 -283 -325 0
-104 -284 -326 0
-105 -285 -327 0
-103 -286 -328 0
-104 -287 -329 0
-105 -288 -330 0
-103 -289 -331 0
-104 -290 -332 0
-105 -291 -333 0
-103 -292 -334 0
-104 -293 -335 0
-105 -294 -336 0
-103 -295 -337 0
-104 -296 -338 0
-105 -297 -339 0
-103 -298 -340 0
-104 -299 -341 0
-105 -300 -342 0
-103 -301 -343 0
-104 -302 -344 0
-105 -303 -345 0
-103 -304 -346 0
-104 -305 -347 0
-105 -306 -348 0
-103 -307 -349 0
-104 -308 -350 0
-105 -309 -351 0
-103 -310 -352 0
-104 -311 -353 0
-105 -312 -354 0
-103 -313 -355 0
-104 -314 -356 0
-105 -315 -357 0
-103 -316 -358 0
-104 -317 -359 0
-105 -318 -360 0
-103 -319 -361 0
-104 -320 -362 0
-105 -321 -363 0
-103 -322 -364 0
-104 -323 -365 0
-105 -324 -366 0
-103 -325 -367 0
-104 -326 -368 0
-105 -327 -369 0
-103 -328 -370 0
-104 -329 -371 0
-105 -330 -372 0
-103 -331 -373 0
-104 -332 -374 0
-105 -333 -375 0
-1 -49 -118 0
-2 -50 -119 0
-3 -51 -120 0
-4 -52 -118 0
-5 -53 -119 0
-6 -54 -120 0
-7 -55 -118 0
-8 -56 -119 0
-9 -57 -120 0
-10 -58 -118 0
-11 -59 -119 0
-12 -60 -120 0
-13 -61 -118 0
-14 -62 -119 0
-15 -63 -120 0
-16 -64 -118 0
-17 -65 -119 0
-18 -66 -120 0
-19 -67 -118 0
-20 -68 -119 0
-21 -69 -120 0
-22 -70 -118 0
-23 -71 -119 0
-24 -72 -120 0
-25 -73 -118 0
-26 -74 -119 0
-27 -75 -120 0
-28 -76 -118 0
-29 -77 -119 0
-30 -78 -120 0
-31 -79 -118 0
-32 -80 -119 0
-33 -81 -120 0
-34 -82 -118 0
-35 -83 -119 0
-36 -84 -120 0
-37 -85 -118 0
-38 -86 -119 0
-39 -87 -120 0
-40 -88 -118 0
-41 -89 -119 0
-42 -90 -120 0
-43 -91 -118 0
-44 -92 -119 0
-45 -93 -120 0
-46 -94 -118 0
-47 -95 -119 0
-48 -96 -120 0
-49 -97 -118 0
-50 -98 -119 0
-51 -99 -120 0
-52 -100 -118 0
-53 -101 -119 0
-54 -102 -120 0
-55 -103 -118 0
-56 -104 -119 0
-57 -105 -120 0
-58 -106 -118 0
-59 -107 -119 0
-60 -108 -120 0
-61 -109 -118 0
-62 -110 -119 0
-63 -111 -120 0
-64 -112 -118 0
-65 -113 -119 0
-66 -114 -120 0
-67 -115 -118 0
-68 -116 -119 0
-69 -117 -120 0
-70 -118 0
-71 -119 0
-72 -120 0
-73 -118 -121 0
-74 -119 -122 0
-75 -120 -123 0
-76 -118 -124 0
-77 -119 -125 0
-78 -120 -126 0
-79 -118 -127 0
-80 -119 -128 0
-81 -120 -129 0
-82 -118 -130 0
-83 -119 -131 0
-84 -120 -132 0
-85 -118 -133 0
-86 -119 -134 0
-87 -120 -135 0
-88 -118 -136 0
-89 -119 -137 0
-90 -120 -138 0
-91 -118 -139 0
-92 -119 -140 0
-93 -120 -141 0
-94 -118 -142 0
-95 -119 -143 0
-96 -120 -144 0
-97 -118 -145 0
-98 -119 -146 0
-99 -120 -147 0
-100 -118 -148 0
-101 -119 -149 0
-102 -120 -150 0
-103 -118 -151 0
-104 -119 -152 0
-105 -120 -153 0
-106 -118 -154 0
-107 -119 -155 0
-108 -120 -156 0
-109 -118 -157 0
-110 -119 -158 0
-111 -120 -159 0
-112 -118 -160 0
-113 -119 -161 0
-114 -120 -162 0
-115 -118 -163 0
-116 -119 -164 0
-117 -120 -165 0
-118 -166 0
-119 -167 0
-120 -168 0
-118 -121 -169 0
-119 -122 -170 0
-120 -123 -171 0
-118 -124 -172 0
-119 -125 -173 0
-120 -126 -174 0
-118 -127 -175 0
-119 -128 -176 0
-120 -129 -177 0
-118 -130 -178 0
-119 -131 -179 0
-120 -132 -180 0
-118 -133 -181 0
-119 -134 -182 0
-120 -135 -183 0
-118 -136 -184 0
-119 -137 -185 0
-120 -138 -186 0
-118 -139 -187 0
-119 -140 -188 0
-120 -141 -189 0
-118 -142 -190 0
-119 -143 -191 0
-120 -144 -192 0
-118 -145 -193 0
-119 -146 -194 0
-120 -147 -195 0
-118 -148 -196 0
-119 -149 -197 0
-120 -150 -198 0
-118 -151 -199 0
-119 -152 -200 0
-120 -153 -201 0
-118 -154 -202 0
-119 -155 -203 0
-120 -156 -204 0
-118 -157 -205 0
-119 -158 -206 0
-120 -159 -207 0
-118 -160 -208 0
-119 -161 -209 0
-120 -162 -210 0
-118 -163 -211 0
-119 -164 -212 0
-120 -165 -213 0
-118 -166 -214 0
-119 -167 -215 0
-120 -168 -216 0
-118 -169 -217 0
-119 -170 -218 0
-120 -171 -219 0
-118 -172 -220 0
-119 -173 -221 0
-120 -174 -222 0
-118 -175 -223 0
-119 -176 -224 0
-120 -177 -225 0
-118 -178 -226 0
-119 -179 -227 0
-120 -180 -228 0
-118 -181 -229 0
-119 -182 -230 0
-120 -183 -231 0
-118 -184 -232 0
-119 -185 -233 0
-120 -186 -234 0
-118 -187 -235 0
-119 -188 -236 0
-120 -189 -237 0
-118 -190 -238 0
-119 -191 -239 0
-120 -192 -240 0
-118 -193 -241 0
-119 -194 -242 0
-120 -195 -243 0
-118 -196 -244 0
-119 -197 -245 0
-120 -198 -246 0
-118 -199 -247 0
-119 -200 -248 0
-120 -201 -249 0
-118 -202 -250 0
-119 -203 -251 0
-120 -204 -252 0
-118 -205 -253 0
-119 -206 -254 0
-120 -207 -255 0
-118 -208 -256 0
-119 -209 -257 0
-120 -210 -258 0
-118 -211 -259 0
-119 -212 -260 0
-120 -213 -261 0
-118 -214 -262 0
-119 -215 -263 0
-120 -216 -264 0
-118 -217 -265 0
-119 -218 -266 0
-120 -219 -267 0
-118 -220 -268 0
-119 -221 -269 0
-120 -222 -270 0
-118 -223 -271 0
-119 -224 -272 0
-120 -225 -273 0
-118 -226 -274 0
-119 -227 -275 0
-120 -228 -276 0
-118 -229 -277 0
-119 -230 -278 0
-120 -231 -279 0
-118 -232 -280 0
-119 -233 -281 0
-120 -234 -282 0
-118 -235 -283 0
-119 -236 -284 0
-120 -237 -285 0
-118 -238 -286 0
-119 -239 -287 0
-120 -240 -288 0
-118 -241 -289 0
-119 -242 -290 0
-120 -243 -291 0
-118 -244 -292 0
-119 -245 -293 0
-120 -246 -294 0
-118 -247 -295 0
-119 -248 -296 0
-120 -249 -297 0
-118 -250 -298 0
-119 -251 -299 0
-120 -252 -300 0
-118 -253 -301 0
-119 -254 -302 0
-120 -255 -303 0
-118 -256 -304 0
-119 -257 -305 0
-120 -258 -306 0
-118 -259 -307 0
-119 -260 -308 0
-120 -261 -309 0
-118 -262 -310 0
-119 -263 -311 0
-120 -264 -312 0
-118 -265 -313 0
-119 -266 -314 0
-120 -267 -315 0
-118 -268 -316 0
-119 -269 -317 0
-120 -270 -318 0
-118 -271 -319 0
-119 -272 -320 0
-120 -273 -321 0
-118 -274 -322 0
-119 -275 -323 0
-120 -276 -324 0
-118 -277 -325 0
-119 -278 -326 0
-120 -279 -327 0
-118 -280 -328 0
-119 -281 -329 0
-120 -282 -330 0
-118 -283 -331 0
-119 -284 -332 0
-120 -285 -333 0
-118 -286 -334 0
-119 -287 -335 0
-120 -288 -336 0
-118 -289 -337 0
-119 -290 -338 0
-120 -291 -339 0
-118 -292 -340 0
-119 -293 -341 0
-120 -294 -342 0
-118 -295 -343 0
-119 -296 -344 0
-120 -297 -345 0
-118 -298 -346 0
-119 -299 -347 0
-120 -300 -348 0
-118 -301 -349 0
-119 -302 -350 0
-120 -303 -351 0
-118 -304 -352 0
-119 -305 -353 0
-120 -306 -354 0
-118 -307 -355 0
-119 -308 -356 0
-120 -309 -357 0
-118 -310 -358 0
-119 -311 -359 0
-120 -312 -360 0
-118 -313 -361 0
-119 -314 -362 0
-120 -315 -363 0
-118 -316 -364 0
-119 -317 -365 0
-120 -318 -366 0
-118 -319 -367 0
-119 -320 -368 0
-120 -321 -369 0
-118 -322 -370 0
-119 -323 -371 0
-120 -324 -372 0
-118 -325 -373 0
-119 -326 -374 0
-120 -327 -375 0
-1 -55 -133 0
-2 -56 -134 0
-3 -57 -135 0
-4 -58 -133 0
-5 -59 -134 0
-6 -60 -135 0
-7 -61 -133 0
-8 -62 -134 0
-9 -63 -135 0
-10 -64 -133 0
-11 -65 -134 0
-12 -66 -135 0
-13 -67 -133 0
-14 -68 -134 0
-15 -69 -135 0
-16 -70 -133 0
-17 -71 -134 0
-18 -72 -135 0
-19 -73 -133 0
-20 -74 -134 0
-21 -75 -135 0
-22 -76 -133 0
-23 -77 -134 0
-24 -78 -135 0
-25 -79 -133 0
-26 -80 -134 0
-27 -81 -135 0
-28 -82 -133 0
-29 -83 -134 0
-30 -84 -135 0
-31 -85 -133 0
-32 -86 -134 0
-33 -87 -135 0
-34 -88 -133 0
-35 -89 -134 0
-36 -90 -135 0
-37 -91 -133 0
-38 -92 -134 0
-39 -93 -135 0
-40 -94 -133 0
-41 -95 -134 0
-42 -96 -135 0
-43 -97 -133 0
-44 -98 -134 0
-45 -99 -135 0
-46 -100 -133 0
-47 -101 -134 0
-48 -102 -135 0
-49 -103 -133 0
-50 -104 -134 0
-51 -105 -135 0
-52 -106 -133 0
-53 -107 -134 0
-54 -108 -135 0
-55 -109 -133 0
-56 -110 -134 0
-57 -111 -135 0
-58 -112 -133 0
-59 -113 -134 0
-60 -114 -135 0
-61 -115 -133 0
-62 -116 -134 0
-63 -117 -135 0
-64 -118 -133 0
-65 -119 -134 0
-66 -120 -135 0
-67 -121 -133 0
-68 -122 -134 0
-69 -123 -135 0
-70 -124 -133 0
-71 -125 -134 0
-72 -126 -135 0
-73 -127 -133 0
-74 -128 -134 0
-75 -129 -135 0
-76 -130 -133 0
-77 -131 -134 0
-78 -132 -135 0
-79 -133 0
-80 -134 0
-81 -135 0
-82 -133 -136 0
-83 -134 -137 0
-84 -135 -138 0
-85 -133 -139 0
-86 -134 -140 0
-87 -135 -141 0
-88 -133 -142 0
-89 -134 -143 0
-90 -135 -144 0
-91 -133 -145 0
-92 -134 -146 0
-93 -135 -147 0
-94 -133 -148 0
-95 -134 -149 0
-96 -135 -150 0
-97 -133 -151 0
-98 -134 -152 0
-99 -135 -153 0
-100 -133 -154 0
-101 -134 -155 0
-102 -135 -156 0
-103 -133 -157 0
-104 -134 -158 0
-105 -135 -159 0
-106 -133 -160 0
-107 -134 -161 0
-108 -135 -162 0
-109 -133 -163 0
-110 -134 -164 0
-111 -135 -165 0
-112 -133 -166 0
-113 -134 -167 0
-114 -135 -168 0
-115 -133 -169 0
-116 -134 -170 0
-117 -135 -171 0
-118 -133 -172 0
-119 -134 -173 0
-120 -135 -174 0
-121 -133 -175 0
-122 -134 -176 0
-123 -135 -177 0
-124 -133 -178 0
-125 -134 -179 0
-126 -135 -180 0
-127 -133 -181 0
-128 -134 -182 0
-129 -135 -183 0
-130 -133 -184 0
-131 -134 -185 0
-132 -135 -186 0
-133 -187 0
-134 -188 0
-135 -189 0
-133 -136 -190 0
-134 -137 -191 0
-135 -138 -192 0
-133 -139 -193 0
-134 -140 -194 0
-135 -141 -195 0
-133 -142 -196 0
-134 -143 -197 0
-135 -144 -198 0
-133 -145 -199 0
-134 -146 -200 0
-135 -147 -201 0
-133 -148 -202 0
-134 -149 -203 0
-135 -150 -204 0
-133 -151 -205 0
-134 -152 -206 0
-135 -153 -207 0
-133 -154 -208 0
-134 -155 -209 0
-135 -156 -210 0
-133 -157 -211 0
-134 -158 -212 0
-135 -159 -213 0
-133 -160 -214 0
-134 -161 -215 0
-135 -162 -216 0
-133 -163 -217 0
-134 -164 -218 0
-135 -165 -219 0
-133 -166 -220 0
-134 -167 -221 0
-135 -168 -222 0
-133 -169 -223 0
-134 -170 -224 0
-135 -171 -225 0
-133 -172 -226 0
-134 -173 -227 0
-135 -174 -228 0
-133 -175 -229 0
-134 -176 -230 0
-135 -177 -231 0
-133 -178 -232 0
-134 -179 -233 0
-135 -180 -234 0
-133 -181 -235 0
-134 -182 -236 0
-135 -183 -237 0
-133 -184 -238 0
-134 -185 -239 0
-135 -186 -240 0
-133 -187 -241 0
-134 -188 -242 0
-135 -189 -243 0
-133 -190 -244 0
-134 -191 -245 0
-135 -192 -246 0
-133 -193 -247 0
-134 -194 -248 0
-135 -195 -249 0
-133 -196 -250 0
-134 -197 -251 0
-135 -198 -252 0
-133 -199 -253 0
-134 -200 -254 0
-135 -201 -255 0
-133 -202 -256 0
-134 -203 -257 0
-135 -204 -258 0
-133 -205 -259 0
-134 -206 -260 0
-135 -207 -261 0
-133 -208 -262 0
-134 -209 -263 0
-135 -210 -264 0
-133 -211 -265 0
-134 -212 -266 0
-135 -213 -267 0
-133 -214 -268 0
-134 -215 -269 0
-135 -216 -270 0
-133 -217 -271 0
-134 -218 -272 0
-135 -219 -273 0
-133 -220 -274 0
-134 -221 -275 0
-135 -222 -276 0
-133 -223 -277 0
-134 -224 -278 0
-135 -225 -279 0
-133 -226 -280 0
-134 -227 -281 0
-135 -228 -282 0
-133 -229 -283 0
-134 -230 -284 0
-135 -231 -285 0
-133 -232 -286 0
-134 -233 -287 0
-135 -234 -288 0
-133 -235 -289 0
-134 -236 -290 0
-135 -237 -291 0
-133 -238 -292 0
-134 -239 -293 0
-135 -240 -294 0
-133 -241 -295 0
-134 -242 -296 0
-135 -243 -297 0
-133 -244 -298 0
-134 -245 -299 0
-135 -246 -300 0
-133 -247 -301 0
-134 -248 -302 0
-135 -249 -303 0
-133 -250 -304 0
-134 -251 -305 0
-135 -252 -306 0
-133 -253 -307 0
-134 -254 -308 0
-135 -255 -309 0
-133 -256 -310 0
-134 -257 -311 0
-135 -258 -312 0
-133 -259 -313 0
-134 -260 -314 0
-135 -261 -315 0
-133 -262 -316 0
-134 -263 -317 0
-135 -264 -318 0
-133 -265 -319 0
-134 -266 -320 0
-135 -267 -321 0
-133 -268 -322 0
-134 -269 -323 0
-135 -270 -324 0
-133 -271 -325 0
-134 -272 -326 0
-135 -273 -327 0
-133 -274 -328 0
-134 -275 -329 0
-135 -276 -330 0
-133 -277 -331 0
-134 -278 -332 0
-135 -279 -333 0
-133 -280 -334 0
-134 -281 -335 0
-135 -282 -336 0
-133 -283 -337 0
-134 -284 -338 0
-135 -285 -339 0
-133 -286 -340 0
-134 -287 -341 0
-135 -288 -342 0
-133 -289 -343 0
-134 -290 -344 0
-135 -291 -345 0
-133 -292 -346 0
-134 -293 -347 0
-135 -294 -348 0
-133 -295 -349 0
-134 -296 -350 0
-135 -297 -351 0
-133 -298 -352 0
-134 -299 -353 0
-135 -300 -354 0
-133 -301 -355 0
-134 -302 -356 0
-135 -303 -357 0
-133 -304 -358 0
-134 -305 -359 0
-135 -306 -360 0
-133 -307 -361 0
-134 -308 -362 0
-135 -309 -363 0
-133 -310 -364 0
-134 -311 -365 0
-135 -312 -366 0
-133 -313 -367 0
-134 -314 -368 0
-135 -315 -369 0
-133 -316 -370 0
-134 -317 -371 0
-135 -318 -372 0
-133 -319 -373 0
-134 -320 -374 0
-135 -321 -375 0
-1 -61 -148 0
-2 -62 -149 0
-3 -63 -150 0
-4 -64 -148 0
-5 -65 -149 0
-6 -66 -150 0
-7 -67 -148 0
-8 -68 -149 0
-9 -69 -150 0
-10 -70 -148 0
-11 -71 -149 0
-12 -72 -150 0
-13 -73 -148 0
-14 -74 -149 0
-15 -75 -150 0
-16 -76 -148 0
-17 -77 -149 0
-18 -78 -150 0
-19 -79 -148 0
-20 -80 -149 0
-21 -81 -150 0
-22 -82 -148 0
-23 -83 -149 0
-24 -84 -150 0
-25 -85 -148 0
-26 -86 -149 0
-27 -87 -150 0
-28 -88 -148 0
-29 -89 -149 0
-30 -90 -150 0
-31 -91 -148 0
-32 -92 -149 0
-33 -93 -150 0
-34 -94 -148 0
-35 -95 -149 0
-36 -96 -150 0
-37 -97 -148 0
-38 -98 -149 0
-39 -99 -150 0
-40 -100 -148 0
-41 -101 -149 0
-42 -102 -150 0
-43 -103 -148 0
-44 -104 -149 0
-45 -105 -150 0
-46 -106 -148 0
-47 -107 -149 0
-48 -108 -150 0
-49 -109 -148 0
-50 -110 -149 0
-51 -111 -150 0
-52 -112 -148 0
-53 -113 -149 0
-54 -114 -150 0
-55 -115 -148 0
-56 -116 -149 0
-57 -117 -150 0
-58 -118 -148 0
-59 -119 -149 0
-60 -120 -150 0
-61 -121 -148 0
-62 -122 -149 0
-63 -123 -150 0
-64 -124 -148 0
-65 -125 -149 0
-66 -126 -150 0
-67 -127 -148 0
-68 -128 -149 0
-69 -129 -150 0
-70 -130 -148 0
-71 -131 -149 0
-72 -132 -150 0
-73 -133 -148 0
-74 -134 -149 0
-75 -135 -150 0
-76 -136 -148 0
-77 -137 -149 0
-78 -138 -150 0
-79 -139 -148 0
-80 -140 -149 0
-81 -141 -150 0
-82 -142 -148 0
-83 -143 -149 0
-84 -144 -150 0
-85 -145 -148 0
-86 -146 -149 0
-87 -147 -150 0
-88 -148 0
-89 -149 0
-90 -150 0
-91 -148 -151 0
-92 -149 -152 0
-93 -150 -153 0
-94 -148 -154 0
-95 -149 -155 0
-96 -150 -156 0
-97 -148 -157 0
-98 -149 -158 0
-99 -150 -159 0
-100 -148 -160 0
-101 -149 -161 0
-102 -150 -162 0
-103 -148 -163 0
-104 -149 -164 0
-105 -150 -165 0
-106 -148 -166 0
-107 -149 -167 0
-108 -150 -168 0
-109 -148 -169 0
-110 -149 -170 0
-111 -150 -171 0
-112 -148 -172 0
-113 -149 -173 0
-114 -150 -174 0
-115 -148 -175 0
-116 -149 -176 0
-117 -150 -177 0
-118 -148 -178 0
-119 -149 -179 0
-120 -150 -180 0
-121 -148 -181 0
-122 -149 -182 0
-123 -150 -183 0
-124 -148 -184 0
-125 -149 -185 0
-126 -150 -186 0
-127 -148 -187 0
-128 -149 -188 0
-129 -150 -189 0
-130 -148 -190 0
-131 -149 -191 0
-132 -150 -192 0
-133 -148 -193 0
-134 -149 -194 0
-135 -150 -195 0
-136 -148 -196 0
-137 -149 -197 0
-138 -150 -198 0
-139 -148 -199 0
-140 -149 -200 0
-141 -150 -201 0
-142 -148 -202 0
-143 -149 -203 0
-144 -150 -204 0
-145 -148 -205 0
-146 -149 -206 0
-147 -150 -207 0
-148 -208 0
-149 -209 0
-150 -210 0
-148 -151 -211 0
-149 -152 -212 0
-150 -153 -213 0
-148 -154 -214 0
-149 -155 -215 0
-150 -156 -216 0
-148 -157 -217 0
-149 -158 -218 0
-150 -159 -219 0
-148 -160 -220 0
-149 -161 -221 0
-150 -162 -222 0
-148 -163 -223 0
-149 -164 -224 0
-150 -165 -225 0
-148 -166 -226 0
-149 -167 -227 0
-150 -168 -228 0
-148 -169 -229 0
-149 -170 -230 0
-150 -171 -231 0
-148 -172 -232 0
-149 -173 -233 0
-150 -174 -234 0
-148 -175 -235 0
-149 -176 -236 0
-150 -177 -237 0
-148 -178 -238 0
-149 -179 -239 0
-150 -180 -240 0
-148 -181 -241 0
-149 -182 -242 0
-150 -183 -243 0
-148 -184 -244 0
-149 -185 -245 0
-150 -186 -246 0
-148 -187 -247 0
-149 -188 -248 0
-150 -189 -249 0
-148 -190 -250 0
-149 -191 -251 0
-150 -192 -252 0
-148 -193 -253 0
-149 -194 -254 0
-150 -195 -255 0
-148 -196 -256 0
-149 -197 -257 0
-150 -198 -258 0
-148 -199 -259 0
-149 -200 -260 0
-150 -201 -261 0
-148 -202 -262 0
-149 -203 -263 0
-150 -204 -264 0
-148 -205 -265 0
-149 -206 -266 0
-150 -207 -267 0
-148 -208 -268 0
-149 -209 -269 0
-150 -210 -270 0
-148 -211 -271 0
-149 -212 -272 0
-150 -213 -273 0
-148 -214 -274 0
-149 -215 -275 0
-150 -216 -276 0
-148 -217 -277 0
-149 -218 -278 0
-150 -219 -279 0
-148 -220 -280 0
-149 -221 -281 0
-150 -222 -282 0
-148 -223 -283 0
-149 -224 -284 0
-150 -225 -285 0
-148 -226 -286 0
-149 -227 -287 0
-150 -228 -288 0
-148 -229 -289 0
-149 -230 -290 0
-150 -231 -291 0
-148 -232 -292 0
-149 -233 -293 0
-150 -234 -294 0
-148 -235 -295 0
-149 -236 -296 0
-150 -237 -297 0
-148 -238 -298 0
-149 -239 -299 0
-150 -240 -300 0
-148 -241 -301 0
-149 -242 -302 0
-150 -243 -303 0
-148 -244 -304 0
-149 -245 -305 0
-150 -246 -306 0
-148 -247 -307 0
-149 -248 -308 0
-150 -249 -309 0
-148 -250 -310 0
-149 -251 -311 0
-150 -252 -312 0
-148 -253 -313 0
-149 -254 -314 0
-150 -255 -315 0
-148 -256 -316 0
-149 -257 -317 0
-150 -258 -318 0
-148 -259 -319 0
-149 -260 -320 0
-150 -261 -321 0
-148 -262 -322 0
-149 -263 -323 0
-150 -264 -324 0
-148 -265 -325 0
-149 -266 -326 0
-150 -267 -327 0
-148 -268 -328 0
-149 -269 -329 0
-150 -270 -330 0
-148 -271 -331 0
-149 -272 -332 0
-150 -273 -333 0
-148 -274 -334 0
-149 -275 -335 0
-150 -276 -336 0
-148 -277 -337 0
-149 -278 -338 0
-150 -279 -339 0
-148 -280 -340 0
-149 -281 -341 0
-150 -282 -342 0
-148 -283 -343 0
-149 -284 -344 0
-150 -285 -345 0
-148 -286 -346 0
-149 -287 -347 0
-150 -288 -348 0
-148 -289 -349 0
-149 -290 -350 0
-150 -291 -351 0
-148 -292 -352 0
-149 -293 -353 0
-150 -294 -354 0
-148 -295 -355 0
-149 -296 -356 0
-150 -297 -357 0
-148 -298 -358 0
-149 -299 -359 0
-150 -300 -360 0
-148 -301 -361 0
-149 -302 -362 0
-150 -303 -363 0
-148 -304 -364 0
-149 -305 -365 0
-150 -306 -366 0
-148 -307 -367 0
-149 -308 -368 0
-150 -309 -369 0
-148 -310 -370 0
-149 -311 -371 0
-150 -312 -372 0
-148 -313 -373 0
-149 -314 -374 0
-150 -315 -375 0
-1 -67 -163 0
-2 -68 -164 0
-3 -69 -165 0
-4 -70 -163 0
-5 -71 -164 0
-6 -72 -165 0
-7 -73 -163 0
-8 -74 -164 0
-9 -75 -165 0
-10 -76 -163 0
-11 -77 -164 0
-12 -78 -165 0
-13 -79 -163 0
-14 -80 -164 0
-15 -81 -165 0
-16 -82 -163 0
-17 -83 -164 0
-18 -84 -165 0
-19 -85 -163 0
-20 -86 -164 0
-21 -87 -165 0
-22 -88 -163 0
-23 -89 -164 0
-24 -90 -165 0
-25 -91 -163 0
-26 -92 -164 0
-27 -93 -165 0
-28 -94 -163 0
-29 -95 -164 0
-30 -96 -165 0
-31 -97 -163 0
-32 -98 -164 0
-33 -99 -165 0
-34 -100 -163 0
-35 -101 -164 0
-36 -102 -165 0
-37 -103 -163 0
-38 -104 -164 0
-39 -105 -165 0
-40 -106 -163 0
-41 -107 -164 0
-42 -108 -165 0
-43 -109 -163 0
-44 -110 -164 0
-45 -111 -165 0
-46 -112 -163 0
-47 -113 -164 0
-48 -114 -165 0
-49 -115 -163 0
-50 -116 -164 0
-51 -117 -165 0
-52 -118 -163 0
-53 -119 -164 0
-54 -120 -165 0
-55 -121 -163 0
-56 -122 -164 0
-57 -123 -165 0
-58 -124 -163 0
-59 -125 -164 0
-60 -126 -165 0
-61 -127 -163 0
-62 -128 -164 0
-63 -129 -165 0
-64 -130 -163 0
-65 -131 -164 0
-66 -132 -165 0
-67 -133 -163 0
-68 -134 -164 0
-69 -135 -165 0
-70 -136 -163 0
-71 -137 -164 0
-72 -138 -165 0
-73 -139 -163 0
-74 -140 -164 0
-75 -141 -165 0
-76 -142 -163 0
-77 -143 -164 0
-78 -144 -165 0
-79 -145 -163 0
-80 -146 -164 0
-81 -147 -165 0
-82 -148 -163 0
-83 -149 -164 0
-84 -150 -165 0
-85 -151 -163 0
-86 -152 -164 0
-87 -153 -165 0
-88 -154 -163 0
-89 -155 -164 0
-90 -156 -165 0
-91 -157 -163 0
-92 -158 -164 0
-93 -159 -165 0
-94 -160 -163 0
-95 -161 -164 0
-96 -162 -165 0
-97 -163 0
-98 -164 0
-99 -165 0
-100 -163 -166 0
-101 -164 -167 0
-102 -165 -168 0
-103 -163 -169 0
-104 -164 -170 0
-105 -165 -171 0
-106 -163 -172 0
-107 -164 -173 0
-108 -165 -174 0
-109 -163 -175 0
-110 -164 -176 0
-111 -165 -177 0
-112 -163 -178 0
-113 -164 -179 0
-114 -165 -180 0
-115 -163 -181 0
-116 -164 -182 0
-117 -165 -183 0
-118 -163 -184 0
-119 -164 -185 0
-120 -165 -186 0
-121 -163 -187 0
-122 -164 -188 0
-123 -165 -189 0
-124 -163 -190 0
-125 -164 -191 0
-126 -165 -192 0
-127 -163 -193 0
-128 -164 -194 0
-129 -165 -195 0
-130 -163 -196 0
-131 -164 -197 0
-132 -165 -198 0
-133 -163 -199 0
-134 -164 -200 0
-135 -165 -201 0
-136 -163 -202 0
-137 -164 -203 0
-138 -165 -204 0
-139 -163 -205 0
-140 -164 -206 0
-141 -165 -207 0
-142 -163 -208 0
-143 -164 -209 0
-144 -165 -210 0
-145 -163 -211 0
-146 -164 -212 0
-147 -165 -213 0
-148 -163 -214 0
-149 -164 -215 0
-150 -165 -216 0
-151 -163 -217 0
-152 -164 -218 0
-153 -165 -219 0
-154 -163 -220 0
-155 -164 -221 0
-156 -165 -222 0
-157 -163 -223 0
-158 -164 -224 0
-159 -165 -225 0
-160 -163 -226 0
-161 -164 -227 0
-162 -165 -228 0
-163 -229 0
-164 -230 0
-165 -231 0
-163 -166 -232 0
-164 -167 -233 0
-165 -168 -234 0
-163 -169 -235 0
-164 -170 -236 0
-165 -171 -237 0
-163 -172 -238 0
-164 -173 -239 0
-165 -174 -240 0
-163 -175 -241 0
-164 -176 -242 0
-165 -177 -243 0
-163 -178 -244 0
-164 -179 -245 0
-165 -180 -246 0
-163 -181 -247 0
-164 -182 -248 0
-165 -183 -249 0
-163 -184 -250 0
-164 -185 -251 0
-165 -186 -252 0
-163 -187 -253 0
-164 -188 -254 0
-165 -189 -255 0
-163 -190 -256 0
-164 -191 -257 0
-165 -192 -258 0
-163 -193 -259 0
-164 -194 -260 0
-165 -195 -261 0
-163 -196 -262 0
-164 -197 -263 0
-165 -198 -264 0
-163 -199 -265 0
-164 -200 -266 0
-165 -201 -267 0
-163 -202 -268 0
-164 -203 -269 0
-165 -204 -270 0
-163 -205 -271 0
-164 -206 -272 0
-165 -207 -273 0
-163 -208 -274 0
-164 -209 -275 0
-165 -210 -276 0
-163 -211 -277 0
-164 -212 -278 0
-165 -213 -279 0
-163 -214 -280 0
-164 -215 -281 0
-165 -216 -282 0
-163 -217 -283 0
-164 -218 -284 0
-165 -219 -285 0
-163 -220 -286 0
-164 -221 -287 0
-165 -222 -288 0
-163 -223 -289 0
-164 -224 -290 0
-165 -225 -291 0
-163 -226 -292 0
-164 -227 -293 0
-165 -228 -294 0
-163 -229 -295 0
-164 -230 -296 0
-165 -231 -297 0
-163 -232 -298 0
-164 -233 -299 0
-165 -234 -300 0
-163 -235 -301 0
-164 -236 -302 0
-165 -237 -303 0
-163 -238 -304 0
-164 -239 -305 0
-165 -240 -306 0
-163 -241 -307 0
-164 -242 -308 0
-165 -243 -309 0
-163 -244 -310 0
-164 -245 -311 0
-165 -246 -312 0
-163 -247 -313 0
-164 -248 -314 0
-165 -249 -315 0
-163 -250 -316 0
-164 -251 -317 0
-165 -252 -318 0
-163 -253 -319 0
-164 -254 -320 0
-165 -255 -321 0
-163 -256 -322 0
-164 -257 -323 0
-165 -258 -324 0
-163 -259 -325 0
-164 -260 -326 0
-165 -261 -327 0
-163 -262 -328 0
-164 -263 -329 0
-165 -264 -330 0
-163 -265 -331 0
-164 -266 -332 0
-165 -267 -333 0
-163 -268 -334 0
-164 -269 -335 0
-165 -270 -336 0
-163 -271 -337 0
-164 -272 -338 0
-165 -273 -339 0
-163 -274 -340 0
-164 -275 -341 0
-165 -276 -342 0
-163 -277 -343 0
-164 -278 -344 0
-165 -279 -345 0
-163 -280 -346 0
-164 -281 -347 0
-165 -282 -348 0
-163 -283 -349 0
-164 -284 -350 0
-165 -285 -351 0
-163 -286 -352 0
-164 -287 -353 0
-165 -288 -354 0
-163 -289 -355 0
-164 -290 -356 0
-165 -291 -357 0
-163 -292 -358 0
-164 -293 -359 0
-165 -294 -360 0
-163 -295 -361 0
-164 -296 -362 0
-165 -297 -363 0
-163 -298 -364 0
-164 -299 -365 0
-165 -300 -366 0
-163 -301 -367 0
-164 -302 -368 0
-165 -303 -369 0
-163 -304 -370 0
-164 -305 -371 0
-165 -306 -372 0
-163 -307 -373 0
-164 -308 -374 0
-165 -309 -375 0
-1 -73 -178 0
-2 -74 -179 0
-3 -75 -180 0
-4 -76 -178 0
-5 -77 -179 0
-6 -78 -180 0
-7 -79 -178 0
-8 -80 -179 0
-9 -81 -180 0
-10 -82 -178 0
-11 -83 -179 0
-12 -84 -180 0
-13 -85 -178 0
-14 -86 -179 0
-15 -87 -180 0
-16 -88 -178 0
-17 -89 -179 0
-18 -90 -180 0
-19 -91 -178 0
-20 -92 -179 0
-21 -93 -180 0
-22 -94 -178 0
-23 -95 -179 0
-24 -96 -180 0
-25 -97 -178 0
-26 -98 -179 0
-27 -99 -180 0
-28 -100 -178 0
-29 -101 -179 0
-30 -102 -180 0
-31 -103 -178 0
-32 -104 -179 0
-33 -105 -180 0
-34 -106 -178 0
-35 -107 -179 0
-36 -108 -180 0
-37 -109 -178 0
-38 -110 -179 0
-39 -111 -180 0
-40 -112 -178 0
-41 -113 -179 0
-42 -114 -180 0
-43 -115 -178 0
-44 -116 -179 0
-45 -117 -180 0
-46 -118 -178 0
-47 -119 -179 0
-48 -120 -180 0
-49 -121 -178 0
-50 -122 -179 0
-51 -123 -180 0
-52 -124 -178 0
-53 -125 -179 0
-54 -126 -180 0
-55 -127 -178 0
-56 -128 -179 0
-57 -129 -180 0
-58 -130 -178 0
-59 -131 -179 0
-60 -132 -180 0
-61 -133 -178 0
-62 -134 -179 0
-63 -135 -180 0
-64 -136 -178 0
-65 -137 -179 0
-66 -138 -180 0
-67 -139 -178 0
-68 -140 -179 0
-69 -141 -180 0
-70 -142 -178 0
-71 -143 -179 0
-72 -144 -180 0
-73 -145 -178 0
-74 -146 -179 0
-75 -147 -180 0
-76 -148 -178 0
-77 -149 -179 0
-78 -150 -180 0
-79 -151 -178 0
-80 -152 -179 0
-81 -153 -180 0
-82 -154 -178 0
-83 -155 -179 0
-84 -156 -180 0
-85 -157 -178 0
-86 -158 -179 0
-87 -159 -180 0
-88 -160 -178 0
-89 -161 -179 0
-90 -162 -180 0
-91 -163 -178 0
-92 -164 -179 0
-93 -165 -180 0
-94 -166 -178 0
-95 -167 -179 0
-96 -168 -180 0
-97 -169 -178 0
-98 -170 -179 0
-99 -171 -180 0
-100 -172 -178 0
-101 -173 -179 0
-102 -174 -180 0
-103 -175 -178 0
-104 -176 -179 0
-105 -177 -180 0
-106 -178 0
-107 -179 0
-108 -180 0
-109 -178 -181 0
-110 -179 -182 0
-111 -180 -183 0
-112 -178 -184 0
-113 -179 -185 0
-114 -180 -186 0
-115 -178 -187 0
-116 -179 -188 0
-117 -180 -189 0
-118 -178 -190 0
-119 -179 -191 0
-120 -180 -192 0
-121 -178 -193 0
-122 -179 -194 0
-123 -180 -195 0
-124 -178 -196 0
-125 -179 -197 0
-126 -180 -198 0
-127 -178 -199 0
-128 -179 -200 0
-129 -180 -201 0
-130 -178 -202 0
-131 -179 -203 0
-132 -180 -204 0
-133 -178 -205 0
-134 -179 -206 0
-135 -180 -207 0
-136 -178 -208 0
-137 -179 -209 0
-138 -180 -210 0
-139 -178 -211 0
-140 -179 -212 0
-141 -180 -213 0
-142 -178 -214 0
-143 -179 -215 0
-144 -180 -216 0
-145 -178 -217 0
-146 -179 -218 0
-147 -180 -219 0
-148 -178 -220 0
-149 -179 -221 0
-150 -180 -222 0
-151 -178 -223 0
-152 -179 -224 0
-153 -180 -225 0
-154 -178 -226 0
-155 -179 -227 0
-156 -180 -228 0
-157 -178 -229 0
-158 -179 -230 0
-159 -180 -231 0
-160 -178 -232 0
-161 -179 -233 0
-162 -180 -234 0
-163 -178 -235 0
-164 -179 -236 0
-165 -180 -237 0
-166 -178 -238 0
-167 -179 -239 0
-168 -180 -240 0
-169 -178 -241 0
-170 -179 -242 0
-171 -180 -243 0
-172 -178 -244 0
-173 -179 -245 0
-174 -180 -246 0
-175 -178 -247 0
-176 -179 -248 0
-177 -180 -249 0
-178 -250 0
-179 -251 0
-180 -252 0
-178 -181 -253 0
-179 -182 -254 0
-180 -183 -255 0
-178 -184 -256 0
-179 -185 -257 0
-180 -186 -258 0
-178 -187 -259 0
-179 -188 -260 0
-180 -189 -261 0
-178 -190 -262 0
-179 -191 -263 0
-180 -192 -264 0
-178 -193 -265 0
-179 -194 -266 0
-180 -195 -267 0
-178 -196 -268 0
-179 -197 -269 0
-180 -198 -270 0
-178 -199 -271 0
-179 -200 -272 0
-180 -201 -273 0
-178 -202 -274 0
-179 -203 -275 0
-180 -204 -276 0
-178 -205 -277 0
-179 -206 -278 0
-180 -207 -279 0
-178 -208 -280 0
-179 -209 -281 0
-180 -210 -282 0
-178 -211 -283 0
-179 -212 -284 0
-180 -213 -285 0
-178 -214 -286 0
-179 -215 -287 0
-180 -216 -288 0
-178 -217 -289 0
-179 -218 -290 0
-180 -219 -291 0
-178 -220 -292 0
-179 -221 -293 0
-180 -222 -294 0
-178 -223 -295 0
-179 -224 -296 0
-180 -225 -297 0
-178 -226 -298 0
-179 -227 -299 0
-180 -228 -300 0
-178 -229 -301 0
-179 -230 -302 0
-180 -231 -303 0
-178 -232 -304 0
-179 -233 -305 0
-180 -234 -306 0
-178 -235 -307 0
-179 -236 -308 0
-180 -237 -309 0
-178 -238 -310 0
-179 -239 -311 0
-180 -240 -312 0
-178 -241 -313 0
-179 -242 -314 0
-180 -243 -315 0
-178 -244 -316 0
-179 -245 -317 0
-180 -246 -318 0
-178 -247 -319 0
-179 -248 -320 0
-180 -249 -321 0
-178 -250 -322 0
-179 -251 -323 0
-180 -252 -324 0
-178 -253 -325 0
-179 -254 -326 0
-180 -255 -327 0
-178 -256 -328 0
-179 -257 -329 0
-180 -258 -330 0
-178 -259 -331 0
-179 -260 -332 0
-180 -261 -333 0
-178 -262 -334 0
-179 -263 -335 0
-180 -264 -336 0
-178 -265 -337 0
-179 -266 -338 0
-180 -267 -339 0
-178 -268 -340 0
-179 -269 -341 0
-180 -270 -342 0
-178 -271 -343 0
-179 -272 -344 0
-180 -273 -345 0
-178 -274 -346 0
-179 -275 -347 0
-180 -276 -348 0
-178 -277 -349 0
-179 -278 -350 0
-180 -279 -351 0
-178 -280 -352 0
-179 -281 -353 0
-180 -282 -354 0
-178 -283 -355 0
-179 -284 -356 0
-180 -285 -357 0
-178 -286 -358 0
-179 -287 -359 0
-180 -288 -360 0
-178 -289 -361 0
-179 -290 -362 0
-180 -291 -363 0
-178 -292 -364 0
-179 -293 -365 0
-180 -294 -366 0
-178 -295 -367 0
-179 -296 -368 0
-180 -297 -369 0
-178 -298 -370 0
-179 -299 -371 0
-180 -300 -372 0
-178 -301 -373 0
-179 -302 -374 0
-180 -303 -375 0
-1 -79 -193 0
-2 -80 -194 0
-3 -81 -195 0
-4 -82 -193 0
-5 -83 -194 0
-6 -84 -195 0
-7 -85 -193 0
-8 -86 -194 0
-9 -87 -195 0
-10 -88 -193 0
-11 -89 -194 0
-12 -90 -195 0
-13 -91 -193 0
-14 -92 -194 0
-15 -93 -195 0
-16 -94 -193 0
-17 -95 -194 0
-18 -96 -195 0
-19 -97 -193 0
-20 -98 -194 0
-21 -99 -195 0
-22 -100 -193 0
-23 -101 -194 0
-24 -102 -195 0
-25 -103 -193 0
-26 -104 -194 0
-27 -105 -195 0
-28 -106 -193 0
-29 -107 -194 0
-30 -108 -195 0
-31 -109 -193 0
-32 -110 -194 0
-33 -111 -195 0
-34 -112 -193 0
-35 -113 -194 0
-36 -114 -195 0
-37 -115 -193 0
-38 -116 -194 0
-39 -117 -195 0
-40 -118 -193 0
-41 -119 -194 0
-42 -120 -195 0
-43 -121 -193 0
-44 -122 -194 0
-45 -123 -195 0
-46 -124 -193 0
-47 -125 -194 0
-48 -126 -195 0
-49 -127 -193 0
-50 -128 -194 0
-51 -129 -195 0
-52 -130 -193 0
-53 -131 -194 0
-54 -132 -195 0
-55 -133 -193 0
-56 -134 -194 0
-57 -135 -195 0
-58 -136 -193 0
-59 -137 -194 0
-60 -138 -195 0
-61 -139 -193 0
-62 -140 -194 0
-63 -141 -195 0
-64 -142 -193 0
-65 -143 -194 0
-66 -144 -195 0
-67 -145 -193 0
-68 -146 -194 0
-69 -147 -195 0
-70 -148 -193 0
-71 -149 -194 0
-72 -150 -195 0
-73 -151 -193 0
-74 -152 -194 0
-75 -153 -195 0
-76 -154 -193 0
-77 -155 -194 0
-78 -156 -195 0
-79 -157 -193 0
-80 -158 -194 0
-81 -159 -195 0
-82 -160 -193 0
-83 -161 -194 0
-84 -162 -195 0
-85 -163 -193 0
-86 -164 -194 0
-87 -165 -195 0
-88 -166 -193 0
-89 -167 -194 0
-90 -168 -195 0
-91 -169 -193 0
-92 -170 -194 0
-93 -171 -195 0
-94 -172 -193 0
-95 -173 -194 0
-96 -174 -195 0
-97 -175 -193 0
-98 -176 -194 0
-99 -177 -195 0
-100 -178 -193 0
-101 -179 -194 0
-102 -180 -195 0
-103 -181 -193 0
-104 -182 -194 0
-105 -183 -195 0
-106 -184 -193 0
-107 -185 -194 0
-108 -186 -195 0
-109 -187 -193 0
-110 -188 -194 0
-111 -189 -195 0
-112 -190 -193 0
-113 -191 -194 0
-114 -192 -195 0
-115 -193 0
-116 -194 0
-117 -195 0
-118 -193 -196 0
-119 -194 -197 0
-120 -195 -198 0
-121 -193 -199 0
-122 -194 -200 0
-123 -195 -201 0
-124 -193 -202 0
-125 -194 -203 0
-126 -195 -204 0
-127 -193 -205 0
-128 -194 -206 0
-129 -195 -207 0
-130 -193 -208 0
-131 -194 -209 0
-132 -195 -210 0
-133 -193 -211 0
-134 -194 -212 0
-135 -195 -213 0
-136 -193 -214 0
-137 -194 -215 0
-138 -195 -216 0
-139 -193 -217 0
-140 -194 -218 0
-141 -195 -219 0
-142 -193 -220 0
-143 -194 -221 0
-144 -195 -222 0
-145 -193 -223 0
-146 -194 -224 0
-147 -195 -225 0
-148 -193 -226 0
-149 -194 -227 0
-150 -195 -228 0
-151 -193 -229 0
-152 -194 -230 0
-153 -195 -231 0
-154 -193 -232 0
-155 -194 -233 0
-156 -195 -234 0
-157 -193 -235 0
-158 -194 -236 0
-159 -195 -237 0
-160 -193 -238 0
-161 -194 -239 0
-162 -195 -240 0
-163 -193 -241 0
-164 -194 -242 0
-165 -195 -243 0
-166 -193 -244 0
-167 -194 -245 0
-168 -195 -246 0
-169 -193 -247 0
-170 -194 -248 0
-171 -195 -249 0
-172 -193 -250 0
-173 -194 -251 0
-174 -195 -252 0
-175 -193 -253 0
-176 -194 -254 0
-177 -195 -255 0
-178 -193 -256 0
-179 -194 -257 0
-180 -195 -258 0
-181 -193 -259 0
-182 -194 -260 0
-183 -195 -261 0
-184 -193 -262 0
-185 -194 -263 0
-186 -195 -264 0
-187 -193 -265 0
-188 -194 -266 0
-189 -195 -267 0
-190 -193 -268 0
-191 -194 -269 0
-192 -195 -270 0
-193 -271 0
-194 -272 0
-195 -273 0
-193 -196 -274 0
-194 -197 -275 0
-195 -198 -276 0
-193 -199 -277 0
-194 -200 -278 0
-195 -201 -279 0
-193 -202 -280 0
-194 -203 -281 0
-195 -204 -282 0
-193 -205 -283 0
-194 -206 -284 0
-195 -207 -285 0
-193 -208 -286 0
-194 -209 -287 0
-195 -210 -288 0
-193 -211 -289 0
-194 -212 -290 0
-195 -213 -291 0
-193 -214 -292 0
-194 -215 -293 0
-195 -216 -294 0
-193 -217 -295 0
-194 -218 -296 0
-195 -219 -297 0
-193 -220 -298 0
-194 -221 -299 0
-195 -222 -300 0
-193 -223 -301 0
-194 -224 -302 0
-195 -225 -303 0
-193 -226 -304 0
-194 -227 -305 0
-195 -228 -306 0
-193 -229 -307 0
-194 -230 -308 0
-195 -231 -309 0
-193 -232 -310 0
-194 -233 -311 0
-195 -234 -312 0
-193 -235 -313 0
-194 -236 -314 0
-195 -237 -315 0
-193 -238 -316 0
-194 -239 -317 0
-195 -240 -318 0
-193 -241 -319 0
-194 -242 -320 0
-195 -243 -321 0
-193 -244 -322 0
-194 -245 -323 0
-195 -246 -324 0
-193 -247 -325 0
-194 -248 -326 0
-195 -249 -327 0
-193 -250 -328 0
-194 -251 -329 0
-195 -252 -330 0
-193 -253 -331 0
-194 -254 -332 0
-195 -255 -333 0
-193 -256 -334 0
-194 -257 -335 0
-195 -258 -336 0
-193 -259 -337 0
-194 -260 -338 0
-195 -261 -339 0
-193 -262 -340 0
-194 -263 -341 0
-195 -264 -342 0
-193 -265 -343 0
-194 -266 -344 0
-195 -267 -345 0
-193 -268 -346 0
-194 -269 -347 0
-195 -270 -348 0
-193 -271 -349 0
-194 -272 -350 0
-195 -273 -351 0
-193 -274 -352 0
-194 -275 -353 0
-195 -276 -354 0
-193 -277 -355 0
-194 -278 -356 0
-195 -279 -357 0
-193 -280 -358 0
-194 -281 -359 0
-195 -282 -360 0
-193 -283 -361 0
-194 -284 -362 0
-195 -285 -363 0
-193 -286 -364 0
-194 -287 -365 0
-195 -288 -366 0
-193 -289 -367 0
-194 -290 -368 0
-195 -291 -369 0
-193 -292 -370 0
-194 -293 -371 0
-195 -294 -372 0
-193 -295 -373 0
-194 -296 -374 0
-195 -297 -375 0
-1 -85 -208 0
-2 -86 -209 0
-3 -87 -210 0
-4 -88 -208 0
-5 -89 -209 0
-6 -90 -210 0
-7 -91 -208 0
-8 -92 -209 0
-9 -93 -210 0
-10 -94 -208 0
-11 -95 -209 0
-12 -96 -210 0
-13 -97 -208 0
-14 -98 -209 0
-15 -99 -210 0
-16 -100 -208 0
-17 -101 -209 0
-18 -102 -210 0
-19 -103 -208 0
-20 -104 -209 0
-21 -105 -210 0
-22 -106 -208 0
-23 -107 -209 0
-24 -108 -210 0
-25 -109 -208 0
-26 -110 -209 0
-27 -111 -210 0
-28 -112 -208 0
-29 -113 -209 0
-30 -114 -210 0
-31 -115 -208 0
-32 -116 -209 0
-33 -117 -210 0
-34 -118 -208 0
-35 -119 -209 0
-36 -120 -210 0
-37 -121 -208 0
-38 -122 -209 0
-39 -123 -210 0
-40 -124 -208 0
-41 -125 -209 0
-42 -126 -210 0
-43 -127 -208 0
-44 -128 -209 0
-45 -129 -210 0
-46 -130 -208 0
-47 -131 -209 0
-48 -132 -210 0
-49 -133 -208 0
-50 -134 -209 0
-51 -135 -210 0
-52 -136 -208 0
-53 -137 -209 0
-54 -138 -210 0
-55 -139 -208 0
-56 -140 -209 0
-57 -141 -210 0
-58 -142 -208 0
-59 -143 -209 0
-60 -144 -210 0
-61 -145 -208 0
-62 -146 -209 0
-63 -147 -210 0
-64 -148 -208 0
-65 -149 -209 0
-66 -150 -210 0
-67 -151 -208 0
-68 -152 -209 0
-69 -153 -210 0
-70 -154 -208 0
-71 -155 -209 0
-72 -156 -210 0
-73 -157 -208 0
-74 -158 -209 0
-75 -159 -210 0
-76 -160 -208 0
-77 -161 -209 0
-78 -162 -210 0
-79 -163 -208 0
-80 -164 -209 0
-81 -165 -210 0
-82 -166 -208 0
-83 -167 -209 0
-84 -168 -210 0
-85 -169 -208 0
-86 -170 -209 0
-87 -171 -210 0
-88 -172 -208 0
-89 -173 -209 0
-90 -174 -210 0
-91 -175 -208 0
-92 -176 -209 0
-93 -177 -210 0
-94 -178 -208 0
-95 -179 -209 0
-96 -180 -210 0
-97 -181 -208 0
-98 -182 -209 0
-99 -183 -210 0
-100 -184 -208 0
-101 -185 -209 0
-102 -186 -210 0
-103 -187 -208 0
-104 -188 -209 0
-105 -189 -210 0
-106 -190 -208 0
-107 -191 -209 0
-108 -192 -210 0
-109 -193 -208 0
-110 -194 -209 0
-111 -195 -210 0
-112 -196 -208 0
-113 -197 -209 0
-114 -198 -210 0
-115 -199 -208 0
-116 -200 -209 0
-117 -201 -210 0
-118 -202 -208 0
-119 -203 -209 0
-120 -204 -210 0
-121 -205 -208 0
-122 -206 -209 0
-123 -207 -210 0
-124 -208 0
-125 -209 0
-126 -210 0
-127 -208 -211 0
-128 -209 -212 0
-129 -210 -213 0
-130 -208 -214 0
-131 -209 -215 0
-132 -210 -216 0
-133 -208 -217 0
-134 -209 -218 0
-135 -210 -219 0
-136 -208 -220 0
-137 -209 -221 0
-138 -210 -222 0
-139 -208 -223 0
-140 -209 -224 0
-141 -210 -225 0
-142 -208 -226 0
-143 -209 -227 0
-144 -210 -228 0
-145 -208 -229 0
-146 -209 -230 0
-147 -210 -231 0
-148 -208 -232 0
-149 -209 -233 0
-150 -210 -234 0
-151 -208 -235 0
-152 -209 -236 0
-153 -210 -237 0
-154 -208 -238 0
-155 -209 -239 0
-156 -210 -240 0
-157 -208 -241 0
-158 -209 -242 0
-159 -210 -243 0
-160 -208 -244 0
-161 -209 -245 0
-162 -210 -246 0
-163 -208 -247 0
-164 -209 -248 0
-165 -210 -249 0
-166 -208 -250 0
-167 -209 -251 0
-168 -210 -252 0
-169 -208 -253 0
-170 -209 -254 0
-171 -210 -255 0
-172 -208 -256 0
-173 -209 -257 0
-174 -210 -258 0
-175 -208 -259 0
-176 -209 -260 0
-177 -210 -261 0
-178 -208 -262 0
-179 -209 -263 0
-180 -210 -264 0
-181 -208 -265 0
-182 -209 -266 0
-183 -210 -267 0
-184 -208 -268 0
-185 -209 -269 0
-186 -210 -270 0
-187 -208 -271 0
-188 -209 -272 0
-189 -210 -273 0
-190 -208 -274 0
-191 -209 -275 0
-192 -210 -276 0
-193 -208 -277 0
-194 -209 -278 0
-195 -210 -279 0
-196 -208 -280 0
-197 -209 -281 0
-198 -210 -282 0
-199 -208 -283 0
-200 -209 -284 0
-201 -210 -285 0
-202 -208 -286 0
-203 -209 -287 0
-204 -210 -288 0
-205 -208 -289 0
-206 -209 -290 0
-207 -210 -291 0
-208 -292 0
-209 -293 0
-210 -294 0
-208 -211 -295 0
-209 -212 -296 0
-210 -213 -297 0
-208 -214 -298 0
-209 -215 -299 0
-210 -216 -300 0
-208 -217 -301 0
-209 -218 -302 0
-210 -219 -303 0
-208 -220 -304 0
-209 -221 -305 0
-210 -222 -306 0
-208 -223 -307 0
-209 -224 -308 0
-210 -225 -309 0
-208 -226 -310 0
-209 -227 -311 0
-210 -228 -312 0
-208 -229 -313 0
-209 -230 -314 0
-210 -231 -315 0
-208 -232 -316 0
-209 -233 -317 0
-210 -234 -318 0
-208 -235 -319 0
-209 -236 -320 0
-210 -237 -321 0
-208 -238 -322 0
-209 -239 -323 0
-210 -240 -324 0
-208 -241 -325 0
-209 -242 -326 0
-210 -243 -327 0
-208 -244 -328 0
-209 -245 -329 0
-210 -246 -330 0
-208 -247 -331 0
-209 -248 -332 0
-210 -249 -333 0
-208 -250 -334 0
-209 -251 -335 0
-210 -252 -336 0
-208 -253 -337 0
-209 -254 -338 0
-210 -255 -339 0
-208 -256 -340 0
-209 -257 -341 0
-210 -258 -342 0
-208 -259 -343 0
-209 -260 -344 0
-210 -261 -345 0
-208 -262 -346 0
-209 -263 -347 0
-210 -264 -348 0
-208 -265 -349 0
-209 -266 -350 0
-210 -267 -351 0
-208 -268 -352 0
-209 -269 -353 0
-210 -270 -354 0
-208 -271 -355 0
-209 -272 -356 0
-210 -273 -357 0
-208 -274 -358 0
-209 -275 -359 0
-210 -276 -360 0
-208 -277 -361 0
-209 -278 -362 0
-210 -279 -363 0
-208 -280 -364 0
-209 -281 -365 0
-210 -282 -366 0
-208 -283 -367 0
-209 -284 -368 0
-210 -285 -369 0
-208 -286 -370 0
-209 -287 -371 0
-210 -288 -372 0
-208 -289 -373 0
-209 -290 -374 0
-210 -291 -375 0
-1 -91 -223 0
-2 -92 -224 0
-3 -93 -225 0
-4 -94 -223 0
-5 -95 -224 0
-6 -96 -225 0
-7 -97 -223 0
-8 -98 -224 0
-9 -99 -225 0
-10 -100 -223 0
-11 -101 -224 0
-12 -102 -225 0
-13 -103 -223 0
-14 -104 -224 0
-15 -105 -225 0
-16 -106 -223 0
-17 -107 -224 0
-18 -108 -225 0
-19 -109 -223 0
-20 -110 -224 0
-21 -111 -225 0
-22 -112 -223 0
-23 -113 -224 0
-24 -114 -225 0
-25 -115 -223 0
-26 -116 -224 0
-27 -117 -225 0
-28 -118 -223 0
-29 -119 -224 0
-30 -120 -225 0
-31 -121 -223 0
-32 -122 -224 0
-33 -123 -225 0
-34 -124 -223 0
-35 -125 -224 0
-36 -126 -225 0
-37 -127 -223 0
-38 -128 -224 0
-39 -129 -225 0
-40 -130 -223 0
-41 -131 -224 0
-42 -132 -225 0
-43 -133 -223 0
-44 -134 -224 0
-45 -135 -225 0
-46 -136 -223 0
-47 -137 -224 0
-48 -138 -225 0
-49 -139 -223 0
-50 -140 -224 0
-51 -141 -225 0
-52 -142 -223 0
-53 -143 -224 0
-54 -144 -225 0
-55 -145 -223 0
-56 -146 -224 0
-57 -147 -225 0
-58 -148 -223 0
-59 -149 -224 0
-60 -150 -225 0
-61 -151 -223 0
-62 -152 -224 0
-63 -153 -225 0
-64 -154 -223 0
-65 -155 -224 0
-66 -156 -225 0
-67 -157 -223 0
-68 -158 -224 0
-69 -159 -225 0
-70 -160 -223 0
-71 -161 -224 0
-72 -162 -225 0
-73 -163 -223 0
-74 -164 -224 0
-75 -165 -225 0
-76 -166 -223 0
-77 -167 -224 0
-78 -168 -225 0
-79 -169 -223 0
-80 -170 -224 0
-81 -171 -225 0
-82 -172 -223 0
-83 -173 -224 0
-84 -174 -225 0
-85 -175 -223 0
-86 -176 -224 0
-87 -177 -225 0
-88 -178 -223 0
-89 -179 -224 0
-90 -180 -225 0
-91 -181 -223 0
-92 -182 -224 0
-93 -183 -225 0
-94 -184 -223 0
-95 -185 -224 0
-96 -186 -225 0
-97 -187 -223 0
-98 -188 -224 0
-99 -189 -225 0
-100 -190 -223 0
-101 -191 -224 0
-102 -192 -225 0
-103 -193 -223 0
-104 -194 -224 0
-105 -195 -225 0
-106 -196 -223 0
-107 -197 -224 0
-108 -198 -225 0
-109 -199 -223 0
-110 -200 -224 0
-111 -201 -225 0
-112 -202 -223 0
-113 -203 -224 0
-114 -204 -225 0
-115 -205 -223 0
-116 -206 -224 0
-117 -207 -225 0
-118 -208 -223 0
-119 -209 -224 0
-120 -210 -225 0
-121 -211 -223 0
-122 -212 -224 0
-123 -213 -225 0
-124 -214 -223 0
-125 -215 -224 0
-126 -216 -225 0
-127 -217 -223 0
-128 -218 -224 0
-129 -219 -225 0
-130 -220 -223 0
-131 -221 -224 0
-132 -222 -225 0
-133 -223 0
-134 -224 0
-135 -225 0
-136 -223 -226 0
-137 -224 -227 0
-138 -225 -228 0
-139 -223 -229 0
-140 -224 -230 0
-141 -225 -231 0
-142 -223 -232 0
-143 -224 -233 0
-144 -225 -234 0
-145 -223 -235 0
-146 -224 -236 0
-147 -225 -237 0
-148 -223 -238 0
-149 -224 -239 0
-150 -225 -240 0
-151 -223 -241 0
-152 -224 -242 0
-153 -225 -243 0
-154 -223 -244 0
-155 -224 -245 0
-156 -225 -246 0
-157 -223 -247 0
-158 -224 -248 0
-159 -225 -249 0
-160 -223 -250 0
-161 -224 -251 0
-162 -225 -252 0
-163 -223 -253 0
-164 -224 -254 0
-165 -225 -255 0
-166 -223 -256 0
-167 -224 -257 0
-168 -225 -258 0
-169 -223 -259 0
-170 -224 -260 0
-171 -225 -261 0
-172 -223 -262 0
-173 -224 -263 0
-174 -225 -264 0
-175 -223 -265 0
-176 -224 -266 0
-177 -225 -267 0
-178 -223 -268 0
-179 -224 -269 0
-180 -225 -270 0
-181 -223 -271 0
-182 -224 -272 0
-183 -225 -273 0
-184 -223 -274 0
-185 -224 -275 0
-186 -225 -276 0
-187 -223 -277 0
-188 -224 -278 0
-189 -225 -279 0
-190 -223 -280 0
-191 -224 -281 0
-192 -225 -282 0
-193 -223 -283 0
-194 -224 -284 0
-195 -225 -285 0
-196 -223 -286 0
-197 -224 -287 0
-198 -225 -288 0
-199 -223 -289 0
-200 -224 -290 0
-201 -225 -291 0
-202 -223 -292 0
-203 -224 -293 0
-204 -225 -294 0
-205 -223 -295 0
-206 -224 -296 0
-207 -225 -297 0
-208 -223 -298 0
-209 -224 -299 0
-210 -225 -300 0
-211 -223 -301 0
-212 -224 -302 0
-213 -225 -303 0
-214 -223 -304 0
-215 -224 -305 0
-216 -225 -306 0
-217 -223 -307 0
-218 -224 -308 0
-219 -225 -309 0
-220 -223 -310 0
-221 -224 -311 0
-222 -225 -312 0
-223 -313 0
-224 -314 0
-225 -315 0
-223 -226 -316 0
-224 -227 -317 0
-225 -228 -318 0
-223 -229 -319 0
-224 -230 -320 0
-225 -231 -321 0
-223 -232 -322 0
-224 -233 -323 0
-225 -234 -324 0
-223 -235 -325 0
-224 -236 -326 0
-225 -237 -327 0
-223 -238 -328 0
-224 -239 -329 0
-225 -240 -330 0
-223 -241 -331 0
-224 -242 -332 0
-225 -243 -333 0
-223 -244 -334 0
-224 -245 -335 0
-225 -246 -336 0
-223 -247 -337 0
-224 -248 -338 0
-225 -249 -339 0
-223 -250 -340 0
-224 -251 -341 0
-225 -252 -342 0
-223 -253 -343 0
-224 -254 -344 0
-225 -255 -345 0
-223 -256 -346 0
-224 -257 -347 0
-225 -258 -348 0
-223 -259 -349 0
-224 -260 -350 0
-225 -261 -351 0
-223 -262 -352 0
-224 -263 -353 0
-225 -264 -354 0
-223 -265 -355 0
-224 -266 -356 0
-225 -267 -357 0
-223 -268 -358 0
-224 -269 -359 0
-225 -270 -360 0
-223 -271 -361 0
-224 -272 -362 0
-225 -273 -363 0
-223 -274 -364 0
-224 -275 -365 0
-225 -276 -366 0
-223 -277 -367 0
-224 -278 -368 0
-225 -279 -369 0
-223 -280 -370 0
-224 -281 -371 0
-225 -282 -372 0
-223 -283 -373 0
-224 -284 -374 0
-225 -285 -375 0
-1 -97 -238 0
-2 -98 -239 0
-3 -99 -240 0
-4 -100 -238 0
-5 -101 -239 0
-6 -102 -240 0
-7 -103 -238 0
-8 -104 -239 0
-9 -105 -240 0
-10 -106 -238 0
-11 -107 -239 0
-12 -108 -240 0
-13 -109 -238 0
-14 -110 -239 0
-15 -111 -240 0
-16 -112 -238 0
-17 -113 -239 0
-18 -114 -240 0
-19 -115 -238 0
-20 -116 -239 0
-21 -117 -240 0
-22 -118 -238 0
-23 -119 -239 0
-24 -120 -240 0
-25 -121 -238 0
-26 -122 -239 0
-27 -123 -240 0
-28 -124 -238 0
-29 -125 -239 0
-30 -126 -240 0
-31 -127 -238 0
-32 -128 -239 0
-33 -129 -240 0
-34 -130 -238 0
-35 -131 -239 0
-36 -132 -240 0
-37 -133 -238 0
-38 -134 -239 0
-39 -135 -240 0
-40 -136 -238 0
-41 -137 -239 0
-42 -138 -240 0
-43 -139 -238 0
-44 -140 -239 0
-45 -141 -240 0
-46 -142 -238 0
-47 -143 -239 0
-48 -144 -240 0
-49 -145 -238 0
-50 -146 -239 0
-51 -147 -240 0
-52 -148 -238 0
-53 -149 -239 0
-54 -150 -240 0
-55 -151 -238 0
-56 -152 -239 0
-57 -153 -240 0
-58 -154 -238 0
-59 -155 -239 0
-60 -156 -240 0
-61 -157 -238 0
-62 -158 -239 0
-63 -159 -240 0
-64 -160 -238 0
-65 -161 -239 0
-66 -162 -240 0
-67 -163 -238 0
-68 -164 -239 0
-69 -165 -240 0
-70 -166 -238 0
-71 -167 -239 0
-72 -168 -240 0
-73 -169 -238 0
-74 -170 -239 0
-75 -171 -240 0
-76 -172 -238 0
-77 -173 -239 0
-78 -174 -240 0
-79 -175 -238 0
-80 -176 -239 0
-81 -177 -240 0
-82 -178 -238 0
-83 -179 -239 0
-84 -180 -240 0
-85 -181 -238 0
-86 -182 -239 0
-87 -183 -240 0
-88 -184 -238 0
-89 -185 -239 0
-90 -186 -240 0
-91 -187 -238 0
-92 -188 -239 0
-93 -189 -240 0
-94 -190 -238 0
-95 -191 -239 0
-96 -192 -240 0
-97 -193 -238 0
-98 -194 -239 0
-99 -195 -240 0
-100 -196 -238 0
-101 -197 -239 0
-102 -198 -240 0
-103 -199 -238 0
-104 -200 -239 0
-105 -201 -240 0
-106 -202 -238 0
-107 -203 -239 0
-108 -204 -240 0
-109 -205 -238 0
-110 -206 -239 0
-111 -207 -240 0
-112 -208 -238 0
-113 -209 -239 0
-114 -210 -240 0
-115 -211 -238 0
-116 -212 -239 0
-117 -213 -240 0
-118 -214 -238 0
-119 -215 -239 0
-120 -216 -240 0
-121 -217 -238 0
-122 -218 -239 0
-123 -219 -240 0
-124 -220 -238 0
-125 -221 -239 0
-126 -222 -240 0
-127 -223 -238 0
-128 -224 -239 0
-129 -225 -240 0
-130 -226 -238 0
-131 -227 -239 0
-132 -228 -240 0
-133 -229 -238 0
-134 -230 -239 0
-135 -231 -240 0
-136 -232 -238 0
-137 -233 -239 0
-138 -234 -240 0
-139 -235 -238 0
-140 -236 -239 0
-141 -237 -240 0
-142 -238 0
-143 -239 0
-144 -240 0
-145 -238 -241 0
-146 -239 -242 0
-147 -240 -243 0
-148 -238 -244 0
-149 -239 -245 0
-150 -240 -246 0
-151 -238 -247 0
-152 -239 -248 0
-153 -240 -249 0
-154 -238 -250 0
-155 -239 -251 0
-156 -240 -252 0
-157 -238 -253 0
-158 -239 -254 0
-159 -240 -255 0
-160 -238 -256 0
-161 -239 -257 0
-162 -240 -258 0
-163 -238 -259 0
-164 -239 -260 0
-165 -240 -261 0
-166 -238 -262 0
-167 -239 -263 0
-168 -240 -264 0
-169 -238 -265 0
-170 -239 -266 0
-171 -240 -267 0
-172 -238 -268 0
-173 -239 -269 0
-174 -240 -270 0
-175 -238 -271 0
-176 -239 -272 0
-177 -240 -273 0
-178 -238 -274 0
-179 -239 -275 0
-180 -240 -276 0
-181 -238 -277 0
-182 -239 -278 0
-183 -240 -279 0
-184 -238 -280 0
-185 -239 -281 0
-186 -240 -282 0
-187 -238 -283 0
-188 -239 -284 0
-189 -240 -285 0
-190 -238 -286 0
-191 -239 -287 0
-192 -240 -288 0
-193 -238 -289 0
-194 -239 -290 0
-195 -240 -291 0
-196 -238 -292 0
-197 -239 -293 0
-198 -240 -294 0
-199 -238 -295 0
-200 -239 -296 0
-201 -240 -297 0
-202 -238 -298 0
-203 -239 -299 0
-204 -240 -300 0
-205 -238 -301 0
-206 -239 -302 0
-207 -240 -303 0
-208 -238 -304 0
-209 -239 -305 0
-210 -240 -306 0
-211 -238 -307 0
-212 -239 -308 0
-213 -240 -309 0
-214 -238 -310 0
-215 -239 -311 0
-216 -240 -312 0
-217 -238 -313 0
-218 -239 -314 0
-219 -240 -315 0
-220 -238 -316 0
-221 -239 -317 0
-222 -240 -318 0
-223 -238 -319 0
-224 -239 -320 0
-225 -240 -321 0
-226 -238 -322 0
-227 -239 -323 0
-228 -240 -324 0
-229 -238 -325 0
-230 -239 -326 0
-231 -240 -327 0
-232 -238 -328 0
-233 -239 -329 0
-234 -240 -330 0
-235 -238 -331 0
-236 -239 -332 0
-237 -240 -333 0
-238 -334 0
-239 -335 0
-240 -336 0
-238 -241 -337 0
-239 -242 -338 0
-240 -243 -339 0
-238 -244 -340 0
-239 -245 -341 0
-240 -246 -342 0
-238 -247 -343 0
-239 -248 -344 0
-240 -249 -345 0
-238 -250 -346 0
-239 -251 -347 0
-240 -252 -348 0
-238 -253 -349 0
-239 -254 -350 0
-240 -255 -351 0
-238 -256 -352 0
-239 -257 -353 0
-240 -258 -354 0
-238 -259 -355 0
-239 -260 -356 0
-240 -261 -357 0
-238 -262 -358 0
-239 -263 -359 0
-240 -264 -360 0
-238 -265 -361 0
-239 -266 -362 0
-240 -267 -363 0
-238 -268 -364 0
-239 -269 -365 0
-240 -270 -366 0
-238 -271 -367 0
-239 -272 -368 0
-240 -273 -369 0
-238 -274 -370 0
-239 -275 -371 0
-240 -276 -372 0
-238 -277 -373 0
-239 -278 -374 0
-240 -279 -375 0
-1 -103 -253 0
-2 -104 -254 0
-3 -105 -255 0
-4 -106 -253 0
-5 -107 -254 0
-6 -108 -255 0
-7 -109 -253 0
-8 -110 -254 0
-9 -111 -255 0
-10 -112 -253 0
-11 -113 -254 0
-12 -114 -255 0
-13 -115 -253 0
-14 -116 -254 0
-15 -117 -255 0
-16 -118 -253 0
-17 -119 -254 0
-18 -120 -255 0
-19 -121 -253 0
-20 -122 -254 0
-21 -123 -255 0
-22 -124 -253 0
-23 -125 -254 0
-24 -126 -255 0
-25 -127 -253 0
-26 -128 -254 0
-27 -129 -255 0
-28 -130 -253 0
-29 -131 -254 0
-30 -132 -255 0
-31 -133 -253 0
-32 -134 -254 0
-33 -135 -255 0
-34 -136 -253 0
-35 -137 -254 0
-36 -138 -255 0
-37 -139 -253 0
-38 -140 -254 0
-39 -141 -255 0
-40 -142 -253 0
-41 -143 -254 0
-42 -144 -255 0
-43 -145 -253 0
-44 -146 -254 0
-45 -147 -255 0
-46 -148 -253 0
-47 -149 -254 0
-48 -150 -255 0
-49 -151 -253 0
-50 -152 -254 0
-51 -153 -255 0
-52 -154 -253 0
-53 -155 -254 0
-54 -156 -255 0
-55 -157 -253 0
-56 -158 -254 0
-57 -159 -255 0
-58 -160 -253 0
-59 -161 -254 0
-60 -162 -255 0
-61 -163 -253 0
-62 -164 -254 0
-63 -165 -255 0
-64 -166 -253 0
-65 -167 -254 0
-66 -168 -255 0
-67 -169 -253 0
-68 -170 -254 0
-69 -171 -255 0
-70 -172 -253 0
-71 -173 -254 0
-72 -174 -255 0
-73 -175 -253 0
-74 -176 -254 0
-75 -177 -255 0
-76 -178 -253 0
-77 -179 -254 0
-78 -180 -255 0
-79 -181 -253 0
-80 -182 -254 0
-81 -183 -255 0
-82 -184 -253 0
-83 -185 -254 0
-84 -186 -255 0
-85 -187 -253 0
-86 -188 -254 0
-87 -189 -255 0
-88 -190 -253 0
-89 -191 -254 0
-90 -192 -255 0
-91 -193 -253 0
-92 -194 -254 0
-93 -195 -255 0
-94 -196 -253 0
-95 -197 -254 0
-96 -198 -255 0
-97 -199 -253 0
-98 -200 -254 0
-99 -201 -255 0
-100 -202 -253 0
-101 -203 -254 0
-102 -204 -255 0
-103 -205 -253 0
-104 -206 -254 0
-105 -207 -255 0
-106 -208 -253 0
-107 -209 -254 0
-108 -210 -255 0
-109 -211 -253 0
-110 -212 -254 0
-111 -213 -255 0
-112 -214 -253 0
-113 -215 -254 0
-114 -216 -255 0
-115 -217 -253 0
-116 -218 -254 0
-117 -219 -255 0
-118 -220 -253 0
-119 -221 -254 0
-120 -222 -255 0
-121 -223 -253 0
-122 -224 -254 0
-123 -225 -255 0
-124 -226 -253 0
-125 -227 -254 0
-126 -228 -255 0
-127 -229 -253 0
-128 -230 -254 0
-129 -231 -255 0
-130 -232 -253 0
-131 -233 -254 0
-132 -234 -255 0
-133 -235 -253 0
-134 -236 -254 0
-135 -237 -255 0
-136 -238 -253 0
-137 -239 -254 0
-138 -240 -255 0
-139 -241 -253 0
-140 -242 -254 0
-141 -243 -255 0
-142 -244 -253 0
-143 -245 -254 0
-144 -246 -255 0
-145 -247 -253 0
-146 -248 -254 0
-147 -249 -255 0
-148 -250 -253 0
-149 -251 -254 0
-150 -252 -255 0
-151 -253 0
-152 -254 0
-153 -255 0
-154 -253 -256 0
-155 -254 -257 0
-156 -255 -258 0
-157 -253 -259 0
-158 -254 -260 0
-159 -255 -261 0
-160 -253 -262 0
-161 -254 -263 0
-162 -255 -264 0
-163 -253 -265 0
-164 -254 -266 0
-165 -255 -267 0
-166 -253 -268 0
-167 -254 -269 0
-168 -255 -270 0
-169 -253 -271 0
-170 -254 -272 0
-171 -255 -273 0
-172 -253 -274 0
-173 -254 -275 0
-174 -255 -276 0
-175 -253 -277 0
-176 -254 -278 0
-177 -255 -279 0
-178 -253 -280 0
-179 -254 -281 0
-180 -255 -282 0
-181 -253 -283 0
-182 -254 -284 0
-183 -255 -285 0
-184 -253 -286 0
-185 -254 -287 0
-186 -255 -288 0
-187 -253 -289 0
-188 -254 -290 0
-189 -255 -291 0
-190 -253 -292 0
-191 -254 -293 0
-192 -255 -294 0
-193 -253 -295 0
-194 -254 -296 0
-195 -255 -297 0
-196 -253 -298 0
-197 -254 -299 0
-198 -255 -300 0
-199 -253 -301 0
-200 -254 -302 0
-201 -255 -303 0
-202 -253 -304 0
-203 -254 -305 0
-204 -255 -306 0
-205 -253 -307 0
-206 -254 -308 0
-207 -255 -309 0
-208 -253 -310 0
-209 -254 -311 0
-210 -255 -312 0
-211 -253 -313 0
-212 -254 -314 0
-213 -255 -315 0
-214 -253 -316 0
-215 -254 -317 0
-216 -255 -318 0
-217 -253 -319 0
-218 -254 -320 0
-219 -255 -321 0
-220 -253 -322 0
-221 -254 -323 0
-222 -255 -324 0
-223 -253 -325 0
-224 -254 -326 0
-225 -255 -327 0
-226 -253 -328 0
-227 -254 -329 0
-228 -255 -330 0
-229 -253 -331 0
-230 -254 -332 0
-231 -255 -333 0
-232 -253 -334 0
-233 -254 -335 0
-234 -255 -336 0
-235 -253 -337 0
-236 -254 -338 0
-237 -255 -339 0
-238 -253 -340 0
-239 -254 -341 0
-240 -255 -342 0
-241 -253 -343 0
-242 -254 -344 0
-243 -255 -345 0
-244 -253 -346 0
-245 -254 -347 0
-246 -255 -348 0
-247 -253 -349 0
-248 -254 -350 0
-249 -255 -351 0
-250 -253 -352 0
-251 -254 -353 0
-252 -255 -354 0
-253 -355 0
-254 -356 0
-255 -357 0
-253 -256 -358 0
-254 -257 -359 0
-255 -258 -360 0
-253 -259 -361 0
-254 -260 -362 0
-255 -261 -363 0
-253 -262 -364 0
-254 -263 -365 0
-255 -264 -366 0
-253 -265 -367 0
-254 -266 -368 0
-255 -267 -369 0
-253 -268 -370 0
-254 -269 -371 0
-255 -270 -372 0
-253 -271 -373 0
-254 -272 -374 0
-255 -273 -375 0
-1 -109 -268 0
-2 -110 -269 0
-3 -111 -270 0
-4 -112 -268 0
-5 -113 -269 0
-6 -114 -270 0
-7 -115 -268 0
-8 -116 -269 0
-9 -117 -270 0
-10 -118 -268 0
-11 -119 -269 0
-12 -120 -270 0
-13 -121 -268 0
-14 -122 -269 0
-15 -123 -270 0
-16 -124 -268 0
-17 -125 -269 0
-18 -126 -270 0
-19 -127 -268 0
-20 -128 -269 0
-21 -129 -270 0
-22 -130 -268 0
-23 -131 -269 0
-24 -132 -270 0
-25 -133 -268 0
-26 -134 -269 0
-27 -135 -270 0
-28 -136 -268 0
-29 -137 -269 0
-30 -138 -270 0
-31 -139 -268 0
-32 -140 -269 0
-33 -141 -270 0
-34 -142 -268 0
-35 -143 -269 0
-36 -144 -270 0
-37 -145 -268 0
-38 -146 -269 0
-39 -147 -270 0
-40 -148 -268 0
-41 -149 -269 0
-42 -150 -270 0
-43 -151 -268 0
-44 -152 -269 0
-45 -153 -270 0
-46 -154 -268 0
-47 -155 -269 0
-48 -156 -270 0
-49 -157 -268 0
-50 -158 -269 0
-51 -159 -270 0
-52 -160 -268 0
-53 -161 -269 0
-54 -162 -270 0
-55 -163 -268 0
-56 -164 -269 0
-57 -165 -270 0
-58 -166 -268 0
-59 -167 -269 0
-60 -168 -270 0
-61 -169 -268 0
-62 -170 -269 0
-63 -171 -270 0
-64 -172 -268 0
-65 -173 -269 0
-66 -174 -270 0
-67 -175 -268 0
-68 -176 -269 0
-69 -177 -270 0
-70 -178 -268 0
-71 -179 -269 0
-72 -180 -270 0
-73 -181 -268 0
-74 -182 -269 0
-75 -183 -270 0
-76 -184 -268 0
-77 -185 -269 0
-78 -186 -270 0
-79 -187 -268 0
-80 -188 -269 0
-81 -189 -270 0
-82 -190 -268 0
-83 -191 -269 0
-84 -192 -270 0
-85 -193 -268 0
-86 -194 -269 0
-87 -195 -270 0
-88 -196 -268 0
-89 -197 -269 0
-90 -198 -270 0
-91 -199 -268 0
-92 -200 -269 0
-93 -201 -270 0
-94 -202 -268 0
-95 -203 -269 0
-96 -204 -270 0
-97 -205 -268 0
-98 -206 -269 0
-99 -207 -270 0
-100 -208 -268 0
-101 -209 -269 0
-102 -210 -270 0
-103 -211 -268 0
-104 -212 -269 0
-105 -213 -270 0
-106 -214 -268 0
-107 -215 -269 0
-108 -216 -270 0
-109 -217 -268 0
-110 -218 -269 0
-111 -219 -270 0
-112 -220 -268 0
-113 -221 -269 0
-114 -222 -270 0
-115 -223 -268 0
-116 -224 -269 0
-117 -225 -270 0
-118 -226 -268 0
-119 -227 -269 0
-120 -228 -270 0
-121 -229 -268 0
-122 -230 -269 0
-123 -231 -270 0
-124 -232 -268 0
-125 -233 -269 0
-126 -234 -270 0
-127 -235 -268 0
-128 -236 -269 0
-129 -237 -270 0
-130 -238 -268 0
-131 -239 -269 0
-132 -240 -270 0
-133 -241 -268 0
-134 -242 -269 0
-135 -243 -270 0
-136 -244 -268 0
-137 -245 -269 0
-138 -246 -270 0
-139 -247 -268 0
-140 -248 -269 0
-141 -249 -270 0
-142 -250 -268 0
-143 -251 -269 0
-144 -252 -270 0
-145 -253 -268 0
-146 -254 -269 0
-147 -255 -270 0
-148 -256 -268 0
-149 -257 -269 0
-150 -258 -270 0
-151 -259 -268 0
-152 -260 -269 0
-153 -261 -270 0
-154 -262 -268 0
-155 -263 -269 0
-156 -264 -270 0
-157 -265 -268 0
-158 -266 -269 0
-159 -267 -270 0
-160 -268 0
-161 -269 0
-162 -270 0
-163 -268 -271 0
-164 -269 -272 0
-165 -270 -273 0
-166 -268 -274 0
-167 -269 -275 0
-168 -270 -276 0
-169 -268 -277 0
-170 -269 -278 0
-171 -270 -279 0
-172 -268 -280 0
-173 -269 -281 0
-174 -270 -282 0
-175 -268 -283 0
-176 -269 -284 0
-177 -270 -285 0
-178 -268 -286 0
-179 -269 -287 0
-180 -270 -288 0
-181 -268 -289 0
-182 -269 -290 0
-183 -270 -291 0
-184 -268 -292 0
-185 -269 -293 0
-186 -270 -294 0
-187 -268 -295 0
-188 -269 -296 0
-189 -270 -297 0
-190 -268 -298 0
-191 -269 -299 0
-192 -270 -300 0
-193 -268 -301 0
-194 -269 -302 0
-195 -270 -303 0
-196 -268 -304 0
-197 -269 -305 0
-198 -270 -306 0
-199 -268 -307 0
-200 -269 -308 0
-201 -270 -309 0
-202 -268 -310 0
-203 -269 -311 0
-204 -270 -312 0
-205 -268 -313 0
-206 -269 -314 0
-207 -270 -315 0
-208 -268 -316 0
-209 -269 -317 0
-210 -270 -318 0
-211 -268 -319 0
-212 -269 -320 0
-213 -270 -321 0
-214 -268 -322 0
-215 -269 -323 0
-216 -270 -324 0
-217 -268 -325 0
-218 -269 -326 0
-219 -270 -327 0
-220 -268 -328 0
-221 -269 -329 0
-222 -270 -330 0
-223 -268 -331 0
-224 -269 -332 0
-225 -270 -333 0
-226 -268 -334 0
-227 -269 -335 0
-228 -270 -336 0
-229 -268 -337 0
-230 -269 -338 0
-231 -270 -339 0
-232 -268 -340 0
-233 -269 -341 0
-234 -270 -342 0
-235 -268 -343 0
-236 -269 -344 0
-237 -270 -345 0
-238 -268 -346 0
-239 -269 -347 0
-240 -270 -348 0
-241 -268 -349 0
-242 -269 -350 0
-243 -270 -351 0
-244 -268 -352 0
-245 -269 -353 0
-246 -270 -354 0
-247 -268 -355 0
-248 -269 -356 0
-249 -270 -357 0
-250 -268 -358 0
-251 -269 -359 0
-252 -270 -360 0
-253 -268 -361 0
-254 -269 -362 0
-255 -270 -363 0
-256 -268 -364 0
-257 -269 -365 0
-258 -270 -366 0
-259 -268 -367 0
-260 -269 -368 0
-261 -270 -369 0
-262 -268 -370 0
-263 -269 -371 0
-264 -270 -372 0
-265 -268 -373 0
-266 -269 -374 0
-267 -270 -375 0
-1 -115 -283 0
-2 -116 -284 0
-3 -117 -285 0
-4 -118 -283 0
-5 -119 -284 0
-6 -120 -285 0
-7 -121 -283 0
-8 -122 -284 0
-9 -123 -285 0
-10 -124 -283 0
-11 -125 -284 0
-12 -126 -285 0
-13 -127 -283 0
-14 -128 -284 0
-15 -129 -285 0
-16 -130 -283 0
-17 -131 -284 0
-18 -132 -285 0
-19 -133 -283 0
-20 -134 -284 0
-21 -135 -285 0
-22 -136 -283 0
-23 -137 -284 0
-24 -138 -285 0
-25 -139 -283 0
-26 -140 -284 0
-27 -141 -285 0
-28 -142 -283 0
-29 -143 -284 0
-30 -144 -285 0
-31 -145 -283 0
-32 -146 -284 0
-33 -147 -285 0
-34 -148 -283 0
-35 -149 -284 0
-36 -150 -285 0
-37 -151 -283 0
-38 -152 -284 0
-39 -153 -285 0
-40 -154 -283 0
-41 -155 -284 0
-42 -156 -285 0
-43 -157 -283 0
-44 -158 -284 0
-45 -159 -285 0
-46 -160 -283 0
-47 -161 -284 0
-48 -162 -285 0
-49 -163 -283 0
-50 -164 -284 0
-51 -165 -285 0
-52 -166 -283 0
-53 -167 -284 0
-54 -168 -285 0
-55 -169 -283 0
-56 -170 -284 0
-57 -171 -285 0
-58 -172 -283 0
-59 -173 -284 0
-60 -174 -285 0
-61 -175 -283 0
-62 -176 -284 0
-63 -177 -285 0
-64 -178 -283 0
-65 -179 -284 0
-66 -180 -285 0
-67 -181 -283 0
-68 -182 -284 0
-69 -183 -285 0
-70 -184 -283 0
-71 -185 -284 0
-72 -186 -285 0
-73 -187 -283 0
-74 -188 -284 0
-75 -189 -285 0
-76 -190 -283 0
-77 -191 -284 0
-78 -192 -285 0
-79 -193 -283 0
-80 -194 -284 0
-81 -195 -285 0
-82 -196 -283 0
-83 -197 -284 0
-84 -198 -285 0
-85 -199 -283 0
-86 -200 -284 0
-87 -201 -285 0
-88 -202 -283 0
-89 -203 -284 0
-90 -204 -285 0
-91 -205 -283 0
-92 -206 -284 0
-93 -207 -285 0
-94 -208 -283 0
-95 -209 -284 0
-96 -210 -285 0
-97 -211 -283 0
-98 -212 -284 0
-99 -213 -285 0
-100 -214 -283 0
-101 -215 -284 0
-102 -216 -285 0
-103 -217 -283 0
-104 -218 -284 0
-105 -219 -285 0
-106 -220 -283 0
-107 -221 -284 0
-108 -222 -285 0
-109 -223 -283 0
-110 -224 -284 0
-111 -225 -285 0
-112 -226 -283 0
-113 -227 -284 0
-114 -228 -285 0
-115 -229 -283 0
-116 -230 -284 0
-117 -231 -285 0
-118 -232 -283 0
-119 -233 -284 0
-120 -234 -285 0
-121 -235 -283 0
-122 -236 -284 0
-123 -237 -285 0
-124 -238 -283 0
-125 -239 -284 0
-126 -240 -285 0
-127 -241 -283 0
-128 -242 -284 0
-129 -243 -285 0
-130 -244 -283 0
-131 -245 -284 0
-132 -246 -285 0
-133 -247 -283 0
-134 -248 -284 0
-135 -249 -285 0
-136 -250 -283 0
-137 -251 -284 0
-138 -252 -285 0
-139 -253 -283 0
-140 -254 -284 0
-141 -255 -285 0
-142 -256 -283 0
-143 -257 -284 0
-144 -258 -285 0
-145 -259 -283 0
-146 -260 -284 0
-147 -261 -285 0
-148 -262 -283 0
-149 -263 -284 0
-150 -264 -285 0
-151 -265 -283 0
-152 -266 -284 0
-153 -267 -285 0
-154 -268 -283 0
-155 -269 -284 0
-156 -270 -285 0
-157 -271 -283 0
-158 -272 -284 0
-159 -273 -285 0
-160 -274 -283 0
-161 -275 -284 0
-162 -276 -285 0
-163 -277 -283 0
-164 -278 -284 0
-165 -279 -285 0
-166 -280 -283 0
-167 -281 -284 0
-168 -282 -285 0
-169 -283 0
-170 -284 0
-171 -285 0
-172 -283 -286 0
-173 -284 -287 0
-174 -285 -288 0
-175 -283 -289 0
-176 -284 -290 0
-177 -285 -291 0
-178 -283 -292 0
-179 -284 -293 0
-180 -285 -294 0
-181 -283 -295 0
-182 -284 -296 0
-183 -285 -297 0
-184 -283 -298 0
-185 -284 -299 0
-186 -285 -300 0
-187 -283 -301 0
-188 -284 -302 0
-189 -285 -303 0
-190 -283 -304 0
-191 -284 -305 0
-192 -285 -306 0
-193 -283 -307 0
-194 -284 -308 0
-195 -285 -309 0
-196 -283 -310 0
-197 -284 -311 0
-198 -285 -312 0
-199 -283 -313 0
-200 -284 -314 0
-201 -285 -315 0
-202 -283 -316 0
-203 -284 -317 0
-204 -285 -318 0
-205 -283 -319 0
-206 -284 -320 0
-207 -285 -321 0
-208 -283 -322 0
-209 -284 -323 0
-210 -285 -324 0
-211 -283 -325 0
-212 -284 -326 0
-213 -285 -327 0
-214 -283 -328 0
-215 -284 -329 0
-216 -285 -330 0
-217 -283 -331 0
-218 -284 -332 0
-219 -285 -333 0
-220 -283 -334 0
-221 -284 -335 0
-222 -285 -336 0
-223 -283 -337 0
-224 -284 -338 0
-225 -285 -339 0
-226 -283 -340 0
-227 -284 -341 0
-228 -285 -342 0
-229 -283 -343 0
-230 -284 -344 0
-231 -285 -345 0
-232 -283 -346 0
-233 -284 -347 0
-234 -285 -348 0
-235 -283 -349 0
-236 -284 -350 0
-237 -285 -351 0
-238 -283 -352 0
-239 -284 -353 0
-240 -285 -354 0
-241 -283 -355 0
-242 -284 -356 0
-243 -285 -357 0
-244 -283 -358 0
-245 -284 -359 0
-246 -285 -360 0
-247 -283 -361 0
-248 -284 -362 0
-249 -285 -363 0
-250 -283 -364 0
-251 -284 -365 0
-252 -285 -366 0
-253 -283 -367 0
-254 -284 -368 0
-255 -285 -369 0
-256 -283 -370 0
-257 -284 -371 0
-258 -285 -372 0
-259 -283 -373 0
-260 -284 -374 0
-261 -285 -375 0
-1 -121 -298 0
-2 -122 -299 0
-3 -123 -300 0
-4 -124 -298 0
-5 -125 -299 0
-6 -126 -300 0
-7 -127 -298 0
-8 -128 -299 0
-9 -129 -300 0
-10 -130 -298 0
-11 -131 -299 0
-12 -132 -300 0
-13 -133 -298 0
-14 -134 -299 0
-15 -135 -300 0
-16 -136 -298 0
-17 -137 -299 0
-18 -138 -300 0
-19 -139 -298 0
-20 -140 -299 0
-21 -141 -300 0
-22 -142 -298 0
-23 -143 -299 0
-24 -144 -300 0
-25 -145 -298 0
-26 -146 -299 0
-27 -147 -300 0
-28 -148 -298 0
-29 -149 -299 0
-30 -150 -300 0
-31 -151 -298 0
-32 -152 -299 0
-33 -153 -300 0
-34 -154 -298 0
-35 -155 -299 0
-36 -156 -300 0
-37 -157 -298 0
-38 -158 -299 0
-39 -159 -300 0
-40 -160 -298 0
-41 -161 -299 0
-42 -162 -300 0
-43 -163 -298 0
-44 -164 -299 0
-45 -165 -300 0
-46 -166 -298 0
-47 -167 -299 0
-48 -168 -300 0
-49 -169 -298 0
-50 -170 -299 0
-51 -171 -300 0
-52 -172 -298 0
-53 -173 -299 0
-54 -174 -300 0
-55 -175 -298 0
-56 -176 -299 0
-57 -177 -300 0
-58 -178 -298 0
-59 -179 -299 0
-60 -180 -300 0
-61 -181 -298 0
-62 -182 -299 0
-63 -183 -300 0
-64 -184 -298 0
-65 -185 -299 0
-66 -186 -300 0
-67 -187 -298 0
-68 -188 -299 0
-69 -189 -300 0
-70 -190 -298 0
-71 -191 -299 0
-72 -192 -300 0
-73 -193 -298 0
-74 -194 -299 0
-75 -195 -300 0
-76 -196 -298 0
-77 -197 -299 0
-78 -198 -300 0
-79 -199 -298 0
-80 -200 -299 0
-81 -201 -300 0
-82 -202 -298 0
-83 -203 -299 0
-84 -204 -300 0
-85 -205 -298 0
-86 -206 -299 0
-87 -207 -300 0
-88 -208 -298 0
-89 -209 -299 0
-90 -210 -300 0
-91 -211 -298 0
-92 -212 -299 0
-93 -213 -300 0
-94 -214 -298 0
-95 -215 -299 0
-96 -216 -300 0
-97 -217 -298 0
-98 -218 -299 0
-99 -219 -300 0
-100 -220 -298 0
-101 -221 -299 0
-102 -222 -300 0
-103 -223 -298 0
-104 -224 -299 0
-105 -225 -300 0
-106 -226 -298 0
-107 -227 -299 0
-108 -228 -300 0
-109 -229 -298 0
-110 -230 -299 0
-111 -231 -300 0
-112 -232 -298 0
-113 -233 -299 0
-114 -234 -300 0
-115 -235 -298 0
-116 -236 -299 0
-117 -237 -300 0
-118 -238 -298 0
-119 -239 -299 0
-120 -240 -300 0
-121 -241 -298 0
-122 -242 -299 0
-123 -243 -300 0
-124 -244 -298 0
-125 -245 -299 0
-126 -246 -300 0
-127 -247 -298 0
-128 -248 -299 0
-129 -249 -300 0
-130 -250 -298 0
-131 -251 -299 0
-132 -252 -300 0
-133 -253 -298 0
-134 -254 -299 0
-135 -255 -300 0
-136 -256 -298 0
-137 -257 -299 0
-138 -258 -300 0
-139 -259 -298 0
-140 -260 -299 0
-141 -261 -300 0
-142 -262 -298 0
-143 -263 -299 0
-144 -264 -300 0
-145 -265 -298 0
-146 -266 -299 0
-147 -267 -300 0
-148 -268 -298 0
-149 -269 -299 0
-150 -270 -300 0
-151 -271 -298 0
-152 -272 -299 0
-153 -273 -300 0
-154 -274 -298 0
-155 -275 -299 0
-156 -276 -300 0
-157 -277 -298 0
-158 -278 -299 0
-159 -279 -300 0
-160 -280 -298 0
-161 -281 -299 0
-162 -282 -300 0
-163 -283 -298 0
-164 -284 -299 0
-165 -285 -300 0
-166 -286 -298 0
-167 -287 -299 0
-168 -288 -300 0
-169 -289 -298 0
-170 -290 -299 0
-171 -291 -300 0
-172 -292 -298 0
-173 -293 -299 0
-174 -294 -300 0
-175 -295 -298 0
-176 -296 -299 0
-177 -297 -300 0
-178 -298 0
-179 -299 0
-180 -300 0
-181 -298 -301 0
-182 -299 -302 0
-183 -300 -303 0
-184 -298 -304 0
-185 -299 -305 0
-186 -300 -306 0
-187 -298 -307 0
-188 -299 -308 0
-189 -300 -309 0
-190 -298 -310 0
-191 -299 -311 0
-192 -300 -312 0
-193 -298 -313 0
-194 -299 -314 0
-195 -300 -315 0
-196 -298 -316 0
-197 -299 -317 0
-198 -300 -318 0
-199 -298 -319 0
-200 -299 -320 0
-201 -300 -321 0
-202 -298 -322 0
-203 -299 -323 0
-204 -300 -324 0
-205 -298 -325 0
-206 -299 -326 0
-207 -300 -327 0
-208 -298 -328 0
-209 -299 -329 0
-210 -300 -330 0
-211 -298 -331 0
-212 -299 -332 0
-213 -300 -333 0
-214 -298 -334 0
-215 -299 -335 0
-216 -300 -336 0
-217 -298 -337 0
-218 -299 -338 0
-219 -300 -339 0
-220 -298 -340 0
-221 -299 -341 0
-222 -300 -342 0
-223 -298 -343 0
-224 -299 -344 0
-225 -300 -345 0
-226 -298 -346 0
-227 -299 -347 0
-228 -300 -348 0
-229 -298 -349 0
-230 -299 -350 0
-231 -300 -351 0
-232 -298 -352 0
-233 -299 -353 0
-234 -300 -354 0
-235 -298 -355 0
-236 -299 -356 0
-237 -300 -357 0
-238 -298 -358 0
-239 -299 -359 0
-240 -300 -360 0
-241 -298 -361 0
-242 -299 -362 0
-243 -300 -363 0
-244 -298 -364 0
-245 -299 -365 0
-246 -300 -366 0
-247 -298 -367 0
-248 -299 -368 0
-249 -300 -369 0
-250 -298 -370 0
-251 -299 -371 0
-252 -300 -372 0
-253 -298 -373 0
-254 -299 -374 0
-255 -300 -375 0
-1 -127 -313 0
-2 -128 -314 0
-3 -129 -315 0
-4 -130 -313 0
-5 -131 -314 0
-6 -132 -315 0
-7 -133 -313 0
-8 -134 -314 0
-9 -135 -315 0
-10 -136 -313 0
-11 -137 -314 0
-12 -138 -315 0
-13 -139 -313 0
-14 -140 -314 0
-15 -141 -315 0
-16 -142 -313 0
-17 -143 -314 0
-18 -144 -315 0
-19 -145 -313 0
-20 -146 -314 0
-21 -147 -315 0
-22 -148 -313 0
-23 -149 -314 0
-24 -150 -315 0
-25 -151 -313 0
-26 -152 -314 0
-27 -153 -315 0
-28 -154 -313 0
-29 -155 -314 0
-30 -156 -315 0
-31 -157 -313 0
-32 -158 -314 0
-33 -159 -315 0
-34 -160 -313 0
-35 -161 -314 0
-36 -162 -315 0
-37 -163 -313 0
-38 -164 -314 0
-39 -165 -315 0
-40 -166 -313 0
-41 -167 -314 0
-42 -168 -315 0
-43 -169 -313 0
-44 -170 -314 0
-45 -171 -315 0
-46 -172 -313 0
-47 -173 -314 0
-48 -174 -315 0
-49 -175 -313 0
-50 -176 -314 0
-51 -177 -315 0
-52 -178 -313 0
-53 -179 -314 0
-54 -180 -315 0
-55 -181 -313 0
-56 -182 -314 0
-57 -183 -315 0
-58 -184 -313 0
-59 -185 -314 0
-60 -186 -315 0
-61 -187 -313 0
-62 -188 -314 0
-63 -189 -315 0
-64 -190 -313 0
-65 -191 -314 0
-66 -192 -315 0
-67 -193 -313 0
-68 -194 -314 0
-69 -195 -315 0
-70 -196 -313 0
-71 -197 -314 0
-72 -198 -315 0
-73 -199 -313 0
-74 -200 -314 0
-75 -201 -315 0
-76 -202 -313 0
-77 -203 -314 0
-78 -204 -315 0
-79 -205 -313 0
-80 -206 -314 0
-81 -207 -315 0
-82 -208 -313 0
-83 -209 -314 0
-84 -210 -315 0
-85 -211 -313 0
-86 -212 -314 0
-87 -213 -315 0
-88 -214 -313 0
-89 -215 -314 0
-90 -216 -315 0
-91 -217 -313 0
-92 -218 -314 0
-93 -219 -315 0
-94 -220 -313 0
-95 -221 -314 0
-96 -222 -315 0
-97 -223 -313 0
-98 -224 -314 0
-99 -225 -315 0
-100 -226 -313 0
-101 -227 -314 0
-102 -228 -315 0
-103 -229 -313 0
-104 -230 -314 0
-105 -231 -315 0
-106 -232 -313 0
-107 -233 -314 0
-108 -234 -315 0
-109 -235 -313 0
-110 -236 -314 0
-111 -237 -315 0
-112 -238 -313 0
-113 -239 -314 0
-114 -240 -315 0
-115 -241 -313 0
-116 -242 -314 0
-117 -243 -315 0
-118 -244 -313 0
-119 -245 -314 0
-120 -246 -315 0
-121 -247 -313 0
-122 -248 -314 0
-123 -249 -315 0
-124 -250 -313 0
-125 -251 -314 0
-126 -252 -315 0
-127 -253 -313 0
-128 -254 -314 0
-129 -255 -315 0
-130 -256 -313 0
-131 -257 -314 0
-132 -258 -315 0
-133 -259 -313 0
-134 -260 -314 0
-135 -261 -315 0
-136 -262 -313 0
-137 -263 -314 0
-138 -264 -315 0
-139 -265 -313 0
-140 -266 -314 0
-141 -267 -315 0
-142 -268 -313 0
-143 -269 -314 0
-144 -270 -315 0
-145 -271 -313 0
-146 -272 -314 0
-147 -273 -315 0
-148 -274 -313 0
-149 -275 -314 0
-150 -276 -315 0
-151 -277 -313 0
-152 -278 -314 0
-153 -279 -315 0
-154 -280 -313 0
-155 -281 -314 0
-156 -282 -315 0
-157 -283 -313 0
-158 -284 -314 0
-159 -285 -315 0
-160 -286 -313 0
-161 -287 -314 0
-162 -288 -315 0
-163 -289 -313 0
-164 -290 -314 0
-165 -291 -315 0
-166 -292 -313 0
-167 -293 -314 0
-168 -294 -315 0
-169 -295 -313 0
-170 -296 -314 0
-171 -297 -315 0
-172 -298 -313 0
-173 -299 -314 0
-174 -300 -315 0
-175 -301 -313 0
-176 -302 -314 0
-177 -303 -315 0
-178 -304 -313 0
-179 -305 -314 0
-180 -306 -315 0
-181 -307 -313 0
-182 -308 -314 0
-183 -309 -315 0
-184 -310 -313 0
-185 -311 -314 0
-186 -312 -315 0
-187 -313 0
-188 -314 0
-189 -315 0
-190 -313 -316 0
-191 -314 -317 0
-192 -315 -318 0
-193 -313 -319 0
-194 -314 -320 0
-195 -315 -321 0
-196 -313 -322 0
-197 -314 -323 0
-198 -315 -324 0
-199 -313 -325 0
-200 -314 -326 0
-201 -315 -327 0
-202 -313 -328 0
-203 -314 -329 0
-204 -315 -330 0
-205 -313 -331 0
-206 -314 -332 0
-207 -315 -333 0
-208 -313 -334 0
-209 -314 -335 0
-210 -315 -336 0
-211 -313 -337 0
-212 -314 -338 0
-213 -315 -339 0
-214 -313 -340 0
-215 -314 -341 0
-216 -315 -342 0
-217 -313 -343 0
-218 -314 -344 0
-219 -315 -345 0
-220 -313 -346 0
-221 -314 -347 0
-222 -315 -348 0
-223 -313 -349 0
-224 -314 -350 0
-225 -315 -351 0
-226 -313 -352 0
-227 -314 -353 0
-228 -315 -354 0
-229 -313 -355 0
-230 -314 -356 0
-231 -315 -357 0
-232 -313 -358 0
-233 -314 -359 0
-234 -315 -360 0
-235 -313 -361 0
-236 -314 -362 0
-237 -315 -363 0
-238 -313 -364 0
-239 -314 -365 0
-240 -315 -366 0
-241 -313 -367 0
-242 -314 -368 0
-243 -315 -369 0
-244 -313 -370 0
-245 -314 -371 0
-246 -315 -372 0
-247 -313 -373 0
-248 -314 -374 0
-249 -315 -375 0
-1 -133 -328 0
-2 -134 -329 0
-3 -135 -330 0
-4 -136 -328 0
-5 -137 -329 0
-6 -138 -330 0
-7 -139 -328 0
-8 -140 -329 0
-9 -141 -330 0
-10 -142 -328 0
-11 -143 -329 0
-12 -144 -330 0
-13 -145 -328 0
-14 -146 -329 0
-15 -147 -330 0
-16 -148 -328 0
-17 -149 -329 0
-18 -150 -330 0
-19 -151 -328 0
-20 -152 -329 0
-21 -153 -330 0
-22 -154 -328 0
-23 -155 -329 0
-24 -156 -330 0
-25 -157 -328 0
-26 -158 -329 0
-27 -159 -330 0
-28 -160 -328 0
-29 -161 -329 0
-30 -162 -330 0
-31 -163 -328 0
-32 -164 -329 0
-33 -165 -330 0
-34 -166 -328 0
-35 -167 -329 0
-36 -168 -330 0
-37 -169 -328 0
-38 -170 -329 0
-39 -171 -330 0
-40 -172 -328 0
-41 -173 -329 0
-42 -174 -330 0
-43 -175 -328 0
-44 -176 -329 0
-45 -177 -330 0
-46 -178 -328 0
-47 -179 -329 0
-48 -180 -330 0
-49 -181 -328 0
-50 -182 -329 0
-51 -183 -330 0
-52 -184 -328 0
-53 -185 -329 0
-54 -186 -330 0
-55 -187 -328 0
-56 -188 -329 0
-57 -189 -330 0
-58 -190 -328 0
-59 -191 -329 0
-60 -192 -330 0
-61 -193 -328 0
-62 -194 -329 0
-63 -195 -330 0
-64 -196 -328 0
-65 -197 -329 0
-66 -198 -330 0
-67 -199 -328 0
-68 -200 -329 0
-69 -201 -330 0
-70 -202 -328 0
-71 -203 -329 0
-72 -204 -330 0
-73 -205 -328 0
-74 -206 -329 0
-75 -207 -330 0
-76 -208 -328 0
-77 -209 -329 0
-78 -210 -330 0
-79 -211 -328 0
-80 -212 -329 0
-81 -213 -330 0
-82 -214 -328 0
-83 -215 -329 0
-84 -216 -330 0
-85 -217 -328 0
-86 -218 -329 0
-87 -219 -330 0
-88 -220 -328 0
-89 -221 -329 0
-90 -222 -330 0
-91 -223 -328 0
-92 -224 -329 0
-93 -225 -330 0
-94 -226 -328 0
-95 -227 -329 0
-96 -228 -330 0
-97 -229 -328 0
-98 -230 -329 0
-99 -231 -330 0
-100 -232 -328 0
-101 -233 -329 0
-102 -234 -330 0
-103 -235 -328 0
-104 -236 -329 0
-105 -237 -330 0
-106 -238 -328 0
-107 -239 -329 0
-108 -240 -330 0
-109 -241 -328 0
-110 -242 -329 0
-111 -243 -330 0
-112 -244 -328 0
-113 -245 -329 0
-114 -246 -330 0
-115 -247 -328 0
-116 -248 -329 0
-117 -249 -330 0
-118 -250 -328 0
-119 -251 -329 0
-120 -252 -330 0
-121 -253 -328 0
-122 -254 -329 0
-123 -255 -330 0
-124 -256 -328 0
-125 -257 -329 0
-126 -258 -330 0
-127 -259 -328 0
-128 -260 -329 0
-129 -261 -330 0
-130 -262 -328 0
-131 -263 -329 0
-132 -264 -330 0
-133 -265 -328 0
-134 -266 -329 0
-135 -267 -330 0
-136 -268 -328 0
-137 -269 -329 0
-138 -270 -330 0
-139 -271 -328 0
-140 -272 -329 0
-141 -273 -330 0
-142 -274 -328 0
-143 -275 -329 0
-144 -276 -330 0
-145 -277 -328 0
-146 -278 -329 0
-147 -279 -330 0
-148 -280 -328 0
-149 -281 -329 0
-150 -282 -330 0
-151 -283 -328 0
-152 -284 -329 0
-153 -285 -330 0
-154 -286 -328 0
-155 -287 -329 0
-156 -288 -330 0
-157 -289 -328 0
-158 -290 -329 0
-159 -291 -330 0
-160 -292 -328 0
-161 -293 -329 0
-162 -294 -330 0
-163 -295 -328 0
-164 -296 -329 0
-165 -297 -330 0
-166 -298 -328 0
-167 -299 -329 0
-168 -300 -330 0
-169 -301 -328 0
-170 -302 -329 0
-171 -303 -330 0
-172 -304 -328 0
-173 -305 -329 0
-174 -306 -330 0
-175 -307 -328 0
-176 -308 -329 0
-177 -309 -330 0
-178 -310 -328 0
-179 -311 -329 0
-180 -312 -330 0
-181 -313 -328 0
-182 -314 -329 0
-183 -315 -330 0
-184 -316 -328 0
-185 -317 -329 0
-186 -318 -330 0
-187 -319 -328 0
-188 -320 -329 0
-189 -321 -330 0
-190 -322 -328 0
-191 -323 -329 0
-192 -324 -330 0
-193 -325 -328 0
-194 -326 -329 0
-195 -327 -330 0
-196 -328 0
-197 -329 0
-198 -330 0
-199 -328 -331 0
-200 -329 -332 0
-201 -330 -333 0
-202 -328 -334 0
-203 -329 -335 0
-204 -330 -336 0
-205 -328 -337 0
-206 -329 -338 0
-207 -330 -339 0
-208 -328 -340 0
-209 -329 -341 0
-210 -330 -342 0
-211 -328 -343 0
-212 -329 -344 0
-213 -330 -345 0
-214 -328 -346 0
-215 -329 -347 0
-216 -330 -348 0
-217 -328 -349 0
-218 -329 -350 0
-219 -330 -351 0
-220 -328 -352 0
-221 -329 -353 0
-222 -330 -354 0
-223 -328 -355 0
-224 -329 -356 0
-225 -330 -357 0
-226 -328 -358 0
-227 -329 -359 0
-228 -330 -360 0
-229 -328 -361 0
-230 -329 -362 0
-231 -330 -363 0
-232 -328 -364 0
-233 -329 -365 0
-234 -330 -366 0
-235 -328 -367 0
-236 -329 -368 0
-237 -330 -369 0
-238 -328 -370 0
-239 -329 -371 0
-240 -330 -372 0
-241 -328 -373 0
-242 -329 -374 0
-243 -330 -375 0
-1 -139 -343 0
-2 -140 -344 0
-3 -141 -345 0
-4 -142 -343 0
-5 -143 -344 0
-6 -144 -345 0
-7 -145 -343 0
-8 -146 -344 0
-9 -147 -345 0
-10 -148 -343 0
-11 -149 -344 0
-12 -150 -345 0
-13 -151 -343 0
-14 -152 -344 0
-15 -153 -345 0
-16 -154 -343 0
-17 -155 -344 0
-18 -156 -345 0
-19 -157 -343 0
-20 -158 -344 0
-21 -159 -345 0
-22 -160 -343 0
-23 -161 -344 0
-24 -162 -345 0
-25 -163 -343 0
-26 -164 -344 0
-27 -165 -345 0
-28 -166 -343 0
-29 -167 -344 0
-30 -168 -345 0
-31 -169 -343 0
-32 -170 -344 0
-33 -171 -345 0
-34 -172 -343 0
-35 -173 -344 0
-36 -174 -345 0
-37 -175 -343 0
-38 -176 -344 0
-39 -177 -345 0
-40 -178 -343 0
-41 -179 -344 0
-42 -180 -345 0
-43 -181 -343 0
-44 -182 -344 0
-45 -183 -345 0
-46 -184 -343 0
-47 -185 -344 0
-48 -186 -345 0
-49 -187 -343 0
-50 -188 -344 0
-51 -189 -345 0
-52 -190 -343 0
-53 -191 -344 0
-54 -192 -345 0
-55 -193 -343 0
-56 -194 -344 0
-57 -195 -345 0
-58 -196 -343 0
-59 -197 -344 0
-60 -198 -345 0
-61 -199 -343 0
-62 -200 -344 0
-63 -201 -345 0
-64 -202 -343 0
-65 -203 -344 0
-66 -204 -345 0
-67 -205 -343 0
-68 -206 -344 0
-69 -207 -345 0
-70 -208 -343 0
-71 -209 -344 0
-72 -210 -345 0
-73 -211 -343 0
-74 -212 -344 0
-75 -213 -345 0
-76 -214 -343 0
-77 -215 -344 0
-78 -216 -345 0
-79 -217 -343 0
-80 -218 -344 0
-81 -219 -345 0
-82 -220 -343 0
-83 -221 -344 0
-84 -222 -345 0
-85 -223 -343 0
-86 -224 -344 0
-87 -225 -345 0
-88 -226 -343 0
-89 -227 -344 0
-90 -228 -345 0
-91 -229 -343 0
-92 -230 -344 0
-93 -231 -345 0
-94 -232 -343 0
-95 -233 -344 0
-96 -234 -345 0
-97 -235 -343 0
-98 -236 -344 0
-99 -237 -345 0
-100 -238 -343 0
-101 -239 -344 0
-102 -240 -345 0
-103 -241 -343 0
-104 -242 -344 0
-105 -243 -345 0
-106 -244 -343 0
-107 -245 -344 0
-108 -246 -345 0
-109 -247 -343 0
-110 -248 -344 0
-111 -249 -345 0
-112 -250 -343 0
-113 -251 -344 0
-114 -252 -345 0
-115 -253 -343 0
-116 -254 -344 0
-117 -255 -345 0
-118 -256 -343 0
-119 -257 -344 0
-120 -258 -345 0
-121 -259 -343 0
-122 -260 -344 0
-123 -261 -345 0
-124 -262 -343 0
-125 -263 -344 0
-126 -264 -345 0
-127 -265 -343 0
-128 -266 -344 0
-129 -267 -345 0
-130 -268 -343 0
-131 -269 -344 0
-132 -270 -345 0
-133 -271 -343 0
-134 -272 -344 0
-135 -273 -345 0
-136 -274 -343 0
-137 -275 -344 0
-138 -276 -345 0
-139 -277 -343 0
-140 -278 -344 0
-141 -279 -345 0
-142 -280 -343 0
-143 -281 -344 0
-144 -282 -345 0
-145 -283 -343 0
-146 -284 -344 0
-147 -285 -345 0
-148 -286 -343 0
-149 -287 -344 0
-150 -288 -345 0
-151 -289 -343 0
-152 -290 -344 0
-153 -291 -345 0
-154 -292 -343 0
-155 -293 -344 0
-156 -294 -345 0
-157 -295 -343 0
-158 -296 -344 0
-159 -297 -345 0
-160 -298 -343 0
-161 -299 -344 0
-162 -300 -345 0
-163 -301 -343 0
-164 -302 -344 0
-165 -303 -345 0
-166 -304 -343 0
-167 -305 -344 0
-168 -306 -345 0
-169 -307 -343 0
-170 -308 -344 0
-171 -309 -345 0
-172 -310 -343 0
-173 -311 -344 0
-174 -312 -345 0
-175 -313 -343 0
-176 -314 -344 0
-177 -315 -345 0
-178 -316 -343 0
-179 -317 -344 0
-180 -318 -345 0
-181 -319 -343 0
-182 -320 -344 0
-183 -321 -345 0
-184 -322 -343 0
-185 -323 -344 0
-186 -324 -345 0
-187 -325 -343 0
-188 -326 -344 0
-189 -327 -345 0
-190 -328 -343 0
-191 -329 -344 0
-192 -330 -345 0
-193 -331 -343 0
-194 -332 -344 0
-195 -333 -345 0
-196 -334 -343 0
-197 -335 -344 0
-198 -336 -345 0
-199 -337 -343 0
-200 -338 -344 0
-201 -339 -345 0
-202 -340 -343 0
-203 -341 -344 0
-204 -342 -345 0
-205 -343 0
-206 -344 0
-207 -345 0
-208 -343 -346 0
-209 -344 -347 0
-210 -345 -348 0
-211 -343 -349 0
-212 -344 -350 0
-213 -345 -351 0
-214 -343 -352 0
-215 -344 -353 0
-216 -345 -354 0
-217 -343 -355 0
-218 -344 -356 0
-219 -345 -357 0
-220 -343 -358 0
-221 -344 -359 0
-222 -345 -360 0
-223 -343 -361 0
-224 -344 -362 0
-225 -345 -363 0
-226 -343 -364 0
-227 -344 -365 0
-228 -345 -366 0
-229 -343 -367 0
-230 -344 -368 0
-231 -345 -369 0
-232 -343 -370 0
-233 -344 -371 0
-234 -345 -372 0
-235 -343 -373 0
-236 -344 -374 0
-237 -345 -375 0
-1 -145 -358 0
-2 -146 -359 0
-3 -147 -360 0
-4 -148 -358 0
-5 -149 -359 0
-6 -150 -360 0
-7 -151 -358 0
-8 -152 -359 0
-9 -153 -360 0
-10 -154 -358 0
-11 -155 -359 0
-12 -156 -360 0
-13 -157 -358 0
-14 -158 -359 0
-15 -159 -360 0
-16 -160 -358 0
-17 -161 -359 0
-18 -162 -360 0
-19 -163 -358 0
-20 -164 -359 0
-21 -165 -360 0
-22 -166 -358 0
-23 -167 -359 0
-24 -168 -360 0
-25 -169 -358 0
-26 -170 -359 0
-27 -171 -360 0
-28 -172 -358 0
-29 -173 -359 0
-30 -174 -360 0
-31 -175 -358 0
-32 -176 -359 0
-33 -177 -360 0
-34 -178 -358 0
-35 -179 -359 0
-36 -180 -360 0
-37 -181 -358 0
-38 -182 -359 0
-39 -183 -360 0
-40 -184 -358 0
-41 -185 -359 0
-42 -186 -360 0
-43 -187 -358 0
-44 -188 -359 0
-45 -189 -360 0
-46 -190 -358 0
-47 -191 -359 0
-48 -192 -360 0
-49 -193 -358 0
-50 -194 -359 0
-51 -195 -360 0
-52 -196 -358 0
-53 -197 -359 0
-54 -198 -360 0
-55 -199 -358 0
-56 -200 -359 0
-57 -201 -360 0
-58 -202 -358 0
-59 -203 -359 0
-60 -204 -360 0
-61 -205 -358 0
-62 -206 -359 0
-63 -207 -360 0
-64 -208 -358 0
-65 -209 -359 0
-66 -210 -360 0
-67 -211 -358 0
-68 -212 -359 0
-69 -213 -360 0
-70 -214 -358 0
-71 -215 -359 0
-72 -216 -360 0
-73 -217 -358 0
-74 -218 -359 0
-75 -219 -360 0
-76 -220 -358 0
-77 -221 -359 0
-78 -222 -360 0
-79 -223 -358 0
-80 -224 -359 0
-81 -225 -360 0
-82 -226 -358 0
-83 -227 -359 0
-84 -228 -360 0
-85 -229 -358 0
-86 -230 -359 0
-87 -231 -360 0
-88 -232 -358 0
-89 -233 -359 0
-90 -234 -360 0
-91 -235 -358 0
-92 -236 -359 0
-93 -237 -360 0
-94 -238 -358 0
-95 -239 -359 0
-96 -240 -360 0
-97 -241 -358 0
-98 -242 -359 0
-99 -243 -360 0
-100 -244 -358 0
-101 -245 -359 0
-102 -246 -360 0
-103 -247 -358 0
-104 -248 -359 0
-105 -249 -360 0
-106 -250 -358 0
-107 -251 -359 0
-108 -252 -360 0
-109 -253 -358 0
-110 -254 -359 0
-111 -255 -360 0
-112 -256 -358 0
-113 -257 -359 0
-114 -258 -360 0
-115 -259 -358 0
-116 -260 -359 0
-117 -261 -360 0
-118 -262 -358 0
-119 -263 -359 0
-120 -264 -360 0
-121 -265 -358 0
-122 -266 -359 0
-123 -267 -360 0
-124 -268 -358 0
-125 -269 -359 0
-126 -270 -360 0
-127 -271 -358 0
-128 -272 -359 0
-129 -273 -360 0
-130 -274 -358 0
-131 -275 -359 0
-132 -276 -360 0
-133 -277 -358 0
-134 -278 -359 0
-135 -279 -360 0
-136 -280 -358 0
-137 -281 -359 0
-138 -282 -360 0
-139 -283 -358 0
-140 -284 -359 0
-141 -285 -360 0
-142 -286 -358 0
-143 -287 -359 0
-144 -288 -360 0
-145 -289 -358 0
-146 -290 -359 0
-147 -291 -360 0
-148 -292 -358 0
-149 -293 -359 0
-150 -294 -360 0
-151 -295 -358 0
-152 -296 -359 0
-153 -297 -360 0
-154 -298 -358 0
-155 -299 -359 0
-156 -300 -360 0
-157 -301 -358 0
-158 -302 -359 0
-159 -303 -360 0
-160 -304 -358 0
-161 -305 -359 0
-162 -306 -360 0
-163 -307 -358 0
-164 -308 -359 0
-165 -309 -360 0
-166 -310 -358 0
-167 -311 -359 0
-168 -312 -360 0
-169 -313 -358 0
-170 -314 -359 0
-171 -315 -360 0
-172 -316 -358 0
-173 -317 -359 0
-174 -318 -360 0
-175 -319 -358 0
-176 -320 -359 0
-177 -321 -360 0
-178 -322 -358 0
-179 -323 -359 0
-180 -324 -360 0
-181 -325 -358 0
-182 -326 -359 0
-183 -327 -360 0
-184 -328 -358 0
-185 -329 -359 0
-186 -330 -360 0
-187 -331 -358 0
-188 -332 -359 0
-189 -333 -360 0
-190 -334 -358 0
-191 -335 -359 0
-192 -336 -360 0
-193 -337 -358 0
-194 -338 -359 0
-195 -339 -360 0
-196 -340 -358 0
-197 -341 -359 0
-198 -342 -360 0
-199 -343 -358 0
-200 -344 -359 0
-201 -345 -360 0
-202 -346 -358 0
-203 -347 -359 0
-204 -348 -360 0
-205 -349 -358 0
-206 -350 -359 0
-207 -351 -360 0
-208 -352 -358 0
-209 -353 -359 0
-210 -354 -360 0
-211 -355 -358 0
-212 -356 -359 0
-213 -357 -360 0
-214 -358 0
-215 -359 0
-216 -360 0
-217 -358 -361 0
-218 -359 -362 0
-219 -360 -363 0
-220 -358 -364 0
-221 -359 -365 0
-222 -360 -366 0
-223 -358 -367 0
-224 -359 -368 0
-225 -360 -369 0
-226 -358 -370 0
-227 -359 -371 0
-228 -360 -372 0
-229 -358 -373 0
-230 -359 -374 0
-231 -360 -375 0
-1 -151 -373 0
-2 -152 -374 0
-3 -153 -375 0
-4 -154 -373 0
-5 -155 -374 0
-6 -156 -375 0
-7 -157 -373 0
-8 -158 -374 0
-9 -159 -375 0
-10 -160 -373 0
-11 -161 -374 0
-12 -162 -375 0
-13 -163 -373 0
-14 -164 -374 0
-15 -165 -375 0
-16 -166 -373 0
-17 -167 -374 0
-18 -168 -375 0
-19 -169 -373 0
-20 -170 -374 0
-21 -171 -375 0
-22 -172 -373 0
-23 -173 -374 0
-24 -174 -375 0
-25 -175 -373 0
-26 -176 -374 0
-27 -177 -375 0
-28 -178 -373 0
-29 -179 -374 0
-30 -180 -375 0
-31 -181 -373 0
-32 -182 -374 0
-33 -183 -375 0
-34 -184 -373 0
-35 -185 -374 0
-36 -186 -375 0
-37 -187 -373 0
-38 -188 -374 0
-39 -189 -375 0
-40 -190 -373 0
-41 -191 -374 0
-42 -192 -375 0
-43 -193 -373 0
-44 -194 -374 0
-45 -195 -375 0
-46 -196 -373 0
-47 -197 -374 0
-48 -198 -375 0
-49 -199 -373 0
-50 -200 -374 0
-51 -201 -375 0
-52 -202 -373 0
-53 -203 -374 0
-54 -204 -375 0
-55 -205 -373 0
-56 -206 -374 0
-57 -207 -375 0
-58 -208 -373 0
-59 -209 -374 0
-60 -210 -375 0
-61 -211 -373 0
-62 -212 -374 0
-63 -213 -375 0
-64 -214 -373 0
-65 -215 -374 0
-66 -216 -375 0
-67 -217 -373 0
-68 -218 -374 0
-69 -219 -375 0
-70 -220 -373 0
-71 -221 -374 0
-72 -222 -375 0
-73 -223 -373 0
-74 -224 -374 0
-75 -225 -375 0
-76 -226 -373 0
-77 -227 -374 0
-78 -228 -375 0
-79 -229 -373 0
-80 -230 -374 0
-81 -231 -375 0
-82 -232 -373 0
-83 -233 -374 0
-84 -234 -375 0
-85 -235 -373 0
-86 -236 -374 0
-87 -237 -375 0
-88 -238 -373 0
-89 -239 -374 0
-90 -240 -375 0
-91 -241 -373 0
-92 -242 -374 0
-93 -243 -375 0
-94 -244 -373 0
-95 -245 -374 0
-96 -246 -375 0
-97 -247 -373 0
-98 -248 -374 0
-99 -249 -375 0
-100 -250 -373 0
-101 -251 -374 0
-102 -252 -375 0
-103 -253 -373 0
-104 -254 -374 0
-105 -255 -375 0
-106 -256 -373 0
-107 -257 -374 0
-108 -258 -375 0
-109 -259 -373 0
-110 -260 -374 0
-111 -261 -375 0
-112 -262 -373 0
-113 -263 -374 0
-114 -264 -375 0
-115 -265 -373 0
-116 -266 -374 0
-117 -267 -375 0
-118 -268 -373 0
-119 -269 -374 0
-120 -270 -375 0
-121 -271 -373 0
-122 -272 -374 0
-123 -273 -375 0
-124 -274 -373 0
-125 -275 -374 0
-126 -276 -375 0
-127 -277 -373 0
-128 -278 -374 0
-129 -279 -375 0
-130 -280 -373 0
-131 -281 -374 0
-132 -282 -375 0
-133 -283 -373 0
-134 -284 -374 0
-135 -285 -375 0
-136 -286 -373 0
-137 -287 -374 0
-138 -288 -375 0
-139 -289 -373 0
-140 -290 -374 0
-141 -291 -375 0
-142 -292 -373 0
-143 -293 -374 0
-144 -294 -375 0
-145 -295 -373 0
-146 -296 -374 0
-147 -297 -375 0
-148 -298 -373 0
-149 -299 -374 0
-150 -300 -375 0
-151 -301 -373 0
-152 -302 -374 0
-153 -303 -375 0
-154 -304 -373 0
-155 -305 -374 0
-156 -306 -375 0
-157 -307 -373 0
-158 -308 -374 0
-159 -309 -375 0
-160 -310 -373 0
-161 -311 -374 0
-162 -312 -375 0
-163 -313 -373 0
-164 -314 -374 0
-165 -315 -375 0
-166 -316 -373 0
-167 -317 -374 0
-168 -318 -375 0
-169 -319 -373 0
-170 -320 -374 0
-171 -321 -375 0
-172 -322 -373 0
-173 -323 -374 0
-174 -324 -375 0
-175 -325 -373 0
-176 -326 -374 0
-177 -327 -375 0
-178 -328 -373 0
-179 -329 -374 0
-180 -330 -375 0
-181 -331 -373 0
-182 -332 -374 0
-183 -333 -375 0
-184 -334 -373 0
-185 -335 -374 0
-186 -336 -375 0
-187 -337 -373 0
-188 -338 -374 0
-189 -339 -375 0
-190 -340 -373 0
-191 -341 -374 0
-192 -342 -375 0
-193 -343 -373 0
-194 -344 -374 0
-195 -345 -375 0
-196 -346 -373 0
-197 -347 -374 0
-198 -348 -375 0
-199 -349 -373 0
-200 -350 -374 0
-201 -351 -375 0
-202 -352 -373 0
-203 -353 -374 0
-204 -354 -375 0
-205 -355 -373 0
-206 -356 -374 0
-207 -357 -375 0
-208 -358 -373 0
-209 -359 -374 0
-210 -360 -375 0
-211 -361 -373 0
-212 -362 -374 0
-213 -363 -375 0
-214 -364 -373 0
-215 -365 -374 0
-216 -366 -375 0
-217 -367 -373 0
-218 -368 -374 0
-219 -369 -375 0
-220 -370 -373 0
-221 -371 -374 0
-222 -372 -375 0
-223 -373 0
-224 -374 0
-225 -375 0
-1 -2 0
-1 -3 0
-2 -3 0
-4 -5 0
-4 -6 0
-5 -6 0
-7 -8 0
-7 -9 0
-8 -9 0
-10 -11 0
-10 -12 0
-11 -12 0
-13 -14 0
-13 -15 0
-14 -15 0
-16 -17 0
-16 -18 0
-17 -18 0
-19 -20 0
-19 -21 0
-20 -21 0
-22 -23 0
-22 -24 0
-23 -24 0
-25 -26 0
-25 -27 0
-26 -27 0
-28 -29 0
-28 -30 0
-29 -30 0
-31 -32 0
-31 -33 0
-32 -33 0
-34 -35 0
-34 -36 0
-35 -36 0
-37 -38 0
-37 -39 0
-38 -39 0
-40 -41 0
-40 -42 0
-41 -42 0
-43 -44 0
-43 -45 0
-44 -45 0
-46 -47 0
-46 -48 0
-47 -48 0
-49 -50 0
-49 -51 0
-50 -51 0
-52 -53 0
-52 -54 0
-53 -54 0
-55 -56 0
-55 -57 0
-56 -57 0
-58 -59 0
-58 -60 0
-59 -60 0
-61 -62 0
-61 -63 0
-62 -63 0
-64 -65 0
-64 -66 0
-65 -66 0
-67 -68 0
-67 -69 0
-68 -69 0
-70 -71 0
-70 -72 0
-71 -72 0
-73 -74 0
-73 -75 0
-74 -75 0
-76 -77 0
-76 -78 0
-77 -78 0
-79 -80 0
-79 -81 0
-80 -81 0
-82 -83 0
-82 -84 0
-83 -84 0
-85 -86 0
-85 -87 0
-86 -87 0
-88 -89 0
-88 -90 0
-89 -90 0
-91 -92 0
-91 -93 0
-92 -93 0
-94 -95 0
-94 -96 0
-95 -96 0
-97 -98 0
-97 -99 0
-98 -99 0
-100 -101 0
-100 -102 0
-101 -102 0
-103 -104 0
-103 -105 0
-104 -105 0
-106 -107 0
-106 -108 0
-107 -108 0
-109 -110 0
-109 -111 0
-110 -111 0
-112 -113 0
-112 -114 0
-113 -114 0
-115 -116 0
-115 -117 0
-116 -117 0
-118 -119 0
-118 -120 0
-119 -120 0
-121 -122 0
-121 -123 0
-122 -123 0
-124 -125 0
-124 -126 0
-125 -126 0
-127 -128 0
-127 -129 0
-128 -129 0
-130 -131 0
-130 -132 0
-131 -132 0
-133 -134 0
-133 -135 0
-134 -135 0
-136 -137 0
-136 -138 0
-137 -138 0
-139 -140 0
-139 -141 0
-140 -141 0
-142 -143 0
-142 -144 0
-143 -144 0
-145 -146 0
-145 -147 0
-146 -147 0
-148 -149 0
-148 -150 0
-149 -150 0
-151 -152 0
-151 -153 0
-152 -153 0
-154 -155 0
-154 -156 0
-155 -156 0
-157 -158 0
-157 -159 0
-158 -159 0
-160 -161 0
-160 -162 0
-161 -162 0
-163 -164 0
-163 -165 0
-164 -165 0
-166 -167 0
-166 -168 0
-167 -168 0
-169 -170 0
-169 -171 0
-170 -171 0
-172 -173 0
-172 -174 0
-173 -174 0
-175 -176 0
-175 -177 0
-176 -177 0
-178 -179 0
-178 -180 0
-179 -180 0
-181 -182 0
-181 -183 0
-182 -183 0
-184 -185 0
-184 -186 0
-185 -186 0
-187 -188 0
-187 -189 0
-188 -189 0
-190 -191 0
-190 -192 0
-191 -192 0
-193 -194 0
-193 -195 0
-194 -195 0
-196 -197 0
-196 -198 0
-197 -198 0
-199 -200 0
-199 -201 0
-200 -201 0
-202 -203 0
-202 -204 0
-203 -204 0
-205 -206 0
-205 -207 0
-206 -207 0
-208 -209 0
-208 -210 0
-209 -210 0
-211 -212 0
-211 -213 0
-212 -213 0
-214 -215 0
-214 -216 0
-215 -216 0
-217 -218 0
-217 -219 0
-218 -219 0
-220 -221 0
-220 -222 0
-221 -222 0
-223 -224 0
-223 -225 0
-224 -225 0
-226 -227 0
-226 -228 0
-227 -228 0
-229 -230 0
-229 -231 0
-230 -231 0
-232 -233 0
-232 -234 0
-233 -234 0
-235 -236 0
-235 -237 0
-236 -237 0
-238 -239 0
-238 -240 0
-239 -240 0
-241 -242 0
-241 -243 0
-242 -243 0
-244 -245 0
-244 -246 0
-245 -246 0
-247 -248 0
-247 -249 0
-248 -249 0
-250 -251 0
-250 -252 0
-251 -252 0
-253 -254 0
-253 -255 0
-254 -255 0
-256 -257 0
-256 -258 0
-257 -258 0
-259 -260 0
-259 -261 0
-260 -261 0
-262 -263 0
-262 -264 0
-263 -264 0
-265 -266 0
-265 -267 0
-266 -267 0
-268 -269 0
-268 -270 0
-269 -270 0
-271 -272 0
-271 -273 0
-272 -273 0
-274 -275 0
-274 -276 0
-275 -276 0
-277 -278 0
-277 -279 0
-278 -279 0
-280 -281 0
-280 -282 0
-281 -282 0
-283 -284 0
-283 -285 0
-284 -285 0
-286 -287 0
-286 -288 0
-287 -288 0
-289 -290 0
-289 -291 0
-290 -291 0
-292 -293 0
-292 -294 0
-293 -294 0
-295 -296 0
-295 -297 0
-296 -297 0
-298 -299 0
-298 -300 0
-299 -300 0
-301 -302 0
-301 -303 0
-302 -303 0
-304 -305 0
-304 -306 0
-305 -306 0
-307 -308 0
-307 -309 0
-308 -309 0
-310 -311 0
-310 -312 0
-311 -312 0
-313 -314 0
-313 -315 0
-314 -315 0
-316 -317 0
-316 -318 0
-317 -318 0
-319 -320 0
-319 -321 0
-320 -321 0
-322 -323 0
-322 -324 0
-323 -324 0
-325 -326 0
-325 -327 0
-326 -327 0
-328 -329 0
-328 -330 0
-329 -330 0
-331 -332 0
-331 -333 0
-332 -333 0
-334 -335 0
-334 -336 0
-335 -336 0
-337 -338 0
-337 -339 0
-338 -339 0
-340 -341 0
-340 -342 0
-341 -342 0
-343 -344 0
-343 -345 0
-344 -345 0
-346 -347 0
-346 -348 0
-347 -348 0
-349 -350 0
-349 -351 0
-350 -351 0
-352 -353 0
-352 -354 0
-353 -354 0
-355 -356 0
-355 -357 0
-356 -357 0
-358 -359 0
-358 -360 0
-359 -360 0
-361 -362 0
-361 -363 0
-362 -363 0
-364 -365 0
-364 -366 0
-365 -366 0
-367 -368 0
-367 -369 0
-368 -369 0
-370 -371 0
-370 -372 0
-371 -372 0
-373 -374 0
-373 -375 0
-374 -375 0
1 0
-5 1 0
-6 0
-8 1 4 0
-9 2 5 0
-11 1 4 7 0
-12 2 5 8 0
-14 1 4 7 10 0
-15 2 5 8 11 0
-17 1 4 7 10 13 0
-18 2 5 8 11 14 0
-20 1 4 7 10 13 16 0
-21 2 5 8 11 14 17 0
-23 1 4 7 10 13 16 19 0
-24 2 5 8 11 14 17 20 0
-26 1 4 7 10 13 16 19 22 0
-27 2 5 8 11 14 17 20 23 0
-29 1 4 7 10 13 16 19 22 25 0
-30 2 5 8 11 14 17 20 23 26 0
-32 1 4 7 10 13 16 19 22 25 28 0
-33 2 5 8 11 14 17 20 23 26 29 0
-35 1 4 7 10 13 16 19 22 25 28 31 0
-36 2 5 8 11 14 17 20 23 26 29 32 0
-38 1 4 7 10 13 16 19 22 25 28 31 34 0
-39 2 5 8 11 14 17 20 23 26 29 32 35 0
-41 1 4 7 10 13 16 19 22 25 28 31 34 37 0
-42 2 5 8 11 14 17 20 23 26 29 32 35 38 0
-44 1 4 7 10 13 16 19 22 25 28 31 34 37 40 0
-45 2 5 8 11 14 17 20 23 26 29 32 35 38 41 0
-47 1 4 7 10 13 16 19 22 25 28 31 34 37 40 43 0
-48 2 5 8 11 14 17 20 23 26 29 32 35 38 41 44 0
-50 1 4 7 10 13 16 19 22 25 28 31 34 37 40 43 46 0
-51 2 5 8 11 14 17 20 23 26 29 32 35 38 41 44 47 0
-53 1 4 7 10 13 16 19 22 25 28 31 34 37 40 43 46 49 0
-54 2 5 8 11 14 17 20 23 26 29 32 35 38 41 44 47 50 0
-56 1 4 7 10 13 16 19 22 25 28 31 34 37 40 43 46 49 52 0
-57 2 5 8 11 14 17 20 23 26 29 32 35 38 41 44 47 50 53 0
-59 1 4 7 10 13 16 19 22 25 28 31 34 37 40 43 46 49 52 55 0
-60 2 5 8 11 14 17 20 23 26 29 32 35 38 41 44 47 50 53 56 0
-62 1 4 7 10 13 16 19 22 25 28 31 34 37 40 43 46 49 52 55 58 0
-63 2 5 8 11 14 17 20 23 26 29 32 35 38 41 44 47 50 53 56 59 0
-65 1 4 7 10 13 16 19 22 25 28 31 34 37 40 43 46 49 52 55 58 61 0
-66 2 5 8 11 14 17 20 23 26 29 32 35 38 41 44 47 50 53 56 59 62 0
-68 1 4 7 10 13 16 19 22 25 28 31 34 37 40 43 46 49 52 55 58 61 64 0
-69 2 5 8 11 14 17 20 23 26 29 32 35 38 41 44 47 50 53 56 59 62 65 0
-71 1 4 7 10 13 16 19 22 25 28 31 34 37 40 43 46 49 52 55 58 61 64 67 0
-72 2 5 8 11 14 17 20 23 26 29 32 35 38 41 44 47 50 53 56 59 62 65 68 0
-74 1 4 7 10 13 16 19 22 25 28 31 34 37 40 43 46 49 52 55 58 61 64 67 70 0
-75 2 5 8 11 14 17 20 23 26 29 32 35 38 41 44 47 50 53 56 59 62 65 68 71 0
-77 1 4 7 10 13 16 19 22 25 28 31 34 37 40 43 46 49 52 55 58 61 64 67 70 73 0
-78 2 5 8 11 14 17 20 23 26 29 32 35 38 41 44 47 50 53 56 59 62 65 68 71 74 0
-80 1 4 7 10 13 16 19 22 25 28 31 34 37 40 43 46 49 52 55 58 61 64 67 70 73 76 0
-81 2 5 8 11 14 17 20 23 26 29 32 35 38 41 44 47 50 53 56 59 62 65 68 71 74 77 0
-83 1 4 7 10 13 16 19 22 25 28 31 34 37 40 43 46 49 52 55 58 61 64 67 70 73 76 79 0
-84 2 5 8 11 14 17 20 23 26 29 32 35 38 41 44 47 50 53 56 59 62 65 68 71 74 77 80 0
-86 1 4 7 10 13 16 19 22 25 28 31 34 37 40 43 46 49 52 55 58 61 64 67 70 73 76 79 82 0
-87 2 5 8 11 14 17 20 23 26 29 32 35 38 41 44 47 50 53 56 59 62 65 68 71 74 77 80 83 0
-89 1 4 7 10 13 16 19 22 25 28 31 34 37 40 43 46 49 52 55 58 61 64 67 70 73 76 79 82 85 0
-90 2 5 8 11 14 17 20 23 26 29 32 35 38 41 44 47 50 53 56 59 62 65 68 71 74 77 80 83 86 0
-92 1 4 7 10 13 16 19 22 25 28 31 34 37 40 43 46 49 52 55 58 61 64 67 70 73 76 79 82 85 88 0
-93 2 5 8 11 14 17 20 23 26 29 32 35 38 41 44 47 50 53 56 59 62 65 68 71 74 77 80 83 86 89 0
-95 1 4 7 10 13 16 19 22 25 28 31 34 37 40 43 46 49 52 55 58 61 64 67 70 73 76 79 82 85 88 91 0
-96 2 5 8 11 14 17 20 23 26 29 32 35 38 41 44 47 50 53 56 59 62 65 68 71 74 77 80 83 86 89 92 0
-98 1 4 7 10 13 16 19 22 25 28 31 34 37 40 43 46 49 52 55 58 61 64 67 70 73 76 79 82 85 88 91 94 0
-99 2 5 8 11 14 17 20 23 26 29 32 35 38 41 44 47 50 53 56 59 62 65 68 71 74 77 80 83 86 89 92 95 0
-101 1 4 7 10 13 16 19 22 25 28 31 34 37 40 43 46 49 52 55 58 61 64 67 70 73 76 79 82 85 88 91 94 97 0
-102 2 5 8 11 14 17 20 23 26 29 32 35 38 41 44 47 50 53 56 59 62 65 68 71 74 77 80 83 86 89 92 95 98 0
-104 1 4 7 10 13 16 19 22 25 28 31 34 37 40 43 46 49 52 55 58 61 64 67 70 73 76 79 82 85 88 91 94 97 100 0
-105 2 5 8 11 14 17 20 23 26 29 32 35 38 41 44 47 50 53 56 59 62 65 68 71 74 77 80 83 86 89 92 95 98 101 0
-107 1 4 7 10 13 16 19 22 25 28 31 34 37 40 43 46 49 52 55 58 61 64 67 70 73 76 79 82 85 88 91 94 97 100 103 0
-108 2 5 8 11 14 17 20 23 26 29 32 35 38 41 44 47 50 53 56 59 62 65 68 71 74 77 80 83 86 89 92 95 98 101 104 0
-110 1 4 7 10 13 16 19 22 25 28 31 34 37 40 43 46 49 52 55 58 61 64 67 70 73 76 79 82 85 88 91 94 97 100 103 106 0
-111 2 5 8 11 14 17 20 23 26 29 32 35 38 41 44 47 50 53 56 59 62 65 68 71 74 77 80 83 86 89 92 95 98 101 104 107 0
-113 1 4 7 10 13 16 19 22 25 28 31 34 37 40 43 46 49 52 55 58 61 64 67 70 73 76 79 82 85 88 91 94 97 100 103 106 109 0
-114 2 5 8 11 14 17 20 23 26 29 32 35 38 41 44 47 50 53 56 59 62 65 68 71 74 77 80 83 86 89 92 95 98 101 104 107 110 0
-116 1 4 7 10 13 16 19 22 25 28 31 34 37 40 43 46 49 52 55 58 61 64 67 70 73 76 79 82 85 88 91 94 97 100 103 106 109 112 0
-117 2 5 8 11 14 17 20 23 26 29 32 35 38 41 44 47 50 53 56 59 62 65 68 71 74 77 80 83 86 89 92 95 98 101 104 107 110 113 0
-119 1 4 7 10 13 16 19 22 25 28 31 34 37 40 43 46 49 52 55 58 61 64 67 70 73 76 79 82 85 88 91 94 97 100 103 106 109 112 115 0
-120 2 5 8 11 14 17 20 23 26 29 32 35 38 41 44 47 50 53 56 59 62 65 68 71 74 77 80 83 86 89 92 95 98 101 104 107 110 113 116 0
-122 1 4 7 10 13 16 19 22 25 28 31 34 37 40 43 46 49 52 55 58 61 64 67 70 73 76 79 82 85 88 91 94 97 100 103 106 109 112 115 118 0
-123 2 5 8 11 14 17 20 23 26 29 32 35 38 41 44 47 50 53 56 59 62 65 68 71 74 77 80 83 86 89 92 95 98 101 104 107 110 113 116 119 0
-125 1 4 7 10 13 16 19 22 25 28 31 34 37 40 43 46 49 52 55 58 61 64 67 70 73 76 79 82 85 88 91 94 97 100 103 106 109 112 115 118 121 0
-126 2 5 8 11 14 17 20 23 26 29 32 35 38 41 44 47 50 53 56 59 62 65 68 71 74 77 80 83 86 89 92 95 98 101 104 107 110 113 116 119 122 0
-128 1 4 7 10 13 16 19 22 25 28 31 34 37 40 43 46 49 52 55 58 61 64 67 70 73 76 79 82 85 88 91 94 97 100 103 106 109 112 115 118 121 124 0
-129 2 5 8 11 14 17 20 23 26 29 32 35 38 41 44 47 50 53 56 59 62 65 68 71 74 77 80 83 86 89 92 95 98 101 104 107 110 113 116 119 122 125 0
-131 1 4 7 10 13 16 19 22 25 28 31 34 37 40 43 46 49 52 55 58 61 64 67 70 73 76 79 82 85 88 91 94 97 100 103 106 109 112 115 118 121 124 127 0
-132 2 5 8 11 14 17 20 23 26 29 32 35 38 41 44 47 50 53 56 59 62 65 68 71 74 77 80 83 86 89 92 95 98 101 104 107 110 113 116 119 122 125 128 0
-134 1 4 7 10 13 16 19 22 25 28 31 34 37 40 43 46 49 52 55 58 61 64 67 70 73 76 79 82 85 88 91 94 97 100 103 106 109 112 115 118 121 124 127 130 0
-135 2 5 8 11 14 17 20 23 26 29 32 35 38 41 44 47 50 53 56 59 62 65 68 71 74 77 80 83 86 89 92 95 98 101 104 107 110 113 116 119 122 125 128 131 0
-137 1 4 7 10 13 16 19 22 25 28 31 34 37 40 43 46 49 52 55 58 61 64 67 70 73 76 79 82 85 88 91 94 97 100 103 106 109 112 115 118 121 124 127 130 133 0
-138 2 5 8 11 14 17 20 23 26 29 32 35 38 41 44 47 50 53 56 59 62 65 68 71 74 77 80 83 86 89 92 95 98 101 104 107 110 113 116 119 122 125 128 131 134 0
-140 1 4 7 10 13 16 19 22 25 28 31 34 37 40 43 46 49 52 55 58 61 64 67 70 73 76 79 82 85 88 91 94 97 100 103 106 109 112 115 118 121 124 127 130 133 136 0
-141 2 5 8 11 14 17 20 23 26 29 32 35 38 41 44 47 50 53 56 59 62 65 68 71 74 77 80 83 86 89 92 95 98 101 104 107 110 113 116 119 122 125 128 131 134 137 0
-143 1 4 7 10 13 16 19 22 25 28 31 34 37 40 43 46 49 52 55 58 61 64 67 70 73 76 79 82 85 88 91 94 97 100 103 106 109 112 115 118 121 124 127 130 133 136 139 0
-144 2 5 8 11 14 17 20 23 26 29 32 35 38 41 44 47 50 53 56 59 62 65 68 71 74 77 80 83 86 89 92 95 98 101 104 107 110 113 116 119 122 125 128 131 134 137 140 0
-146 1 4 7 10 13 16 19 22 25 28 31 34 37 40 43 46 49 52 55 58 61 64 67 70 73 76 79 82 85 88 91 94 97 100 103 106 109 112 115 118 121 124 127 130 133 136 139 142 0
-147 2 5 8 11 14 17 20 23 26 29 32 35 38 41 44 47 50 53 56 59 62 65 68 71 74 77 80 83 86 89 92 95 98 101 104 107 110 113 116 119 122 125 128 131 134 137 140 143 0
-149 1 4 7 10 13 16 19 22 25 28 31 34 37 40 43 46 49 52 55 58 61 64 67 70 73 76 79 82 85 88 91 94 97 100 103 106 109 112 115 118 121 124 127 130 133 136 139 142 145 0
-150 2 5 8 11 14 17 20 23 26 29 32 35 38 41 44 47 50 53 56 59 62 65 68 71 74 77 80 83 86 89 92 95 98 101 104 107 110 113 116 119 122 125 128 131 134 137 140 143 146 0
-152 1 4 7 10 13 16 19 22 25 28 31 34 37 40 43 46 49 52 55 58 61 64 67 70 73 76 79 82 85 88 91 94 97 100 103 106 109 112 115 118 121 124 127 130 133 136 139 142 145 148 0
-153 2 5 8 11 14 17 20 23 26 29 32 35 38 41 44 47 50 53 56 59 62 65 68 71 74 77 80 83 86 89 92 95 98 101 104 107 110 113 116 119 122 125 128 131 134 137 140 143 146 149 0
-155 1 4 7 10 13 16 19 22 25 28 31 34 37 40 43 46 49 52 55 58 61 64 67 70 73 76 79 82 85 88 91 94 97 100 103 106 109 112 115 118 121 124 127 130 133 136 139 142 145 148 151 0
-156 2 5 8 11 14 17 20 23 26 29 32 35 38 41 44 47 50 53 56 59 62 65 68 71 74 77 80 83 86 89 92 95 98 101 104 107 110 113 116 119 122 125 128 131 134 137 140 143 146 149 152 0
-158 1 4 7 10 13 16 19 22 25 28 31 34 37 40 43 46 49 52 55 58 61 64 67 70 73 76 79 82 85 88 91 94 97 100 103 106 109 112 115 118 121 124 127 130 133 136 139 142 145 148 151 154 0
-159 2 5 8 11 14 17 20 23 26 29 32 35 38 41 44 47 50 53 56 59 62 65 68 71 74 77 80 83 86 89 92 95 98 101 104 107 110 113 116 119 122 125 128 131 134 137 140 143 146 149 152 155 0
-161 1 4 7 10 13 16 19 22 25 28 31 34 37 40 43 46 49 52 55 58 61 64 67 70 73 76 79 82 85 88 91 94 97 100 103 106 109 112 115 118 121 124 127 130 133 136 139 142 145 148 151 154 157 0
-162 2 5 8 11 14 17 20 23 26 29 32 35 38 41 44 47 50 53 56 59 62 65 68 71 74 77 80 83 86 89 92 95 98 101 104 107 110 113 116 119 122 125 128 131 134 137 140 143 146 149 152 155 158 0
-164 1 4 7 10 13 16 19 22 25 28 31 34 37 40 43 46 49 52 55 58 61 64 67 70 73 76 79 82 85 88 91 94 97 100 103 106 109 112 115 118 121 124 127 130 133 136 139 142 145 148 151 154 157 160 0
-165 2 5 8 11 14 17 20 23 26 29 32 35 38 41 44 47 50 53 56 59 62 65 68 71 74 77 80 83 86 89 92 95 98 101 104 107 110 113 116 119 122 125 128 131 134 137 140 143 146 149 152 155 158 161 0
-167 1 4 7 10 13 16 19 22 25 28 31 34 37 40 43 46 49 52 55 58 61 64 67 70 73 76 79 82 85 88 91 94 97 100 103 106 109 112 115 118 121 124 127 130 133 136 139 142 145 148 151 154 157 160 163 0
-168 2 5 8 11 14 17 20 23 26 29 32 35 38 41 44 47 50 53 56 59 62 65 68 71 74 77 80 83 86 89 92 95 98 101 104 107 110 113 116 119 122 125 128 131 134 137 140 143 146 149 152 155 158 161 164 0
-170 1 4 7 10 13 16 19 22 25 28 31 34 37 40 43 46 49 52 55 58 61 64 67 70 73 76 79 82 85 88 91 94 97 100 103 106 109 112 115 118 121 124 127 130 133 136 139 142 145 148 151 154 157 160 163 166 0
-171 2 5 8 11 14 17 20 23 26 29 32 35 38 41 44 47 50 53 56 59 62 65 68 71 74 77 80 83 86 89 92 95 98 101 104 107 110 113 116 119 122 125 128 131 134 137 140 143 146 149 152 155 158 161 164 167 0
-173 1 4 7 10 13 16 19 22 25 28 31 34 37 40 43 46 49 52 55 58 61 64 67 70 73 76 79 82 85 88 91 94 97 100 103 106 109 112 115 118 121 124 127 130 133 136 139 142 145 148 151 154 157 160 163 166 169 0
-174 2 5 8 11 14 17 20 23 26 29 32 35 38 41 44 47 50 53 56 59 62 65 68 71 74 77 80 83 86 89 92 95 98 101 104 107 110 113 116 119 122 125 128 131 134 137 140 143 146 149 152 155 158 161 164 167 170 0
-176 1 4 7 10 13 16 19 22 25 28 31 34 37 40 43 46 49 52 55 58 61 64 67 70 73 76 79 82 85 88 91 94 97 100 103 106 109 112 115 118 121 124 127 130 133 136 139 142 145 148 151 154 157 160 163 166 169 172 0
-177 2 5 8 11 14 17 20 23 26 29 32 35 38 41 44 47 50 53 56 59 62 65 68 71 74 77 80 83 86 89 92 95 98 101 104 107 110 113 116 119 122 125 128 131 134 137 140 143 146 149 152 155 158 161 164 167 170 173 0
-179 1 4 7 10 13 16 19 22 25 28 31 34 37 40 43 46 49 52 55 58 61 64 67 70 73 76 79 82 85 88 91 94 97 100 103 106 109 112 115 118 121 124 127 130 133 136 139 142 145 148 151 154 157 160 163 166 169 172 175 0
-180 2 5 8 11 14 17 20 23 26 29 32 35 38 41 44 47 50 53 56 59 62 65 68 71 74 77 80 83 86 89 92 95 98 101 104 107 110 113 116 119 122 125 128 131 134 137 140 143 146 149 152 155 158 161 164 167 170 173 176 0
-182 1 4 7 10 13 16 19 22 25 28 31 34 37 40 43 46 49 52 55 58 61 64 67 70 73 76 79 82 85 88 91 94 97 100 103 106 109 112 115 118 121 124 127 130 133 136 139 142 145 148 151 154 157 160 163 166 169 172 175 178 0
-183 2 5 8 11 14 17 20 23 26 29 32 35 38 41 44 47 50 53 56 59 62 65 68 71 74 77 80 83 86 89 92 95 98 101 104 107 110 113 116 119 122 125 128 131 134 137 140 143 146 149 152 155 158 161 164 167 170 173 176 179 0
-185 1 4 7 10 13 16 19 22 25 28 31 34 37 40 43 46 49 52 55 58 61 64 67 70 73 76 79 82 85 88 91 94 97 100 103 106 109 112 115 118 121 124 127 130 133 136 139 142 145 148 151 154 157 160 163 166 169 172 175 178 181 0
-186 2 5 8 11 14 17 20 23 26 29 32 35 38 41 44 47 50 53 56 59 62 65 68 71 74 77 80 83 86 89 92 95 98 101 104 107 110 113 116 119 122 125 128 131 134 137 140 143 146 149 152 155 158 161 164 167 170 173 176 179 182 0
-188 1 4 7 10 13 16 19 22 25 28 31 34 37 40 43 46 49 52 55 58 61 64 67 70 73 76 79 82 85 88 91 94 97 100 103 106 109 112 115 118 121 124 127 130 133 136 139 142 145 148 151 154 157 160 163 166 169 172 175 178 181 184 0
-189 2 5 8 11 14 17 20 23 26 29 32 35 38 41 44 47 50 53 56 59 62 65 68 71 74 77 80 83 86 89 92 95 98 101 104 107 110 113 116 119 122 125 128 131 134 137 140 143 146 149 152 155 158 161 164 167 170 173 176 179 182 185 0
-191 1 4 7 10 13 16 19 22 25 28 31 34 37 40 43 46 49 52 55 58 61 64 67 70 73 76 79 82 85 88 91 94 97 100 103 106 109 112 115 118 121 124 127 130 133 136 139 142 145 148 151 154 157 160 163 166 169 172 175 178 181 184 187 0
-192 2 5 8 11 14 17 20 23 26 29 32 35 38 41 44 47 50 53 56 59 62 65 68 71 74 77 80 83 86 89 92 95 98 101 104 107 110 113 116 119 122 125 128 131 134 137 140 143 146 149 152 155 158 161 164 167 170 173 176 179 182 185 188 0
-194 1 4 7 10 13 16 19 22 25 28 31 34 37 40 43 46 49 52 55 58 61 64 67 70 73 76 79 82 85 88 91 94 97 100 103 106 109 112 115 118 121 124 127 130 133 136 139 142 145 148 151 154 157 160 163 166 169 172 175 178 181 184 187 190 0
-195 2 5 8 11 14 17 20 23 26 29 32 35 38 41 44 47 50 53 56 59 62 65 68 71 74 77 80 83 86 89 92 95 98 101 104 107 110 113 116 119 122 125 128 131 134 137 140 143 146 149 152 155 158 161 164 167 170 173 176 179 182 185 188 191 0
-197 1 4 7 10 13 16 19 22 25 28 31 34 37 40 43 46 49 52 55 58 61 64 67 70 73 76 79 82 85 88 91 94 97 100 103 106 109 112 115 118 121 124 127 130 133 136 139 142 145 148 151 154 157 160 163 166 169 172 175 178 181 184 187 190 193 0
-198 2 5 8 11 14 17 20 23 26 29 32 35 38 41 44 47 50 53 56 59 62 65 68 71 74 77 80 83 86 89 92 95 98 101 104 107 110 113 116 119 122 125 128 131 134 137 140 143 146 149 152 155 158 161 164 167 170 173 176 179 182 185 188 191 194 0
-200 1 4 7 10 13 16 19 22 25 28 31 34 37 40 43 46 49 52 55 58 61 64 67 70 73 76 79 82 85 88 91 94 97 100 103 106 109 112 115 118 121 124 127 130 133 136 139 142 145 148 151 154 157 160 163 166 169 172 175 178 181 184 187 190 193 196 0
-201 2 5 8 11 14 17 20 23 26 29 32 35 38 41 44 47 50 53 56 59 62 65 68 71 74 77 80 83 86 89 92 95 98 101 104 107 110 113 116 119 122 125 128 131 134 137 140 143 146 149 152 155 158 161 164 167 170 173 176 179 182 185 188 191 194 197 0
-203 1 4 7 10 13 16 19 22 25 28 31 34 37 40 43 46 49 52 55 58 61 64 67 70 73 76 79 82 85 88 91 94 97 100 103 106 109 112 115 118 121 124 127 130 133 136 139 142 145 148 151 154 157 160 163 166 169 172 175 178 181 184 187 190 193 196 199 0
-204 2 5 8 11 14 17 20 23 26 29 32 35 38 41 44 47 50 53 56 59 62 65 68 71 74 77 80 83 86 89 92 95 98 101 104 107 110 113 116 119 122 125 128 131 134 137 140 143 146 149 152 155 158 161 164 167 170 173 176 179 182 185 188 191 194 197 200 0
-206 1 4 7 10 13 16 19 22 25 28 31 34 37 40 43 46 49 52 55 58 61 64 67 70 73 76 79 82 85 88 91 94 97 100 103 106 109 112 115 118 121 124 127 130 133 136 139 142 145 148 151 154 157 160 163 166 169 172 175 178 181 184 187 190 193 196 199 202 0
-207 2 5 8 11 14 17 20 23 26 29 32 35 38 41 44 47 50 53 56 59 62 65 68 71 74 77 80 83 86 89 92 95 98 101 104 107 110 113 116 119 122 125 128 131 134 137 140 143 146 149 152 155 158 161 164 167 170 173 176 179 182 185 188 191 194 197 200 203 0
-209 1 4 7 10 13 16 19 22 25 28 31 34 37 40 43 46 49 52 55 58 61 64 67 70 73 76 79 82 85 88 91 94 97 100 103 106 109 112 115 118 121 124 127 130 133 136 139 142 145 148 151 154 157 160 163 166 169 172 175 178 181 184 187 190 193 196 199 202 205 0
-210 2 5 8 11 14 17 20 23 26 29 32 35 38 41 44 47 50 53 56 59 62 65 68 71 74 77 80 83 86 89 92 95 98 101 104 107 110 113 116 119 122 125 128 131 134 137 140 143 146 149 152 155 158 161 164 167 170 173 176 179 182 185 188 191 194 197 200 203 206 0
-212 1 4 7 10 13 16 19 22 25 28 31 34 37 40 43 46 49 52 55 58 61 64 67 70 73 76 79 82 85 88 91 94 97 100 103 106 109 112 115 118 121 124 127 130 133 136 139 142 145 148 151 154 157 160 163 166 169 172 175 178 181 184 187 190 193 196 199 202 205 208 0
-213 2 5 8 11 14 17 20 23 26 29 32 35 38 41 44 47 50 53 56 59 62 65 68 71 74 77 80 83 86 89 92 95 98 101 104 107 110 113 116 119 122 125 128 131 134 137 140 143 146 149 152 155 158 161 164 167 170 173 176 179 182 185 188 191 194 197 200 203 206 209 0
-215 1 4 7 10 13 16 19 22 25 28 31 34 37 40 43 46 49 52 55 58 61 64 67 70 73 76 79 82 85 88 91 94 97 100 103 106 109 112 115 118 121 124 127 130 133 136 139 142 145 148 151 154 157 160 163 166 169 172 175 178 181 184 187 190 193 196 199 202 205 208 211 0
-216 2 5 8 11 14 17 20 23 26 29 32 35 38 41 44 47 50 53 56 59 62 65 68 71 74 77 80 83 86 89 92 95 98 101 104 107 110 113 116 119 122 125 128 131 134 137 140 143 146 149 152 155 158 161 164 167 170 173 176 179 182 185 188 191 194 197 200 203 206 209 212 0
-218 1 4 7 10 13 16 19 22 25 28 31 34 37 40 43 46 49 52 55 58 61 64 67 70 73 76 79 82 85 88 91 94 97 100 103 106 109 112 115 118 121 124 127 130 133 136 139 142 145 148 151 154 157 160 163 166 169 172 175 178 181 184 187 190 193 196 199 202 205 208 211 214 0
-219 2 5 8 11 14 17 20 23 26 29 32 35 38 41 44 47 50 53 56 59 62 65 68 71 74 77 80 83 86 89 92 95 98 101 104 107 110 113 116 119 122 125 128 131 134 137 140 143 146 149 152 155 158 161 164 167 170 173 176 179 182 185 188 191 194 197 200 203 206 209 212 215 0
-221 1 4 7 10 13 16 19 22 25 28 31 34 37 40 43 46 49 52 55 58 61 64 67 70 73 76 79 82 85 88 91 94 97 100 103 106 109 112 115 118 121 124 127 130 133 136 139 142 145 148 151 154 157 160 163 166 169 172 175 178 181 184 187 190 193 196 199 202 205 208 211 214 217 0
-222 2 5 8 11 14 17 20 23 26 29 32 35 38 41 44 47 50 53 56 59 62 65 68 71 74 77 80 83 86 89 92 95 98 101 104 107 110 113 116 119 122 125 128 131 134 137 140 143 146 149 152 155 158 161 164 167 170 173 176 179 182 185 188 191 194 197 200 203 206 209 212 215 218 0
-224 1 4 7 10 13 16 19 22 25 28 31 34 37 40 43 46 49 52 55 58 61 64 67 70 73 76 79 82 85 88 91 94 97 100 103 106 109 112 115 118 121 124 127 130 133 136 139 142 145 148 151 154 157 160 163 166 169 172 175 178 181 184 187 190 193 196 199 202 205 208 211 214 217 220 0
-225 2 5 8 11 14 17 20 23 26 29 32 35 38 41 44 47 50 53 56 59 62 65 68 71 74 77 80 83 86 89 92 95 98 101 104 107 110 113 116 119 122 125 128 131 134 137 140 143 146 149 152 155 158 161 164 167 170 173 176 179 182 185 188 191 194 197 200 203 206 209 212 215 218 221 0
-227 1 4 7 10 13 16 19 22 25 28 31 34 37 40 43 46 49 52 55 58 61 64 67 70 73 76 79 82 85 88 91 94 97 100 103 106 109 112 115 118 121 124 127 130 133 136 139 142 145 148 151 154 157 160 163 166 169 172 175 178 181 184 187 190 193 196 199 202 205 208 211 214 217 220 223 0
-228 2 5 8 11 14 17 20 23 26 29 32 35 38 41 44 47 50 53 56 59 62 65 68 71 74 77 80 83 86 89 92 95 98 101 104 107 110 113 116 119 122 125 128 131 134 137 140 143 146 149 152 155 158 161 164 167 170 173 176 179 182 185 188 191 194 197 200 203 206 209 212 215 218 221 224 0
-230 1 4 7 10 13 16 19 22 25 28 31 34 37 40 43 46 49 52 55 58 61 64 67 70 73 76 79 82 85 88 91 94 97 100 103 106 109 112 115 118 121 124 127 130 133 136 139 142 145 148 151 154 157 160 163 166 169 172 175 178 181 184 187 190 193 196 199 202 205 208 211 214 217 220 223 226 0
-231 2 5 8 11 14 17 20 23 26 29 32 35 38 41 44 47 50 53 56 59 62 65 68 71 74 77 80 83 86 89 92 95 98 101 104 107 110 113 116 119 122 125 128 131 134 137 140 143 146 149 152 155 158 161 164 167 170 173 176 179 182 185 188 191 194 197 200 203 206 209 212 215 218 221 224 227 0
-233 1 4 7 10 13 16 19 22 25 28 31 34 37 40 43 46 49 52 55 58 61 64 67 70 73 76 79 82 85 88 91 94 97 100 103 106 109 112 115 118 121 124 127 130 133 136 139 142 145 148 151 154 157 160 163 166 169 172 175 178 181 184 187 190 193 196 199 202 205 208 211 214 217 220 223 226 229 0
-234 2 5 8 11 14 17 20 23 26 29 32 35 38 41 44 47 50 53 56 59 62 65 68 71 74 77 80 83 86 89 92 95 98 101 104 107 110 113 116 119 122 125 128 131 134 137 140 143 146 149 152 155 158 161 164 167 170 173 176 179 182 185 188 191 194 197 200 203 206 209 212 215 218 221 224 227 230 0
-236 1 4 7 10 13 16 19 22 25 28 31 34 37 40 43 46 49 52 55 58 61 64 67 70 73 76 79 82 85 88 91 94 97 100 103 106 109 112 115 118 121 124 127 130 133 136 139 142 145 148 151 154 157 160 163 166 169 172 175 178 181 184 187 190 193 196 199 202 205 208 211 214 217 220 223 226 229 232 0
-237 2 5 8 11 14 17 20 23 26 29 32 35 38 41 44 47 50 53 56 59 62 65 68 71 74 77 80 83 86 89 92 95 98 101 104 107 110 113 116 119 122 125 128 131 134 137 140 143 146 149 152 155 158 161 164 167 170 173 176 179 182 185 188 191 194 197 200 203 206 209 212 215 218 221 224 227 230 233 0
-239 1 4 7 10 13 16 19 22 25 28 31 34 37 40 43 46 49 52 55 58 61 64 67 70 73 76 79 82 85 88 91 94 97 100 103 106 109 112 115 118 121 124 127 130 133 136 139 142 145 148 151 154 157 160 163 166 169 172 175 178 181 184 187 190 193 196 199 202 205 208 211 214 217 220 223 226 229 232 235 0
-240 2 5 8 11 14 17 20 23 26 29 32 35 38 41 44 47 50 53 56 59 62 65 68 71 74 77 80 83 86 89 92 95 98 101 104 107 110 113 116 119 122 125 128 131 134 137 140 143 146 149 152 155 158 161 164 167 170 173 176 179 182 185 188 191 194 197 200 203 206 209 212 215 218 221 224 227 230 233 236 0
-242 1 4 7 10 13 16 19 22 25 28 31 34 37 40 43 46 49 52 55 58 61 64 67 70 73 76 79 82 85 88 91 94 97 100 103 106 109 112 115 118 121 124 127 130 133 136 139 142 145 148 151 154 157 160 163 166 169 172 175 178 181 184 187 190 193 196 199 202 205 208 211 214 217 220 223 226 229 232 235 238 0
-243 2 5 8 11 14 17 20 23 26 29 32 35 38 41 44 47 50 53 56 59 62 65 68 71 74 77 80 83 86 89 92 95 98 101 104 107 110 113 116 119 122 125 128 131 134 137 140 143 146 149 152 155 158 161 164 167 170 173 176 179 182 185 188 191 194 197 200 203 206 209 212 215 218 221 224 227 230 233 236 239 0
-245 1 4 7 10 13 16 19 22 25 28 31 34 37 40 43 46 49 52 55 58 61 64 67 70 73 76 79 82 85 88 91 94 97 100 103 106 109 112 115 118 121 124 127 130 133 136 139 142 145 148 151 154 157 160 163 166 169 172 175 178 181 184 187 190 193 196 199 202 205 208 211 214 217 220 223 226 229 232 235 238 241 0
-246 2 5 8 11 14 17 20 23 26 29 32 35 38 41 44 47 50 53 56 59 62 65 68 71 74 77 80 83 86 89 92 95 98 101 104 107 110 113 116 119 122 125 128 131 134 137 140 143 146 149 152 155 158 161 164 167 170 173 176 179 182 185 188 191 194 197 200 203 206 209 212 215 218 221 224 227 230 233 236 239 242 0
-248 1 4 7 10 13 16 19 22 25 28 31 34 37 40 43 46 49 52 55 58 61 64 67 70 73 76 79 82 85 88 91 94 97 100 103 106 109 112 115 118 121 124 127 130 133 136 139 142 145 148 151 154 157 160 163 166 169 172 175 178 181 184 187 190 193 196 199 202 205 208 211 214 217 220 223 226 229 232 235 238 241 244 0
-249 2 5 8 11 14 17 20 23 26 29 32 35 38 41 44 47 50 53 56 59 62 65 68 71 74 77 80 83 86 89 92 95 98 101 104 107 110 113 116 119 122 125 128 131 134 137 140 143 146 149 152 155 158 161 164 167 170 173 176 179 182 185 188 191 194 197 200 203 206 209 212 215 218 221 224 227 230 233 236 239 242 245 0
-251 1 4 7 10 13 16 19 22 25 28 31 34 37 40 43 46 49 52 55 58 61 64 67 70 73 76 79 82 85 88 91 94 97 100 103 106 109 112 115 118 121 124 127 130 133 136 139 142 145 148 151 154 157 160 163 166 169 172 175 178 181 184 187 190 193 196 199 202 205 208 211 214 217 220 223 226 229 232 235 238 241 244 247 0
-252 2 5 8 11 14 17 20 23 26 29 32 35 38 41 44 47 50 53 56 59 62 65 68 71 74 77 80 83 86 89 92 95 98 101 104 107 110 113 116 119 122 125 128 131 134 137 140 143 146 149 152 155 158 161 164 167 170 173 176 179 182 185 188 191 194 197 200 203 206 209 212 215 218 221 224 227 230 233 236 239 242 245 248 0
-254 1 4 7 10 13 16 19 22 25 28 31 34 37 40 43 46 49 52 55 58 61 64 67 70 73 76 79 82 85 88 91 94 97 100 103 106 109 112 115 118 121 124 127 130 133 136 139 142 145 148 151 154 157 160 163 166 169 172 175 178 181 184 187 190 193 196 199 202 205 208 211 214 217 220 223 226 229 232 235 238 241 244 247 250 0
-255 2 5 8 11 14 17 20 23 26 29 32 35 38 41 44 47 50 53 56 59 62 65 68 71 74 77 80 83 86 89 92 95 98 101 104 107 110 113 116 119 122 125 128 131 134 137 140 143 146 149 152 155 158 161 164 167 170 173 176 179 182 185 188 191 194 197 200 203 206 209 212 215 218 221 224 227 230 233 236 239 242 245 248 251 0
-257 1 4 7 10 13 16 19 22 25 28 31 34 37 40 43 46 49 52 55 58 61 64 67 70 73 76 79 82 85 88 91 94 97 100 103 106 109 112 115 118 121 124 127 130 133 136 139 142 145 148 151 154 157 160 163 166 169 172 175 178 181 184 187 190 193 196 199 202 205 208 211 214 217 220 223 226 229 232 235 238 241 244 247 250 253 0
-258 2 5 8 11 14 17 20 23 26 29 32 35 38 41 44 47 50 53 56 59 62 65 68 71 74 77 80 83 86 89 92 95 98 101 104 107 110 113 116 119 122 125 128 131 134 137 140 143 146 149 152 155 158 161 164 167 170 173 176 179 182 185 188 191 194 197 200 203 206 209 212 215 218 221 224 227 230 233 236 239 242 245 248 251 254 0
-260 1 4 7 10 13 16 19 22 25 28 31 34 37 40 43 46 49 52 55 58 61 64 67 70 73 76 79 82 85 88 91 94 97 100 103 106 109 112 115 118 121 124 127 130 133 136 139 142 145 148 151 154 157 160 163 166 169 172 175 178 181 184 187 190 193 196 199 202 205 208 211 214 217 220 223 226 229 232 235 238 241 244 247 250 253 256 0
-261 2 5 8 11 14 17 20 23 26 29 32 35 38 41 44 47 50 53 56 59 62 65 68 71 74 77 80 83 86 89 92 95 98 101 104 107 110 113 116 119 122 125 128 131 134 137 140 143 146 149 152 155 158 161 164 167 170 173 176 179 182 185 188 191 194 197 200 203 206 209 212 215 218 221 224 227 230 233 236 239 242 245 248 251 254 257 0
-263 1 4 7 10 13 16 19 22 25 28 31 34 37 40 43 46 49 52 55 58 61 64 67 70 73 76 79 82 85 88 91 94 97 100 103 106 109 112 115 118 121 124 127 130 133 136 139 142 145 148 151 154 157 160 163 166 169 172 175 178 181 184 187 190 193 196 199 202 205 208 211 214 217 220 223 226 229 232 235 238 241 244 247 250 253 256 259 0
-264 2 5 8 11 14 17 20 23 26 29 32 35 38 41 44 47 50 53 56 59 62 65 68 71 74 77 80 83 86 89 92 95 98 101 104 107 110 113 116 119 122 125 128 131 134 137 140 143 146 149 152 155 158 161 164 167 170 173 176 179 182 185 188 191 194 197 200 203 206 209 212 215 218 221 224 227 230 233 236 239 242 245 248 251 254 257 260 0
-266 1 4 7 10 13 16 19 22 25 28 31 34 37 40 43 46 49 52 55 58 61 64 67 70 73 76 79 82 85 88 91 94 97 100 103 106 109 112 115 118 121 124 127 130 133 136 139 142 145 148 151 154 157 160 163 166 169 172 175 178 181 184 187 190 193 196 199 202 205 208 211 214 217 220 223 226 229 232 235 238 241 244 247 250 253 256 259 262 0
-267 2 5 8 11 14 17 20 23 26 29 32 35 38 41 44 47 50 53 56 59 62 65 68 71 74 77 80 83 86 89 92 95 98 101 104 107 110 113 116 119 122 125 128 131 134 137 140 143 146 149 152 155 158 161 164 167 170 173 176 179 182 185 188 191 194 197 200 203 206 209 212 215 218 221 224 227 230 233 236 239 242 245 248 251 254 257 260 263 0
-269 1 4 7 10 13 16 19 22 25 28 31 34 37 40 43 46 49 52 55 58 61 64 67 70 73 76 79 82 85 88 91 94 97 100 103 106 109 112 115 118 121 124 127 130 133 136 139 142 145 148 151 154 157 160 163 166 169 172 175 178 181 184 187 190 193 196 199 202 205 208 211 214 217 220 223 226 229 232 235 238 241 244 247 250 253 256 259 262 265 0
-270 2 5 8 11 14 17 20 23 26 29 32 35 38 41 44 47 50 53 56 59 62 65 68 71 74 77 80 83 86 89 92 95 98 101 104 107 110 113 116 119 122 125 128 131 134 137 140 143 146 149 152 155 158 161 164 167 170 173 176 179 182 185 188 191 194 197 200 203 206 209 212 215 218 221 224 227 230 233 236 239 242 245 248 251 254 257 260 263 266 0
-272 1 4 7 10 13 16 19 22 25 28 31 34 37 40 43 46 49 52 55 58 61 64 67 70 73 76 79 82 85 88 91 94 97 100 103 106 109 112 115 118 121 124 127 130 133 136 139 142 145 148 151 154 157 160 163 166 169 172 175 178 181 184 187 190 193 196 199 202 205 208 211 214 217 220 223 226 229 232 235 238 241 244 247 250 253 256 259 262 265 268 0
-273 2 5 8 11 14 17 20 23 26 29 32 35 38 41 44 47 50 53 56 59 62 65 68 71 74 77 80 83 86 89 92 95 98 101 104 107 110 113 116 119 122 125 128 131 134 137 140 143 146 149 152 155 158 161 164 167 170 173 176 179 182 185 188 191 194 197 200 203 206 209 212 215 218 221 224 227 230 233 236 239 242 245 248 251 254 257 260 263 266 269 0
-275 1 4 7 10 13 16 19 22 25 28 31 34 37 40 43 46 49 52 55 58 61 64 67 70 73 76 79 82 85 88 91 94 97 100 103 106 109 112 115 118 121 124 127 130 133 136 139 142 145 148 151 154 157 160 163 166 169 172 175 178 181 184 187 190 193 196 199 202 205 208 211 214 217 220 223 226 229 232 235 238 241 244 247 250 253 256 259 262 265 268 271 0
-276 2 5 8 11 14 17 20 23 26 29 32 35 38 41 44 47 50 53 56 59 62 65 68 71 74 77 80 83 86 89 92 95 98 101 104 107 110 113 116 119 122 125 128 131 134 137 140 143 146 149 152 155 158 161 164 167 170 173 176 179 182 185 188 191 194 197 200 203 206 209 212 215 218 221 224 227 230 233 236 239 242 245 248 251 254 257 260 263 266 269 272 0
-278 1 4 7 10 13 16 19 22 25 28 31 34 37 40 43 46 49 52 55 58 61 64 67 70 73 76 79 82 85 88 91 94 97 100 103 106 109 112 115 118 121 124 127 130 133 136 139 142 145 148 151 154 157 160 163 166 169 172 175 178 181 184 187 190 193 196 199 202 205 208 211 214 217 220 223 226 229 232 235 238 241 244 247 250 253 256 259 262 265 268 271 274 0
-279 2 5 8 11 14 17 20 23 26 29 32 35 38 41 44 47 50 53 56 59 62 65 68 71 74 77 80 83 86 89 92 95 98 101 104 107 110 113 116 119 122 125 128 131 134 137 140 143 146 149 152 155 158 161 164 167 170 173 176 179 182 185 188 191 194 197 200 203 206 209 212 215 218 221 224 227 230 233 236 239 242 245 248 251 254 257 260 263 266 269 272 275 0
-281 1 4 7 10 13 16 19 22 25 28 31 34 37 40 43 46 49 52 55 58 61 64 67 70 73 76 79 82 85 88 91 94 97 100 103 106 109 112 115 118 121 124 127 130 133 136 139 142 145 148 151 154 157 160 163 166 169 172 175 178 181 184 187 190 193 196 199 202 205 208 211 214 217 220 223 226 229 232 235 238 241 244 247 250 253 256 259 262 265 268 271 274 277 0
-282 2 5 8 11 14 17 20 23 26 29 32 35 38 41 44 47 50 53 56 59 62 65 68 71 74 77 80 83 86 89 92 95 98 101 104 107 110 113 116 119 122 125 128 131 134 137 140 143 146 149 152 155 158 161 164 167 170 173 176 179 182 185 188 191 194 197 200 203 206 209 212 215 218 221 224 227 230 233 236 239 242 245 248 251 254 257 260 263 266 269 272 275 278 0
-284 1 4 7 10 13 16 19 22 25 28 31 34 37 40 43 46 49 52 55 58 61 64 67 70 73 76 79 82 85 88 91 94 97 100 103 106 109 112 115 118 121 124 127 130 133 136 139 142 145 148 151 154 157 160 163 166 169 172 175 178 181 184 187 190 193 196 199 202 205 208 211 214 217 220 223 226 229 232 235 238 241 244 247 250 253 256 259 262 265 268 271 274 277 280 0
-285 2 5 8 11 14 17 20 23 26 29 32 35 38 41 44 47 50 53 56 59 62 65 68 71 74 77 80 83 86 89 92 95 98 101 104 107 110 113 116 119 122 125 128 131 134 137 140 143 146 149 152 155 158 161 164 167 170 173 176 179 182 185 188 191 194 197 200 203 206 209 212 215 218 221 224 227 230 233 236 239 242 245 248 251 254 257 260 263 266 269 272 275 278 281 0
-287 1 4 7 10 13 16 19 22 25 28 31 34 37 40 43 46 49 52 55 58 61 64 67 70 73 76 79 82 85 88 91 94 97 100 103 106 109 112 115 118 121 124 127 130 133 136 139 142 145 148 151 154 157 160 163 166 169 172 175 178 181 184 187 190 193 196 199 202 205 208 211 214 217 220 223 226 229 232 235 238 241 244 247 250 253 256 259 262 265 268 271 274 277 280 283 0
-288 2 5 8 11 14 17 20 23 26 29 32 35 38 41 44 47 50 53 56 59 62 65 68 71 74 77 80 83 86 89 92 95 98 101 104 107 110 113 116 119 122 125 128 131 134 137 140 143 146 149 152 155 158 161 164 167 170 173 176 179 182 185 188 191 194 197 200 203 206 209 212 215 218 221 224 227 230 233 236 239 242 245 248 251 254 257 260 263 266 269 272 275 278 281 284 0
-290 1 4 7 10 13 16 19 22 25 28 31 34 37 40 43 46 49 52 55 58 61 64 67 70 73 76 79 82 85 88 91 94 97 100 103 106 109 112 115 118 121 124 127 130 133 136 139 142 145 148 151 154 157 160 163 166 169 172 175 178 181 184 187 190 193 196 199 202 205 208 211 214 217 220 223 226 229 232 235 238 241 244 247 250 253 256 259 262 265 268 271 274 277 280 283 286 0
-291 2 5 8 11 14 17 20 23 26 29 32 35 38 41 44 47 50 53 56 59 62 65 68 71 74 77 80 83 86 89 92 95 98 101 104 107 110 113 116 119 122 125 128 131 134 137 140 143 146 149 152 155 158 161 164 167 170 173 176 179 182 185 188 191 194 197 200 203 206 209 212 215 218 221 224 227 230 233 236 239 242 245 248 251 254 257 260 263 266 269 272 275 278 281 284 287 0
-293 1 4 7 10 13 16 19 22 25 28 31 34 37 40 43 46 49 52 55 58 61 64 67 70 73 76 79 82 85 88 91 94 97 100 103 106 109 112 115 118 121 124 127 130 133 136 139 142 145 148 151 154 157 160 163 166 169 172 175 178 181 184 187 190 193 196 199 202 205 208 211 214 217 220 223 226 229 232 235 238 241 244 247 250 253 256 259 262 265 268 271 274 277 280 283 286 289 0
-294 2 5 8 11 14 17 20 23 26 29 32 35 38 41 44 47 50 53 56 59 62 65 68 71 74 77 80 83 86 89 92 95 98 101 104 107 110 113 116 119 122 125 128 131 134 137 140 143 146 149 152 155 158 161 164 167 170 173 176 179 182 185 188 191 194 197 200 203 206 209 212 215 218 221 224 227 230 233 236 239 242 245 248 251 254 257 260 263 266 269 272 275 278 281 284 287 290 0
-296 1 4 7 10 13 16 19 22 25 28 31 34 37 40 43 46 49 52 55 58 61 64 67 70 73 76 79 82 85 88 91 94 97 100 103 106 109 112 115 118 121 124 127 130 133 136 139 142 145 148 151 154 157 160 163 166 169 172 175 178 181 184 187 190 193 196 199 202 205 208 211 214 217 220 223 226 229 232 235 238 241 244 247 250 253 256 259 262 265 268 271 274 277 280 283 286 289 292 0
-297 2 5 8 11 14 17 20 23 26 29 32 35 38 41 44 47 50 53 56 59 62 65 68 71 74 77 80 83 86 89 92 95 98 101 104 107 110 113 116 119 122 125 128 131 134 137 140 143 146 149 152 155 158 161 164 167 170 173 176 179 182 185 188 191 194 197 200 203 206 209 212 215 218 221 224 227 230 233 236 239 242 245 248 251 254 257 260 263 266 269 272 275 278 281 284 287 290 293 0
-299 1 4 7 10 13 16 19 22 25 28 31 34 37 40 43 46 49 52 55 58 61 64 67 70 73 76 79 82 85 88 91 94 97 100 103 106 109 112 115 118 121 124 127 130 133 136 139 142 145 148 151 154 157 160 163 166 169 172 175 178 181 184 187 190 193 196 199 202 205 208 211 214 217 220 223 226 229 232 235 238 241 244 247 250 253 256 259 262 265 268 271 274 277 280 283 286 289 292 295 0
-300 2 5 8 11 14 17 20 23 26 29 32 35 38 41 44 47 50 53 56 59 62 65 68 71 74 77 80 83 86 89 92 95 98 101 104 107 110 113 116 119 122 125 128 131 134 137 140 143 146 149 152 155 158 161 164 167 170 173 176 179 182 185 188 191 194 197 200 203 206 209 212 215 218 221 224 227 230 233 236 239 242 245 248 251 254 257 260 263 266 269 272 275 278 281 284 287 290 293 296 0
-302 1 4 7 10 13 16 19 22 25 28 31 34 37 40 43 46 49 52 55 58 61 64 67 70 73 76 79 82 85 88 91 94 97 100 103 106 109 112 115 118 121 124 127 130 133 136 139 142 145 148 151 154 157 160 163 166 169 172 175 178 181 184 187 190 193 196 199 202 205 208 211 214 217 220 223 226 229 232 235 238 241 244 247 250 253 256 259 262 265 268 271 274 277 280 283 286 289 292 295 298 0
-303 2 5 8 11 14 17 20 23 26 29 32 35 38 41 44 47 50 53 56 59 62 65 68 71 74 77 80 83 86 89 92 95 98 101 104 107 110 113 116 119 122 125 128 131 134 137 140 143 146 149 152 155 158 161 164 167 170 173 176 179 182 185 188 191 194 197 200 203 206 209 212 215 218 221 224 227 230 233 236 239 242 245 248 251 254 257 260 263 266 269 272 275 278 281 284 287 290 293 296 299 0
-305 1 4 7 10 13 16 19 22 25 28 31 34 37 40 43 46 49 52 55 58 61 64 67 70 73 76 79 82 85 88 91 94 97 100 103 106 109 112 115 118 121 124 127 130 133 136 139 142 145 148 151 154 157 160 163 166 169 172 175 178 181 184 187 190 193 196 199 202 205 208 211 214 217 220 223 226 229 232 235 238 241 244 247 250 253 256 259 262 265 268 271 274 277 280 283 286 289 292 295 298 301 0
-306 2 5 8 11 14 17 20 23 26 29 32 35 38 41 44 47 50 53 56 59 62 65 68 71 74 77 80 83 86 89 92 95 98 101 104 107 110 113 116 119 122 125 128 131 134 137 140 143 146 149 152 155 158 161 164 167 170 173 176 179 182 185 188 191 194 197 200 203 206 209 212 215 218 221 224 227 230 233 236 239 242 245 248 251 254 257 260 263 266 269 272 275 278 281 284 287 290 293 296 299 302 0
-308 1 4 7 10 13 16 19 22 25 28 31 34 37 40 43 46 49 52 55 58 61 64 67 70 73 76 79 82 85 88 91 94 97 100 103 106 109 112 115 118 121 124 127 130 133 136 139 142 145 148 151 154 157 160 163 166 169 172 175 178 181 184 187 190 193 196 199 202 205 208 211 214 217 220 223 226 229 232 235 238 241 244 247 250 253 256 259 262 265 268 271 274 277 280 283 286 289 292 295 298 301 304 0
-309 2 5 8 11 14 17 20 23 26 29 32 35 38 41 44 47 50 53 56 59 62 65 68 71 74 77 80 83 86 89 92 95 98 101 104 107 110 113 116 119 122 125 128 131 134 137 140 143 146 149 152 155 158 161 164 167 170 173 176 179 182 185 188 191 194 197 200 203 206 209 212 215 218 221 224 227 230 233 236 239 242 245 248 251 254 257 260 263 266 269 272 275 278 281 284 287 290 293 296 299 302 305 0
-311 1 4 7 10 13 16 19 22 25 28 31 34 37 40 43 46 49 52 55 58 61 64 67 70 73 76 79 82 85 88 91 94 97 100 103 106 109 112 115 118 121 124 127 130 133 136 139 142 145 148 151 154 157 160 163 166 169 172 175 178 181 184 187 190 193 196 199 202 205 208 211 214 217 220 223 226 229 232 235 238 241 244 247 250 253 256 259 262 265 268 271 274 277 280 283 286 289 292 295 298 301 304 307 0
-312 2 5 8 11 14 17 20 23 26 29 32 35 38 41 44 47 50 53 56 59 62 65 68 71 74 77 80 83 86 89 92 95 98 101 104 107 110 113 116 119 122 125 128 131 134 137 140 143 146 149 152 155 158 161 164 167 170 173 176 179 182 185 188 191 194 197 200 203 206 209 212 215 218 221 224 227 230 233 236 239 242 245 248 251 254 257 260 263 266 269 272 275 278 281 284 287 290 293 296 299 302 305 308 0
-314 1 4 7 10 13 16 19 22 25 28 31 34 37 40 43 46 49 52 55 58 61 64 67 70 73 76 79 82 85 88 91 94 97 100 103 106 109 112 115 118 121 124 127 130 133 136 139 142 145 148 151 154 157 160 163 166 169 172 175 178 181 184 187 190 193 196 199 202 205 208 211 214 217 220 223 226 229 232 235 238 241 244 247 250 253 256 259 262 265 268 271 274 277 280 283 286 289 292 295 298 301 304 307 310 0
-315 2 5 8 11 14 17 20 23 26 29 32 35 38 41 44 47 50 53 56 59 62 65 68 71 74 77 80 83 86 89 92 95 98 101 104 107 110 113 116 119 122 125 128 131 134 137 140 143 146 149 152 155 158 161 164 167 170 173 176 179 182 185 188 191 194 197 200 203 206 209 212 215 218 221 224 227 230 233 236 239 242 245 248 251 254 257 260 263 266 269 272 275 278 281 284 287 290 293 296 299 302 305 308 311 0
-317 1 4 7 10 13 16 19 22 25 28 31 34 37 40 43 46 49 52 55 58 61 64 67 70 73 76 79 82 85 88 91 94 97 100 103 106 109 112 115 118 121 124 127 130 133 136 139 142 145 148 151 154 157 160 163 166 169 172 175 178 181 184 187 190 193 196 199 202 205 208 211 214 217 220 223 226 229 232 235 238 241 244 247 250 253 256 259 262 265 268 271 274 277 280 283 286 289 292 295 298 301 304 307 310 313 0
-318 2 5 8 11 14 17 20 23 26 29 32 35 38 41 44 47 50 53 56 59 62 65 68 71 74 77 80 83 86 89 92 95 98 101 104 107 110 113 116 119 122 125 128 131 134 137 140 143 146 149 152 155 158 161 164 167 170 173 176 179 182 185 188 191 194 197 200 203 206 209 212 215 218 221 224 227 230 233 236 239 242 245 248 251 254 257 260 263 266 269 272 275 278 281 284 287 290 293 296 299 302 305 308 311 314 0
-320 1 4 7 10 13 16 19 22 25 28 31 34 37 40 43 46 49 52 55 58 61 64 67 70 73 76 79 82 85 88 91 94 97 100 103 106 109 112 115 118 121 124 127 130 133 136 139 142 145 148 151 154 157 160 163 166 169 172 175 178 181 184 187 190 193 196 199 202 205 208 211 214 217 220 223 226 229 232 235 238 241 244 247 250 253 256 259 262 265 268 271 274 277 280 283 286 289 292 295 298 301 304 307 310 313 316 0
-321 2 5 8 11 14 17 20 23 26 29 32 35 38 41 44 47 50 53 56 59 62 65 68 71 74 77 80 83 86 89 92 95 98 101 104 107 110 113 116 119 122 125 128 131 134 137 140 143 146 149 152 155 158 161 164 167 170 173 176 179 182 185 188 191 194 197 200 203 206 209 212 215 218 221 224 227 230 233 236 239 242 245 248 251 254 257 260 263 266 269 272 275 278 281 284 287 290 293 296 299 302 305 308 311 314 317 0
-323 1 4 7 10 13 16 19 22 25 28 31 34 37 40 43 46 49 52 55 58 61 64 67 70 73 76 79 82 85 88 91 94 97 100 103 106 109 112 115 118 121 124 127 130 133 136 139 142 145 148 151 154 157 160 163 166 169 172 175 178 181 184 187 190 193 196 199 202 205 208 211 214 217 220 223 226 229 232 235 238 241 244 247 250 253 256 259 262 265 268 271 274 277 280 283 286 289 292 295 298 301 304 307 310 313 316 319 0
-324 2 5 8 11 14 17 20 23 26 29 32 35 38 41 44 47 50 53 56 59 62 65 68 71 74 77 80 83 86 89 92 95 98 101 104 107 110 113 116 119 122 125 128 131 134 137 140 143 146 149 152 155 158 161 164 167 170 173 176 179 182 185 188 191 194 197 200 203 206 209 212 215 218 221 224 227 230 233 236 239 242 245 248 251 254 257 260 263 266 269 272 275 278 281 284 287 290 293 296 299 302 305 308 311 314 317 320 0
-326 1 4 7 10 13 16 19 22 25 28 31 34 37 40 43 46 49 52 55 58 61 64 67 70 73 76 79 82 85 88 91 94 97 100 103 106 109 112 115 118 121 124 127 130 133 136 139 142 145 148 151 154 157 160 163 166 169 172 175 178 181 184 187 190 193 196 199 202 205 208 211 214 217 220 223 226 229 232 235 238 241 244 247 250 253 256 259 262 265 268 271 274 277 280 283 286 289 292 295 298 301 304 307 310 313 316 319 322 0
-327 2 5 8 11 14 17 20 23 26 29 32 35 38 41 44 47 50 53 56 59 62 65 68 71 74 77 80 83 86 89 92 95 98 101 104 107 110 113 116 119 122 125 128 131 134 137 140 143 146 149 152 155 158 161 164 167 170 173 176 179 182 185 188 191 194 197 200 203 206 209 212 215 218 221 224 227 230 233 236 239 242 245 248 251 254 257 260 263 266 269 272 275 278 281 284 287 290 293 296 299 302 305 308 311 314 317 320 323 0
-329 1 4 7 10 13 16 19 22 25 28 31 34 37 40 43 46 49 52 55 58 61 64 67 70 73 76 79 82 85 88 91 94 97 100 103 106 109 112 115 118 121 124 127 130 133 136 139 142 145 148 151 154 157 160 163 166 169 172 175 178 181 184 187 190 193 196 199 202 205 208 211 214 217 220 223 226 229 232 235 238 241 244 247 250 253 256 259 262 265 268 271 274 277 280 283 286 289 292 295 298 301 304 307 310 313 316 319 322 325 0
-330 2 5 8 11 14 17 20 23 26 29 32 35 38 41 44 47 50 53 56 59 62 65 68 71 74 77 80 83 86 89 92 95 98 101 104 107 110 113 116 119 122 125 128 131 134 137 140 143 146 149 152 155 158 161 164 167 170 173 176 179 182 185 188 191 194 197 200 203 206 209 212 215 218 221 224 227 230 233 236 239 242 245 248 251 254 257 260 263 266 269 272 275 278 281 284 287 290 293 296 299 302 305 308 311 314 317 320 323 326 0
-332 1 4 7 10 13 16 19 22 25 28 31 34 37 40 43 46 49 52 55 58 61 64 67 70 73 76 79 82 85 88 91 94 97 100 103 106 109 112 115 118 121 124 127 130 133 136 139 142 145 148 151 154 157 160 163 166 169 172 175 178 181 184 187 190 193 196 199 202 205 208 211 214 217 220 223 226 229 232 235 238 241 244 247 250 253 256 259 262 265 268 271 274 277 280 283 286 289 292 295 298 301 304 307 310 313 316 319 322 325 328 0
-333 2 5 8 11 14 17 20 23 26 29 32 35 38 41 44 47 50 53 56 59 62 65 68 71 74 77 80 83 86 89 92 95 98 101 104 107 110 113 116 119 122 125 128 131 134 137 140 143 146 149 152 155 158 161 164 167 170 173 176 179 182 185 188 191 194 197 200 203 206 209 212 215 218 221 224 227 230 233 236 239 242 245 248 251 254 257 260 263 266 269 272 275 278 281 284 287 290 293 296 299 302 305 308 311 314 317 320 323 326 329 0
-335 1 4 7 10 13 16 19 22 25 28 31 34 37 40 43 46 49 52 55 58 61 64 67 70 73 76 79 82 85 88 91 94 97 100 103 106 109 112 115 118 121 124 127 130 133 136 139 142 145 148 151 154 157 160 163 166 169 172 175 178 181 184 187 190 193 196 199 202 205 208 211 214 217 220 223 226 229 232 235 238 241 244 247 250 253 256 259 262 265 268 271 274 277 280 283 286 289 292 295 298 301 304 307 310 313 316 319 322 325 328 331 0
-336 2 5 8 11 14 17 20 23 26 29 32 35 38 41 44 47 50 53 56 59 62 65 68 71 74 77 80 83 86 89 92 95 98 101 104 107 110 113 116 119 122 125 128 131 134 137 140 143 146 149 152 155 158 161 164 167 170 173 176 179 182 185 188 191 194 197 200 203 206 209 212 215 218 221 224 227 230 233 236 239 242 245 248 251 254 257 260 263 266 269 272 275 278 281 284 287 290 293 296 299 302 305 308 311 314 317 320 323 326 329 332 0
-338 1 4 7 10 13 16 19 22 25 28 31 34 37 40 43 46 49 52 55 58 61 64 67 70 73 76 79 82 85 88 91 94 97 100 103 106 109 112 115 118 121 124 127 130 133 136 139 142 145 148 151 154 157 160 163 166 169 172 175 178 181 184 187 190 193 196 199 202 205 208 211 214 217 220 223 226 229 232 235 238 241 244 247 250 253 256 259 262 265 268 271 274 277 280 283 286 289 292 295 298 301 304 307 310 313 316 319 322 325 328 331 334 0
-339 2 5 8 11 14 17 20 23 26 29 32 35 38 41 44 47 50 53 56 59 62 65 68 71 74 77 80 83 86 89 92 95 98 101 104 107 110 113 116 119 122 125 128 131 134 137 140 143 146 149 152 155 158 161 164 167 170 173 176 179 182 185 188 191 194 197 200 203 206 209 212 215 218 221 224 227 230 233 236 239 242 245 248 251 254 257 260 263 266 269 272 275 278 281 284 287 290 293 296 299 302 305 308 311 314 317 320 323 326 329 332 335 0
-341 1 4 7 10 13 16 19 22 25 28 31 34 37 40 43 46 49 52 55 58 61 64 67 70 73 76 79 82 85 88 91 94 97 100 103 106 109 112 115 118 121 124 127 130 133 136 139 142 145 148 151 154 157 160 163 166 169 172 175 178 181 184 187 190 193 196 199 202 205 208 211 214 217 220 223 226 229 232 235 238 241 244 247 250 253 256 259 262 265 268 271 274 277 280 283 286 289 292 295 298 301 304 307 310 313 316 319 322 325 328 331 334 337 0
-342 2 5 8 11 14 17 20 23 26 29 32 35 38 41 44 47 50 53 56 59 62 65 68 71 74 77 80 83 86 89 92 95 98 101 104 107 110 113 116 119 122 125 128 131 134 137 140 143 146 149 152 155 158 161 164 167 170 173 176 179 182 185 188 191 194 197 200 203 206 209 212 215 218 221 224 227 230 233 236 239 242 245 248 251 254 257 260 263 266 269 272 275 278 281 284 287 290 293 296 299 302 305 308 311 314 317 320 323 326 329 332 335 338 0
-344 1 4 7 10 13 16 19 22 25 28 31 34 37 40 43 46 49 52 55 58 61 64 67 70 73 76 79 82 85 88 91 94 97 100 103 106 109 112 115 118 121 124 127 130 133 136 139 142 145 148 151 154 157 160 163 166 169 172 175 178 181 184 187 190 193 196 199 202 205 208 211 214 217 220 223 226 229 232 235 238 241 244 247 250 253 256 259 262 265 268 271 274 277 280 283 286 289 292 295 298 301 304 307 310 313 316 319 322 325 328 331 334 337 340 0
-345 2 5 8 11 14 17 20 23 26 29 32 35 38 41 44 47 50 53 56 59 62 65 68 71 74 77 80 83 86 89 92 95 98 101 104 107 110 113 116 119 122 125 128 131 134 137 140 143 146 149 152 155 158 161 164 167 170 173 176 179 182 185 188 191 194 197 200 203 206 209 212 215 218 221 224 227 230 233 236 239 242 245 248 251 254 257 260 263 266 269 272 275 278 281 284 287 290 293 296 299 302 305 308 311 314 317 320 323 326 329 332 335 338 341 0
-347 1 4 7 10 13 16 19 22 25 28 31 34 37 40 43 46 49 52 55 58 61 64 67 70 73 76 79 82 85 88 91 94 97 100 103 106 109 112 115 118 121 124 127 130 133 136 139 142 145 148 151 154 157 160 163 166 169 172 175 178 181 184 187 190 193 196 199 202 205 208 211 214 217 220 223 226 229 232 235 238 241 244 247 250 253 256 259 262 265 268 271 274 277 280 283 286 289 292 295 298 301 304 307 310 313 316 319 322 325 328 331 334 337 340 343 0
-348 2 5 8 11 14 17 20 23 26 29 32 35 38 41 44 47 50 53 56 59 62 65 68 71 74 77 80 83 86 89 92 95 98 101 104 107 110 113 116 119 122 125 128 131 134 137 140 143 146 149 152 155 158 161 164 167 170 173 176 179 182 185 188 191 194 197 200 203 206 209 212 215 218 221 224 227 230 233 236 239 242 245 248 251 254 257 260 263 266 269 272 275 278 281 284 287 290 293 296 299 302 305 308 311 314 317 320 323 326 329 332 335 338 341 344 0
-350 1 4 7 10 13 16 19 22 25 28 31 34 37 40 43 46 49 52 55 58 61 64 67 70 73 76 79 82 85 88 91 94 97 100 103 106 109 112 115 118 121 124 127 130 133 136 139 142 145 148 151 154 157 160 163 166 169 172 175 178 181 184 187 190 193 196 199 202 205 208 211 214 217 220 223 226 229 232 235 238 241 244 247 250 253 256 259 262 265 268 271 274 277 280 283 286 289 292 295 298 301 304 307 310 313 316 319 322 325 328 331 334 337 340 343 346 0
-351 2 5 8 11 14 17 20 23 26 29 32 35 38 41 44 47 50 53 56 59 62 65 68 71 74 77 80 83 86 89 92 95 98 101 104 107 110 113 116 119 122 125 128 131 134 137 140 143 146 149 152 155 158 161 164 167 170 173 176 179 182 185 188 191 194 197 200 203 206 209 212 215 218 221 224 227 230 233 236 239 242 245 248 251 254 257 260 263 266 269 272 275 278 281 284 287 290 293 296 299 302 305 308 311 314 317 320 323 326 329 332 335 338 341 344 347 0
-353 1 4 7 10 13 16 19 22 25 28 31 34 37 40 43 46 49 52 55 58 61 64 67 70 73 76 79 82 85 88 91 94 97 100 103 106 109 112 115 118 121 124 127 130 133 136 139 142 145 148 151 154 157 160 163 166 169 172 175 178 181 184 187 190 193 196 199 202 205 208 211 214 217 220 223 226 229 232 235 238 241 244 247 250 253 256 259 262 265 268 271 274 277 280 283 286 289 292 295 298 301 304 307 310 313 316 319 322 325 328 331 334 337 340 343 346 349 0
-354 2 5 8 11 14 17 20 23 26 29 32 35 38 41 44 47 50 53 56 59 62 65 68 71 74 77 80 83 86 89 92 95 98 101 104 107 110 113 116 119 122 125 128 131 134 137 140 143 146 149 152 155 158 161 164 167 170 173 176 179 182 185 188 191 194 197 200 203 206 209 212 215 218 221 224 227 230 233 236 239 242 245 248 251 254 257 260 263 266 269 272 275 278 281 284 287 290 293 296 299 302 305 308 311 314 317 320 323 326 329 332 335 338 341 344 347 350 0
-356 1 4 7 10 13 16 19 22 25 28 31 34 37 40 43 46 49 52 55 58 61 64 67 70 73 76 79 82 85 88 91 94 97 100 103 106 109 112 115 118 121 124 127 130 133 136 139 142 145 148 151 154 157 160 163 166 169 172 175 178 181 184 187 190 193 196 199 202 205 208 211 214 217 220 223 226 229 232 235 238 241 244 247 250 253 256 259 262 265 268 271 274 277 280 283 286 289 292 295 298 301 304 307 310 313 316 319 322 325 328 331 334 337 340 343 346 349 352 0
-357 2 5 8 11 14 17 20 23 26 29 32 35 38 41 44 47 50 53 56 59 62 65 68 71 74 77 80 83 86 89 92 95 98 101 104 107 110 113 116 119 122 125 128 131 134 137 140 143 146 149 152 155 158 161 164 167 170 173 176 179 182 185 188 191 194 197 200 203 206 209 212 215 218 221 224 227 230 233 236 239 242 245 248 251 254 257 260 263 266 269 272 275 278 281 284 287 290 293 296 299 302 305 308 311 314 317 320 323 326 329 332 335 338 341 344 347 350 353 0
-359 1 4 7 10 13 16 19 22 25 28 31 34 37 40 43 46 49 52 55 58 61 64 67 70 73 76 79 82 85 88 91 94 97 100 103 106 109 112 115 118 121 124 127 130 133 136 139 142 145 148 151 154 157 160 163 166 169 172 175 178 181 184 187 190 193 196 199 202 205 208 211 214 217 220 223 226 229 232 235 238 241 244 247 250 253 256 259 262 265 268 271 274 277 280 283 286 289 292 295 298 301 304 307 310 313 316 319 322 325 328 331 334 337 340 343 346 349 352 355 0
-360 2 5 8 11 14 17 20 23 26 29 32 35 38 41 44 47 50 53 56 59 62 65 68 71 74 77 80 83 86 89 92 95 98 101 104 107 110 113 116 119 122 125 128 131 134 137 140 143 146 149 152 155 158 161 164 167 170 173 176 179 182 185 188 191 194 197 200 203 206 209 212 215 218 221 224 227 230 233 236 239 242 245 248 251 254 257 260 263 266 269 272 275 278 281 284 287 290 293 296 299 302 305 308 311 314 317 320 323 326 329 332 335 338 341 344 347 350 353 356 0
-362 1 4 7 10 13 16 19 22 25 28 31 34 37 40 43 46 49 52 55 58 61 64 67 70 73 76 79 82 85 88 91 94 97 100 103 106 109 112 115 118 121 124 127 130 133 136 139 142 145 148 151 154 157 160 163 166 169 172 175 178 181 184 187 190 193 196 199 202 205 208 211 214 217 220 223 226 229 232 235 238 241 244 247 250 253 256 259 262 265 268 271 274 277 280 283 286 289 292 295 298 301 304 307 310 313 316 319 322 325 328 331 334 337 340 343 346 349 352 355 358 0
-363 2 5 8 11 14 17 20 23 26 29 32 35 38 41 44 47 50 53 56 59 62 65 68 71 74 77 80 83 86 89 92 95 98 101 104 107 110 113 116 119 122 125 128 131 134 137 140 143 146 149 152 155 158 161 164 167 170 173 176 179 182 185 188 191 194 197 200 203 206 209 212 215 218 221 224 227 230 233 236 239 242 245 248 251 254 257 260 263 266 269 272 275 278 281 284 287 290 293 296 299 302 305 308 311 314 317 320 323 326 329 332 335 338 341 344 347 350 353 356 359 0
-365 1 4 7 10 13 16 19 22 25 28 31 34 37 40 43 46 49 52 55 58 61 64 67 70 73 76 79 82 85 88 91 94 97 100 103 106 109 112 115 118 121 124 127 130 133 136 139 142 145 148 151 154 157 160 163 166 169 172 175 178 181 184 187 190 193 196 199 202 205 208 211 214 217 220 223 226 229 232 235 238 241 244 247 250 253 256 259 262 265 268 271 274 277 280 283 286 289 292 295 298 301 304 307 310 313 316 319 322 325 328 331 334 337 340 343 346 349 352 355 358 361 0
-366 2 5 8 11 14 17 20 23 26 29 32 35 38 41 44 47 50 53 56 59 62 65 68 71 74 77 80 83 86 89 92 95 98 101 104 107 110 113 116 119 122 125 128 131 134 137 140 143 146 149 152 155 158 161 164 167 170 173 176 179 182 185 188 191 194 197 200 203 206 209 212 215 218 221 224 227 230 233 236 239 242 245 248 251 254 257 260 263 266 269 272 275 278 281 284 287 290 293 296 299 302 305 308 311 314 317 320 323 326 329 332 335 338 341 344 347 350 353 356 359 362 0
-368 1 4 7 10 13 16 19 22 25 28 31 34 37 40 43 46 49 52 55 58 61 64 67 70 73 76 79 82 85 88 91 94 97 100 103 106 109 112 115 118 121 124 127 130 133 136 139 142 145 148 151 154 157 160 163 166 169 172 175 178 181 184 187 190 193 196 199 202 205 208 211 214 217 220 223 226 229 232 235 238 241 244 247 250 253 256 259 262 265 268 271 274 277 280 283 286 289 292 295 298 301 304 307 310 313 316 319 322 325 328 331 334 337 340 343 346 349 352 355 358 361 364 0
-369 2 5 8 11 14 17 20 23 26 29 32 35 38 41 44 47 50 53 56 59 62 65 68 71 74 77 80 83 86 89 92 95 98 101 104 107 110 113 116 119 122 125 128 131 134 137 140 143 146 149 152 155 158 161 164 167 170 173 176 179 182 185 188 191 194 197 200 203 206 209 212 215 218 221 224 227 230 233 236 239 242 245 248 251 254 257 260 263 266 269 272 275 278 281 284 287 290 293 296 299 302 305 308 311 314 317 320 323 326 329 332 335 338 341 344 347 350 353 356 359 362 365 0
-371 1 4 7 10 13 16 19 22 25 28 31 34 37 40 43 46 49 52 55 58 61 64 67 70 73 76 79 82 85 88 91 94 97 100 103 106 109 112 115 118 121 124 127 130 133 136 139 142 145 148 151 154 157 160 163 166 169 172 175 178 181 184 187 190 193 196 199 202 205 208 211 214 217 220 223 226 229 232 235 238 241 244 247 250 253 256 259 262 265 268 271 274 277 280 283 286 289 292 295 298 301 304 307 310 313 316 319 322 325 328 331 334 337 340 343 346 349 352 355 358 361 364 367 0
-372 2 5 8 11 14 17 20 23 26 29 32 35 38 41 44 47 50 53 56 59 62 65 68 71 74 77 80 83 86 89 92 95 98 101 104 107 110 113 116 119 122 125 128 131 134 137 140 143 146 149 152 155 158 161 164 167 170 173 176 179 182 185 188 191 194 197 200 203 206 209 212 215 218 221 224 227 230 233 236 239 242 245 248 251 254 257 260 263 266 269 272 275 278 281 284 287 290 293 296 299 302 305 308 311 314 317 320 323 326 329 332 335 338 341 344 347 350 353 356 359 362 365 368 0
-374 1 4 7 10 13 16 19 22 25 28 31 34 37 40 43 46 49 52 55 58 61 64 67 70 73 76 79 82 85 88 91 94 97 100 103 106 109 112 115 118 121 124 127 130 133 136 139 142 145 148 151 154 157 160 163 166 169 172 175 178 181 184 187 190 193 196 199 202 205 208 211 214 217 220 223 226 229 232 235 238 241 244 247 250 253 256 259 262 265 268 271 274 277 280 283 286 289 292 295 298 301 304 307 310 313 316 319 322 325 328 331 334 337 340 343 346 349 352 355 358 361 364 367 370 0
-375 2 5 8 11 14 17 20 23 26 29 32 35 38 41 44 47 50 53 56 59 62 65 68 71 74 77 80 83 86 89 92 95 98 101 104 107 110 113 116 119 122 125 128 131 134 137 140 143 146 149 152 155 158 161 164 167 170 173 176 179 182 185 188 191 194 197 200 203 206 209 212 215 218 221 224 227 230 233 236 239 242 245 248 251 254 257 260 263 266 269 272 275 278 281 284 287 290 293 296 299 302 305 308 311 314 317 320 323 326 329 332 335 338 341 344 347 350 353 356 359 362 365 368 371 0
