p cnf 228 4014
1 2 0
3 4 0
5 6 0
7 8 0
9 10 0
11 12 0
13 14 0
15 16 0
17 18 0
19 20 0
21 22 0
23 24 0
25 26 0
27 28 0
29 30 0
31 32 0
33 34 0
35 36 0
37 38 0
39 40 0
41 42 0
43 44 0
45 46 0
47 48 0
49 50 0
51 52 0
53 54 0
55 56 0
57 58 0
59 60 0
61 62 0
63 64 0
65 66 0
67 68 0
69 70 0
71 72 0
73 74 0
75 76 0
77 78 0
79 80 0
81 82 0
83 84 0
85 86 0
87 88 0
89 90 0
91 92 0
93 94 0
95 96 0
97 98 0
99 100 0
101 102 0
103 104 0
105 106 0
107 108 0
109 110 0
111 112 0
113 114 0
115 116 0
117 118 0
119 120 0
121 122 0
123 124 0
125 126 0
127 128 0
129 130 0
131 132 0
133 134 0
135 136 0
137 138 0
139 140 0
141 142 0
143 144 0
145 146 0
147 148 0
149 150 0
151 152 0
153 154 0
155 156 0
157 158 0
159 160 0
161 162 0
163 164 0
165 166 0
167 168 0
169 170 0
171 172 0
173 174 0
175 176 0
177 178 0
179 180 0
181 182 0
183 184 0
185 186 0
187 188 0
189 190 0
191 192 0
193 194 0
195 196 0
197 198 0
199 200 0
201 202 0
203 204 0
205 206 0
207 208 0
209 210 0
211 212 0
213 214 0
215 216 0
217 218 0
219 220 0
221 222 0
223 224 0
225 226 0
227 228 0
-1 -3 -5 0
-3 -5 -7 0
-5 -7 -9 0
-7 -9 -11 0
-9 -11 -13 0
-11 -13 -15 0
-13 -15 -17 0
-15 -17 -19 0
-17 -19 -21 0
-19 -21 -23 0
-21 -23 -25 0
-23 -25 -27 0
-25 -27 -29 0
-27 -29 -31 0
-29 -31 -33 0
-31 -33 -35 0
-33 -35 -37 0
-35 -37 -39 0
-37 -39 -41 0
-39 -41 -43 0
-41 -43 -45 0
-43 -45 -47 0
-45 -47 -49 0
-47 -49 -51 0
-49 -51 -53 0
-51 -53 -55 0
-53 -55 -57 0
-55 -57 -59 0
-57 -59 -61 0
-59 -61 -63 0
-61 -63 -65 0
-63 -65 -67 0
-65 -67 -69 0
-67 -69 -71 0
-69 -71 -73 0
-71 -73 -75 0
-73 -75 -77 0
-75 -77 -79 0
-77 -79 -81 0
-79 -81 -83 0
-81 -83 -85 0
-83 -85 -87 0
-85 -87 -89 0
-87 -89 -91 0
-89 -91 -93 0
-91 -93 -95 0
-93 -95 -97 0
-95 -97 -99 0
-97 -99 -101 0
-99 -101 -103 0
-101 -103 -105 0
-103 -105 -107 0
-105 -107 -109 0
-107 -109 -111 0
-109 -111 -113 0
-111 -113 -115 0
-113 -115 -117 0
-115 -117 -119 0
-117 -119 -121 0
-119 -121 -123 0
-121 -123 -125 0
-123 -125 -127 0
-125 -127 -129 0
-127 -129 -131 0
-129 -131 -133 0
-131 -133 -135 0
-133 -135 -137 0
-135 -137 -139 0
-137 -139 -141 0
-139 -141 -143 0
-141 -143 -145 0
-143 -145 -147 0
-145 -147 -149 0
-147 -149 -151 0
-149 -151 -153 0
-151 -153 -155 0
-153 -155 -157 0
-155 -157 -159 0
-157 -159 -161 0
-159 -161 -163 0
-161 -163 -165 0
-163 -165 -167 0
-165 -167 -169 0
-167 -169 -171 0
-169 -171 -173 0
-171 -173 -175 0
-173 -175 -177 0
-175 -177 -179 0
-177 -179 -181 0
-179 -181 -183 0
-181 -183 -185 0
-183 -185 -187 0
-185 -187 -189 0
-187 -189 -191 0
-189 -191 -193 0
-191 -193 -195 0
-193 -195 -197 0
-195 -197 -199 0
-197 -199 -201 0
-199 -201 -203 0
-201 -203 -205 0
-203 -205 -207 0
-205 -207 -209 0
-207 -209 -211 0
-209 -211 -213 0
-211 -213 -215 0
-213 -215 -217 0
-215 -217 -219 0
-217 -219 -221 0
-219 -221 -223 0
-221 -223 -225 0
-223 -225 -227 0
-1 -5 -9 0
-3 -7 -11 0
-5 -9 -13 0
-7 -11 -15 0
-9 -13 -17 0
-11 -15 -19 0
-13 -17 -21 0
-15 -19 -23 0
-17 -21 -25 0
-19 -23 -27 0
-21 -25 -29 0
-23 -27 -31 0
-25 -29 -33 0
-27 -31 -35 0
-29 -33 -37 0
-31 -35 -39 0
-33 -37 -41 0
-35 -39 -43 0
-37 -41 -45 0
-39 -43 -47 0
-41 -45 -49 0
-43 -47 -51 0
-45 -49 -53 0
-47 -51 -55 0
-49 -53 -57 0
-51 -55 -59 0
-53 -57 -61 0
-55 -59 -63 0
-57 -61 -65 0
-59 -63 -67 0
-61 -65 -69 0
-63 -67 -71 0
-65 -69 -73 0
-67 -71 -75 0
-69 -73 -77 0
-71 -75 -79 0
-73 -77 -81 0
-75 -79 -83 0
-77 -81 -85 0
-79 -83 -87 0
-81 -85 -89 0
-83 -87 -91 0
-85 -89 -93 0
-87 -91 -95 0
-89 -93 -97 0
-91 -95 -99 0
-93 -97 -101 0
-95 -99 -103 0
-97 -101 -105 0
-99 -103 -107 0
-101 -105 -109 0
-103 -107 -111 0
-105 -109 -113 0
-107 -111 -115 0
-109 -113 -117 0
-111 -115 -119 0
-113 -117 -121 0
-115 -119 -123 0
-117 -121 -125 0
-119 -123 -127 0
-121 -125 -129 0
-123 -127 -131 0
-125 -129 -133 0
-127 -131 -135 0
-129 -133 -137 0
-131 -135 -139 0
-133 -137 -141 0
-135 -139 -143 0
-137 -141 -145 0
-139 -143 -147 0
-141 -145 -149 0
-143 -147 -151 0
-145 -149 -153 0
-147 -151 -155 0
-149 -153 -157 0
-151 -155 -159 0
-153 -157 -161 0
-155 -159 -163 0
-157 -161 -165 0
-159 -163 -167 0
-161 -165 -169 0
-163 -167 -171 0
-165 -169 -173 0
-167 -171 -175 0
-169 -173 -177 0
-171 -175 -179 0
-173 -177 -181 0
-175 -179 -183 0
-177 -181 -185 0
-179 -183 -187 0
-181 -185 -189 0
-183 -187 -191 0
-185 -189 -193 0
-187 -191 -195 0
-189 -193 -197 0
-191 -195 -199 0
-193 -197 -201 0
-195 -199 -203 0
-197 -201 -205 0
-199 -203 -207 0
-201 -205 -209 0
-203 -207 -211 0
-205 -209 -213 0
-207 -211 -215 0
-209 -213 -217 0
-211 -215 -219 0
-213 -217 -221 0
-215 -219 -223 0
-217 -221 -225 0
-219 -223 -227 0
-1 -7 -13 0
-3 -9 -15 0
-5 -11 -17 0
-7 -13 -19 0
-9 -15 -21 0
-11 -17 -23 0
-13 -19 -25 0
-15 -21 -27 0
-17 -23 -29 0
-19 -25 -31 0
-21 -27 -33 0
-23 -29 -35 0
-25 -31 -37 0
-27 -33 -39 0
-29 -35 -41 0
-31 -37 -43 0
-33 -39 -45 0
-35 -41 -47 0
-37 -43 -49 0
-39 -45 -51 0
-41 -47 -53 0
-43 -49 -55 0
-45 -51 -57 0
-47 -53 -59 0
-49 -55 -61 0
-51 -57 -63 0
-53 -59 -65 0
-55 -61 -67 0
-57 -63 -69 0
-59 -65 -71 0
-61 -67 -73 0
-63 -69 -75 0
-65 -71 -77 0
-67 -73 -79 0
-69 -75 -81 0
-71 -77 -83 0
-73 -79 -85 0
-75 -81 -87 0
-77 -83 -89 0
-79 -85 -91 0
-81 -87 -93 0
-83 -89 -95 0
-85 -91 -97 0
-87 -93 -99 0
-89 -95 -101 0
-91 -97 -103 0
-93 -99 -105 0
-95 -101 -107 0
-97 -103 -109 0
-99 -105 -111 0
-101 -107 -113 0
-103 -109 -115 0
-105 -111 -117 0
-107 -113 -119 0
-109 -115 -121 0
-111 -117 -123 0
-113 -119 -125 0
-115 -121 -127 0
-117 -123 -129 0
-119 -125 -131 0
-121 -127 -133 0
-123 -129 -135 0
-125 -131 -137 0
-127 -133 -139 0
-129 -135 -141 0
-131 -137 -143 0
-133 -139 -145 0
-135 -141 -147 0
-137 -143 -149 0
-139 -145 -151 0
-141 -147 -153 0
-143 -149 -155 0
-145 -151 -157 0
-147 -153 -159 0
-149 -155 -161 0
-151 -157 -163 0
-153 -159 -165 0
-155 -161 -167 0
-157 -163 -169 0
-159 -165 -171 0
-161 -167 -173 0
-163 -169 -175 0
-165 -171 -177 0
-167 -173 -179 0
-169 -175 -181 0
-171 -177 -183 0
-173 -179 -185 0
-175 -181 -187 0
-177 -183 -189 0
-179 -185 -191 0
-181 -187 -193 0
-183 -189 -195 0
-185 -191 -197 0
-187 -193 -199 0
-189 -195 -201 0
-191 -197 -203 0
-193 -199 -205 0
-195 -201 -207 0
-197 -203 -209 0
-199 -205 -211 0
-201 -207 -213 0
-203 -209 -215 0
-205 -211 -217 0
-207 -213 -219 0
-209 -215 -221 0
-211 -217 -223 0
-213 -219 -225 0
-215 -221 -227 0
-1 -9 -17 0
-3 -11 -19 0
-5 -13 -21 0
-7 -15 -23 0
-9 -17 -25 0
-11 -19 -27 0
-13 -21 -29 0
-15 -23 -31 0
-17 -25 -33 0
-19 -27 -35 0
-21 -29 -37 0
-23 -31 -39 0
-25 -33 -41 0
-27 -35 -43 0
-29 -37 -45 0
-31 -39 -47 0
-33 -41 -49 0
-35 -43 -51 0
-37 -45 -53 0
-39 -47 -55 0
-41 -49 -57 0
-43 -51 -59 0
-45 -53 -61 0
-47 -55 -63 0
-49 -57 -65 0
-51 -59 -67 0
-53 -61 -69 0
-55 -63 -71 0
-57 -65 -73 0
-59 -67 -75 0
-61 -69 -77 0
-63 -71 -79 0
-65 -73 -81 0
-67 -75 -83 0
-69 -77 -85 0
-71 -79 -87 0
-73 -81 -89 0
-75 -83 -91 0
-77 -85 -93 0
-79 -87 -95 0
-81 -89 -97 0
-83 -91 -99 0
-85 -93 -101 0
-87 -95 -103 0
-89 -97 -105 0
-91 -99 -107 0
-93 -101 -109 0
-95 -103 -111 0
-97 -105 -113 0
-99 -107 -115 0
-101 -109 -117 0
-103 -111 -119 0
-105 -113 -121 0
-107 -115 -123 0
-109 -117 -125 0
-111 -119 -127 0
-113 -121 -129 0
-115 -123 -131 0
-117 -125 -133 0
-119 -127 -135 0
-121 -129 -137 0
-123 -131 -139 0
-125 -133 -141 0
-127 -135 -143 0
-129 -137 -145 0
-131 -139 -147 0
-133 -141 -149 0
-135 -143 -151 0
-137 -145 -153 0
-139 -147 -155 0
-141 -149 -157 0
-143 -151 -159 0
-145 -153 -161 0
-147 -155 -163 0
-149 -157 -165 0
-151 -159 -167 0
-153 -161 -169 0
-155 -163 -171 0
-157 -165 -173 0
-159 -167 -175 0
-161 -169 -177 0
-163 -171 -179 0
-165 -173 -181 0
-167 -175 -183 0
-169 -177 -185 0
-171 -179 -187 0
-173 -181 -189 0
-175 -183 -191 0
-177 -185 -193 0
-179 -187 -195 0
-181 -189 -197 0
-183 -191 -199 0
-185 -193 -201 0
-187 -195 -203 0
-189 -197 -205 0
-191 -199 -207 0
-193 -201 -209 0
-195 -203 -211 0
-197 -205 -213 0
-199 -207 -215 0
-201 -209 -217 0
-203 -211 -219 0
-205 -213 -221 0
-207 -215 -223 0
-209 -217 -225 0
-211 -219 -227 0
-1 -11 -21 0
-3 -13 -23 0
-5 -15 -25 0
-7 -17 -27 0
-9 -19 -29 0
-11 -21 -31 0
-13 -23 -33 0
-15 -25 -35 0
-17 -27 -37 0
-19 -29 -39 0
-21 -31 -41 0
-23 -33 -43 0
-25 -35 -45 0
-27 -37 -47 0
-29 -39 -49 0
-31 -41 -51 0
-33 -43 -53 0
-35 -45 -55 0
-37 -47 -57 0
-39 -49 -59 0
-41 -51 -61 0
-43 -53 -63 0
-45 -55 -65 0
-47 -57 -67 0
-49 -59 -69 0
-51 -61 -71 0
-53 -63 -73 0
-55 -65 -75 0
-57 -67 -77 0
-59 -69 -79 0
-61 -71 -81 0
-63 -73 -83 0
-65 -75 -85 0
-67 -77 -87 0
-69 -79 -89 0
-71 -81 -91 0
-73 -83 -93 0
-75 -85 -95 0
-77 -87 -97 0
-79 -89 -99 0
-81 -91 -101 0
-83 -93 -103 0
-85 -95 -105 0
-87 -97 -107 0
-89 -99 -109 0
-91 -101 -111 0
-93 -103 -113 0
-95 -105 -115 0
-97 -107 -117 0
-99 -109 -119 0
-101 -111 -121 0
-103 -113 -123 0
-105 -115 -125 0
-107 -117 -127 0
-109 -119 -129 0
-111 -121 -131 0
-113 -123 -133 0
-115 -125 -135 0
-117 -127 -137 0
-119 -129 -139 0
-121 -131 -141 0
-123 -133 -143 0
-125 -135 -145 0
-127 -137 -147 0
-129 -139 -149 0
-131 -141 -151 0
-133 -143 -153 0
-135 -145 -155 0
-137 -147 -157 0
-139 -149 -159 0
-141 -151 -161 0
-143 -153 -163 0
-145 -155 -165 0
-147 -157 -167 0
-149 -159 -169 0
-151 -161 -171 0
-153 -163 -173 0
-155 -165 -175 0
-157 -167 -177 0
-159 -169 -179 0
-161 -171 -181 0
-163 -173 -183 0
-165 -175 -185 0
-167 -177 -187 0
-169 -179 -189 0
-171 -181 -191 0
-173 -183 -193 0
-175 -185 -195 0
-177 -187 -197 0
-179 -189 -199 0
-181 -191 -201 0
-183 -193 -203 0
-185 -195 -205 0
-187 -197 -207 0
-189 -199 -209 0
-191 -201 -211 0
-193 -203 -213 0
-195 -205 -215 0
-197 -207 -217 0
-199 -209 -219 0
-201 -211 -221 0
-203 -213 -223 0
-205 -215 -225 0
-207 -217 -227 0
-1 -13 -25 0
-3 -15 -27 0
-5 -17 -29 0
-7 -19 -31 0
-9 -21 -33 0
-11 -23 -35 0
-13 -25 -37 0
-15 -27 -39 0
-17 -29 -41 0
-19 -31 -43 0
-21 -33 -45 0
-23 -35 -47 0
-25 -37 -49 0
-27 -39 -51 0
-29 -41 -53 0
-31 -43 -55 0
-33 -45 -57 0
-35 -47 -59 0
-37 -49 -61 0
-39 -51 -63 0
-41 -53 -65 0
-43 -55 -67 0
-45 -57 -69 0
-47 -59 -71 0
-49 -61 -73 0
-51 -63 -75 0
-53 -65 -77 0
-55 -67 -79 0
-57 -69 -81 0
-59 -71 -83 0
-61 -73 -85 0
-63 -75 -87 0
-65 -77 -89 0
-67 -79 -91 0
-69 -81 -93 0
-71 -83 -95 0
-73 -85 -97 0
-75 -87 -99 0
-77 -89 -101 0
-79 -91 -103 0
-81 -93 -105 0
-83 -95 -107 0
-85 -97 -109 0
-87 -99 -111 0
-89 -101 -113 0
-91 -103 -115 0
-93 -105 -117 0
-95 -107 -119 0
-97 -109 -121 0
-99 -111 -123 0
-101 -113 -125 0
-103 -115 -127 0
-105 -117 -129 0
-107 -119 -131 0
-109 -121 -133 0
-111 -123 -135 0
-113 -125 -137 0
-115 -127 -139 0
-117 -129 -141 0
-119 -131 -143 0
-121 -133 -145 0
-123 -135 -147 0
-125 -137 -149 0
-127 -139 -151 0
-129 -141 -153 0
-131 -143 -155 0
-133 -145 -157 0
-135 -147 -159 0
-137 -149 -161 0
-139 -151 -163 0
-141 -153 -165 0
-143 -155 -167 0
-145 -157 -169 0
-147 -159 -171 0
-149 -161 -173 0
-151 -163 -175 0
-153 -165 -177 0
-155 -167 -179 0
-157 -169 -181 0
-159 -171 -183 0
-161 -173 -185 0
-163 -175 -187 0
-165 -177 -189 0
-167 -179 -191 0
-169 -181 -193 0
-171 -183 -195 0
-173 -185 -197 0
-175 -187 -199 0
-177 -189 -201 0
-179 -191 -203 0
-181 -193 -205 0
-183 -195 -207 0
-185 -197 -209 0
-187 -199 -211 0
-189 -201 -213 0
-191 -203 -215 0
-193 -205 -217 0
-195 -207 -219 0
-197 -209 -221 0
-199 -211 -223 0
-201 -213 -225 0
-203 -215 -227 0
-1 -15 -29 0
-3 -17 -31 0
-5 -19 -33 0
-7 -21 -35 0
-9 -23 -37 0
-11 -25 -39 0
-13 -27 -41 0
-15 -29 -43 0
-17 -31 -45 0
-19 -33 -47 0
-21 -35 -49 0
-23 -37 -51 0
-25 -39 -53 0
-27 -41 -55 0
-29 -43 -57 0
-31 -45 -59 0
-33 -47 -61 0
-35 -49 -63 0
-37 -51 -65 0
-39 -53 -67 0
-41 -55 -69 0
-43 -57 -71 0
-45 -59 -73 0
-47 -61 -75 0
-49 -63 -77 0
-51 -65 -79 0
-53 -67 -81 0
-55 -69 -83 0
-57 -71 -85 0
-59 -73 -87 0
-61 -75 -89 0
-63 -77 -91 0
-65 -79 -93 0
-67 -81 -95 0
-69 -83 -97 0
-71 -85 -99 0
-73 -87 -101 0
-75 -89 -103 0
-77 -91 -105 0
-79 -93 -107 0
-81 -95 -109 0
-83 -97 -111 0
-85 -99 -113 0
-87 -101 -115 0
-89 -103 -117 0
-91 -105 -119 0
-93 -107 -121 0
-95 -109 -123 0
-97 -111 -125 0
-99 -113 -127 0
-101 -115 -129 0
-103 -117 -131 0
-105 -119 -133 0
-107 -121 -135 0
-109 -123 -137 0
-111 -125 -139 0
-113 -127 -141 0
-115 -129 -143 0
-117 -131 -145 0
-119 -133 -147 0
-121 -135 -149 0
-123 -137 -151 0
-125 -139 -153 0
-127 -141 -155 0
-129 -143 -157 0
-131 -145 -159 0
-133 -147 -161 0
-135 -149 -163 0
-137 -151 -165 0
-139 -153 -167 0
-141 -155 -169 0
-143 -157 -171 0
-145 -159 -173 0
-147 -161 -175 0
-149 -163 -177 0
-151 -165 -179 0
-153 -167 -181 0
-155 -169 -183 0
-157 -171 -185 0
-159 -173 -187 0
-161 -175 -189 0
-163 -177 -191 0
-165 -179 -193 0
-167 -181 -195 0
-169 -183 -197 0
-171 -185 -199 0
-173 -187 -201 0
-175 -189 -203 0
-177 -191 -205 0
-179 -193 -207 0
-181 -195 -209 0
-183 -197 -211 0
-185 -199 -213 0
-187 -201 -215 0
-189 -203 -217 0
-191 -205 -219 0
-193 -207 -221 0
-195 -209 -223 0
-197 -211 -225 0
-199 -213 -227 0
-1 -17 -33 0
-3 -19 -35 0
-5 -21 -37 0
-7 -23 -39 0
-9 -25 -41 0
-11 -27 -43 0
-13 -29 -45 0
-15 -31 -47 0
-17 -33 -49 0
-19 -35 -51 0
-21 -37 -53 0
-23 -39 -55 0
-25 -41 -57 0
-27 -43 -59 0
-29 -45 -61 0
-31 -47 -63 0
-33 -49 -65 0
-35 -51 -67 0
-37 -53 -69 0
-39 -55 -71 0
-41 -57 -73 0
-43 -59 -75 0
-45 -61 -77 0
-47 -63 -79 0
-49 -65 -81 0
-51 -67 -83 0
-53 -69 -85 0
-55 -71 -87 0
-57 -73 -89 0
-59 -75 -91 0
-61 -77 -93 0
-63 -79 -95 0
-65 -81 -97 0
-67 -83 -99 0
-69 -85 -101 0
-71 -87 -103 0
-73 -89 -105 0
-75 -91 -107 0
-77 -93 -109 0
-79 -95 -111 0
-81 -97 -113 0
-83 -99 -115 0
-85 -101 -117 0
-87 -103 -119 0
-89 -105 -121 0
-91 -107 -123 0
-93 -109 -125 0
-95 -111 -127 0
-97 -113 -129 0
-99 -115 -131 0
-101 -117 -133 0
-103 -119 -135 0
-105 -121 -137 0
-107 -123 -139 0
-109 -125 -141 0
-111 -127 -143 0
-113 -129 -145 0
-115 -131 -147 0
-117 -133 -149 0
-119 -135 -151 0
-121 -137 -153 0
-123 -139 -155 0
-125 -141 -157 0
-127 -143 -159 0
-129 -145 -161 0
-131 -147 -163 0
-133 -149 -165 0
-135 -151 -167 0
-137 -153 -169 0
-139 -155 -171 0
-141 -157 -173 0
-143 -159 -175 0
-145 -161 -177 0
-147 -163 -179 0
-149 -165 -181 0
-151 -167 -183 0
-153 -169 -185 0
-155 -171 -187 0
-157 -173 -189 0
-159 -175 -191 0
-161 -177 -193 0
-163 -179 -195 0
-165 -181 -197 0
-167 -183 -199 0
-169 -185 -201 0
-171 -187 -203 0
-173 -189 -205 0
-175 -191 -207 0
-177 -193 -209 0
-179 -195 -211 0
-181 -197 -213 0
-183 -199 -215 0
-185 -201 -217 0
-187 -203 -219 0
-189 -205 -221 0
-191 -207 -223 0
-193 -209 -225 0
-195 -211 -227 0
-1 -19 -37 0
-3 -21 -39 0
-5 -23 -41 0
-7 -25 -43 0
-9 -27 -45 0
-11 -29 -47 0
-13 -31 -49 0
-15 -33 -51 0
-17 -35 -53 0
-19 -37 -55 0
-21 -39 -57 0
-23 -41 -59 0
-25 -43 -61 0
-27 -45 -63 0
-29 -47 -65 0
-31 -49 -67 0
-33 -51 -69 0
-35 -53 -71 0
-37 -55 -73 0
-39 -57 -75 0
-41 -59 -77 0
-43 -61 -79 0
-45 -63 -81 0
-47 -65 -83 0
-49 -67 -85 0
-51 -69 -87 0
-53 -71 -89 0
-55 -73 -91 0
-57 -75 -93 0
-59 -77 -95 0
-61 -79 -97 0
-63 -81 -99 0
-65 -83 -101 0
-67 -85 -103 0
-69 -87 -105 0
-71 -89 -107 0
-73 -91 -109 0
-75 -93 -111 0
-77 -95 -113 0
-79 -97 -115 0
-81 -99 -117 0
-83 -101 -119 0
-85 -103 -121 0
-87 -105 -123 0
-89 -107 -125 0
-91 -109 -127 0
-93 -111 -129 0
-95 -113 -131 0
-97 -115 -133 0
-99 -117 -135 0
-101 -119 -137 0
-103 -121 -139 0
-105 -123 -141 0
-107 -125 -143 0
-109 -127 -145 0
-111 -129 -147 0
-113 -131 -149 0
-115 -133 -151 0
-117 -135 -153 0
-119 -137 -155 0
-121 -139 -157 0
-123 -141 -159 0
-125 -143 -161 0
-127 -145 -163 0
-129 -147 -165 0
-131 -149 -167 0
-133 -151 -169 0
-135 -153 -171 0
-137 -155 -173 0
-139 -157 -175 0
-141 -159 -177 0
-143 -161 -179 0
-145 -163 -181 0
-147 -165 -183 0
-149 -167 -185 0
-151 -169 -187 0
-153 -171 -189 0
-155 -173 -191 0
-157 -175 -193 0
-159 -177 -195 0
-161 -179 -197 0
-163 -181 -199 0
-165 -183 -201 0
-167 -185 -203 0
-169 -187 -205 0
-171 -189 -207 0
-173 -191 -209 0
-175 -193 -211 0
-177 -195 -213 0
-179 -197 -215 0
-181 -199 -217 0
-183 -201 -219 0
-185 -203 -221 0
-187 -205 -223 0
-189 -207 -225 0
-191 -209 -227 0
-1 -21 -41 0
-3 -23 -43 0
-5 -25 -45 0
-7 -27 -47 0
-9 -29 -49 0
-11 -31 -51 0
-13 -33 -53 0
-15 -35 -55 0
-17 -37 -57 0
-19 -39 -59 0
-21 -41 -61 0
-23 -43 -63 0
-25 -45 -65 0
-27 -47 -67 0
-29 -49 -69 0
-31 -51 -71 0
-33 -53 -73 0
-35 -55 -75 0
-37 -57 -77 0
-39 -59 -79 0
-41 -61 -81 0
-43 -63 -83 0
-45 -65 -85 0
-47 -67 -87 0
-49 -69 -89 0
-51 -71 -91 0
-53 -73 -93 0
-55 -75 -95 0
-57 -77 -97 0
-59 -79 -99 0
-61 -81 -101 0
-63 -83 -103 0
-65 -85 -105 0
-67 -87 -107 0
-69 -89 -109 0
-71 -91 -111 0
-73 -93 -113 0
-75 -95 -115 0
-77 -97 -117 0
-79 -99 -119 0
-81 -101 -121 0
-83 -103 -123 0
-85 -105 -125 0
-87 -107 -127 0
-89 -109 -129 0
-91 -111 -131 0
-93 -113 -133 0
-95 -115 -135 0
-97 -117 -137 0
-99 -119 -139 0
-101 -121 -141 0
-103 -123 -143 0
-105 -125 -145 0
-107 -127 -147 0
-109 -129 -149 0
-111 -131 -151 0
-113 -133 -153 0
-115 -135 -155 0
-117 -137 -157 0
-119 -139 -159 0
-121 -141 -161 0
-123 -143 -163 0
-125 -145 -165 0
-127 -147 -167 0
-129 -149 -169 0
-131 -151 -171 0
-133 -153 -173 0
-135 -155 -175 0
-137 -157 -177 0
-139 -159 -179 0
-141 -161 -181 0
-143 -163 -183 0
-145 -165 -185 0
-147 -167 -187 0
-149 -169 -189 0
-151 -171 -191 0
-153 -173 -193 0
-155 -175 -195 0
-157 -177 -197 0
-159 -179 -199 0
-161 -181 -201 0
-163 -183 -203 0
-165 -185 -205 0
-167 -187 -207 0
-169 -189 -209 0
-171 -191 -211 0
-173 -193 -213 0
-175 -195 -215 0
-177 -197 -217 0
-179 -199 -219 0
-181 -201 -221 0
-183 -203 -223 0
-185 -205 -225 0
-187 -207 -227 0
-1 -23 -45 0
-3 -25 -47 0
-5 -27 -49 0
-7 -29 -51 0
-9 -31 -53 0
-11 -33 -55 0
-13 -35 -57 0
-15 -37 -59 0
-17 -39 -61 0
-19 -41 -63 0
-21 -43 -65 0
-23 -45 -67 0
-25 -47 -69 0
-27 -49 -71 0
-29 -51 -73 0
-31 -53 -75 0
-33 -55 -77 0
-35 -57 -79 0
-37 -59 -81 0
-39 -61 -83 0
-41 -63 -85 0
-43 -65 -87 0
-45 -67 -89 0
-47 -69 -91 0
-49 -71 -93 0
-51 -73 -95 0
-53 -75 -97 0
-55 -77 -99 0
-57 -79 -101 0
-59 -81 -103 0
-61 -83 -105 0
-63 -85 -107 0
-65 -87 -109 0
-67 -89 -111 0
-69 -91 -113 0
-71 -93 -115 0
-73 -95 -117 0
-75 -97 -119 0
-77 -99 -121 0
-79 -101 -123 0
-81 -103 -125 0
-83 -105 -127 0
-85 -107 -129 0
-87 -109 -131 0
-89 -111 -133 0
-91 -113 -135 0
-93 -115 -137 0
-95 -117 -139 0
-97 -119 -141 0
-99 -121 -143 0
-101 -123 -145 0
-103 -125 -147 0
-105 -127 -149 0
-107 -129 -151 0
-109 -131 -153 0
-111 -133 -155 0
-113 -135 -157 0
-115 -137 -159 0
-117 -139 -161 0
-119 -141 -163 0
-121 -143 -165 0
-123 -145 -167 0
-125 -147 -169 0
-127 -149 -171 0
-129 -151 -173 0
-131 -153 -175 0
-133 -155 -177 0
-135 -157 -179 0
-137 -159 -181 0
-139 -161 -183 0
-141 -163 -185 0
-143 -165 -187 0
-145 -167 -189 0
-147 -169 -191 0
-149 -171 -193 0
-151 -173 -195 0
-153 -175 -197 0
-155 -177 -199 0
-157 -179 -201 0
-159 -181 -203 0
-161 -183 -205 0
-163 -185 -207 0
-165 -187 -209 0
-167 -189 -211 0
-169 -191 -213 0
-171 -193 -215 0
-173 -195 -217 0
-175 -197 -219 0
-177 -199 -221 0
-179 -201 -223 0
-181 -203 -225 0
-183 -205 -227 0
-1 -25 -49 0
-3 -27 -51 0
-5 -29 -53 0
-7 -31 -55 0
-9 -33 -57 0
-11 -35 -59 0
-13 -37 -61 0
-15 -39 -63 0
-17 -41 -65 0
-19 -43 -67 0
-21 -45 -69 0
-23 -47 -71 0
-25 -49 -73 0
-27 -51 -75 0
-29 -53 -77 0
-31 -55 -79 0
-33 -57 -81 0
-35 -59 -83 0
-37 -61 -85 0
-39 -63 -87 0
-41 -65 -89 0
-43 -67 -91 0
-45 -69 -93 0
-47 -71 -95 0
-49 -73 -97 0
-51 -75 -99 0
-53 -77 -101 0
-55 -79 -103 0
-57 -81 -105 0
-59 -83 -107 0
-61 -85 -109 0
-63 -87 -111 0
-65 -89 -113 0
-67 -91 -115 0
-69 -93 -117 0
-71 -95 -119 0
-73 -97 -121 0
-75 -99 -123 0
-77 -101 -125 0
-79 -103 -127 0
-81 -105 -129 0
-83 -107 -131 0
-85 -109 -133 0
-87 -111 -135 0
-89 -113 -137 0
-91 -115 -139 0
-93 -117 -141 0
-95 -119 -143 0
-97 -121 -145 0
-99 -123 -147 0
-101 -125 -149 0
-103 -127 -151 0
-105 -129 -153 0
-107 -131 -155 0
-109 -133 -157 0
-111 -135 -159 0
-113 -137 -161 0
-115 -139 -163 0
-117 -141 -165 0
-119 -143 -167 0
-121 -145 -169 0
-123 -147 -171 0
-125 -149 -173 0
-127 -151 -175 0
-129 -153 -177 0
-131 -155 -179 0
-133 -157 -181 0
-135 -159 -183 0
-137 -161 -185 0
-139 -163 -187 0
-141 -165 -189 0
-143 -167 -191 0
-145 -169 -193 0
-147 -171 -195 0
-149 -173 -197 0
-151 -175 -199 0
-153 -177 -201 0
-155 -179 -203 0
-157 -181 -205 0
-159 -183 -207 0
-161 -185 -209 0
-163 -187 -211 0
-165 -189 -213 0
-167 -191 -215 0
-169 -193 -217 0
-171 -195 -219 0
-173 -197 -221 0
-175 -199 -223 0
-177 -201 -225 0
-179 -203 -227 0
-1 -27 -53 0
-3 -29 -55 0
-5 -31 -57 0
-7 -33 -59 0
-9 -35 -61 0
-11 -37 -63 0
-13 -39 -65 0
-15 -41 -67 0
-17 -43 -69 0
-19 -45 -71 0
-21 -47 -73 0
-23 -49 -75 0
-25 -51 -77 0
-27 -53 -79 0
-29 -55 -81 0
-31 -57 -83 0
-33 -59 -85 0
-35 -61 -87 0
-37 -63 -89 0
-39 -65 -91 0
-41 -67 -93 0
-43 -69 -95 0
-45 -71 -97 0
-47 -73 -99 0
-49 -75 -101 0
-51 -77 -103 0
-53 -79 -105 0
-55 -81 -107 0
-57 -83 -109 0
-59 -85 -111 0
-61 -87 -113 0
-63 -89 -115 0
-65 -91 -117 0
-67 -93 -119 0
-69 -95 -121 0
-71 -97 -123 0
-73 -99 -125 0
-75 -101 -127 0
-77 -103 -129 0
-79 -105 -131 0
-81 -107 -133 0
-83 -109 -135 0
-85 -111 -137 0
-87 -113 -139 0
-89 -115 -141 0
-91 -117 -143 0
-93 -119 -145 0
-95 -121 -147 0
-97 -123 -149 0
-99 -125 -151 0
-101 -127 -153 0
-103 -129 -155 0
-105 -131 -157 0
-107 -133 -159 0
-109 -135 -161 0
-111 -137 -163 0
-113 -139 -165 0
-115 -141 -167 0
-117 -143 -169 0
-119 -145 -171 0
-121 -147 -173 0
-123 -149 -175 0
-125 -151 -177 0
-127 -153 -179 0
-129 -155 -181 0
-131 -157 -183 0
-133 -159 -185 0
-135 -161 -187 0
-137 -163 -189 0
-139 -165 -191 0
-141 -167 -193 0
-143 -169 -195 0
-145 -171 -197 0
-147 -173 -199 0
-149 -175 -201 0
-151 -177 -203 0
-153 -179 -205 0
-155 -181 -207 0
-157 -183 -209 0
-159 -185 -211 0
-161 -187 -213 0
-163 -189 -215 0
-165 -191 -217 0
-167 -193 -219 0
-169 -195 -221 0
-171 -197 -223 0
-173 -199 -225 0
-175 -201 -227 0
-1 -29 -57 0
-3 -31 -59 0
-5 -33 -61 0
-7 -35 -63 0
-9 -37 -65 0
-11 -39 -67 0
-13 -41 -69 0
-15 -43 -71 0
-17 -45 -73 0
-19 -47 -75 0
-21 -49 -77 0
-23 -51 -79 0
-25 -53 -81 0
-27 -55 -83 0
-29 -57 -85 0
-31 -59 -87 0
-33 -61 -89 0
-35 -63 -91 0
-37 -65 -93 0
-39 -67 -95 0
-41 -69 -97 0
-43 -71 -99 0
-45 -73 -101 0
-47 -75 -103 0
-49 -77 -105 0
-51 -79 -107 0
-53 -81 -109 0
-55 -83 -111 0
-57 -85 -113 0
-59 -87 -115 0
-61 -89 -117 0
-63 -91 -119 0
-65 -93 -121 0
-67 -95 -123 0
-69 -97 -125 0
-71 -99 -127 0
-73 -101 -129 0
-75 -103 -131 0
-77 -105 -133 0
-79 -107 -135 0
-81 -109 -137 0
-83 -111 -139 0
-85 -113 -141 0
-87 -115 -143 0
-89 -117 -145 0
-91 -119 -147 0
-93 -121 -149 0
-95 -123 -151 0
-97 -125 -153 0
-99 -127 -155 0
-101 -129 -157 0
-103 -131 -159 0
-105 -133 -161 0
-107 -135 -163 0
-109 -137 -165 0
-111 -139 -167 0
-113 -141 -169 0
-115 -143 -171 0
-117 -145 -173 0
-119 -147 -175 0
-121 -149 -177 0
-123 -151 -179 0
-125 -153 -181 0
-127 -155 -183 0
-129 -157 -185 0
-131 -159 -187 0
-133 -161 -189 0
-135 -163 -191 0
-137 -165 -193 0
-139 -167 -195 0
-141 -169 -197 0
-143 -171 -199 0
-145 -173 -201 0
-147 -175 -203 0
-149 -177 -205 0
-151 -179 -207 0
-153 -181 -209 0
-155 -183 -211 0
-157 -185 -213 0
-159 -187 -215 0
-161 -189 -217 0
-163 -191 -219 0
-165 -193 -221 0
-167 -195 -223 0
-169 -197 -225 0
-171 -199 -227 0
-1 -31 -61 0
-3 -33 -63 0
-5 -35 -65 0
-7 -37 -67 0
-9 -39 -69 0
-11 -41 -71 0
-13 -43 -73 0
-15 -45 -75 0
-17 -47 -77 0
-19 -49 -79 0
-21 -51 -81 0
-23 -53 -83 0
-25 -55 -85 0
-27 -57 -87 0
-29 -59 -89 0
-31 -61 -91 0
-33 -63 -93 0
-35 -65 -95 0
-37 -67 -97 0
-39 -69 -99 0
-41 -71 -101 0
-43 -73 -103 0
-45 -75 -105 0
-47 -77 -107 0
-49 -79 -109 0
-51 -81 -111 0
-53 -83 -113 0
-55 -85 -115 0
-57 -87 -117 0
-59 -89 -119 0
-61 -91 -121 0
-63 -93 -123 0
-65 -95 -125 0
-67 -97 -127 0
-69 -99 -129 0
-71 -101 -131 0
-73 -103 -133 0
-75 -105 -135 0
-77 -107 -137 0
-79 -109 -139 0
-81 -111 -141 0
-83 -113 -143 0
-85 -115 -145 0
-87 -117 -147 0
-89 -119 -149 0
-91 -121 -151 0
-93 -123 -153 0
-95 -125 -155 0
-97 -127 -157 0
-99 -129 -159 0
-101 -131 -161 0
-103 -133 -163 0
-105 -135 -165 0
-107 -137 -167 0
-109 -139 -169 0
-111 -141 -171 0
-113 -143 -173 0
-115 -145 -175 0
-117 -147 -177 0
-119 -149 -179 0
-121 -151 -181 0
-123 -153 -183 0
-125 -155 -185 0
-127 -157 -187 0
-129 -159 -189 0
-131 -161 -191 0
-133 -163 -193 0
-135 -165 -195 0
-137 -167 -197 0
-139 -169 -199 0
-141 -171 -201 0
-143 -173 -203 0
-145 -175 -205 0
-147 -177 -207 0
-149 -179 -209 0
-151 -181 -211 0
-153 -183 -213 0
-155 -185 -215 0
-157 -187 -217 0
-159 -189 -219 0
-161 -191 -221 0
-163 -193 -223 0
-165 -195 -225 0
-167 -197 -227 0
-1 -33 -65 0
-3 -35 -67 0
-5 -37 -69 0
-7 -39 -71 0
-9 -41 -73 0
-11 -43 -75 0
-13 -45 -77 0
-15 -47 -79 0
-17 -49 -81 0
-19 -51 -83 0
-21 -53 -85 0
-23 -55 -87 0
-25 -57 -89 0
-27 -59 -91 0
-29 -61 -93 0
-31 -63 -95 0
-33 -65 -97 0
-35 -67 -99 0
-37 -69 -101 0
-39 -71 -103 0
-41 -73 -105 0
-43 -75 -107 0
-45 -77 -109 0
-47 -79 -111 0
-49 -81 -113 0
-51 -83 -115 0
-53 -85 -117 0
-55 -87 -119 0
-57 -89 -121 0
-59 -91 -123 0
-61 -93 -125 0
-63 -95 -127 0
-65 -97 -129 0
-67 -99 -131 0
-69 -101 -133 0
-71 -103 -135 0
-73 -105 -137 0
-75 -107 -139 0
-77 -109 -141 0
-79 -111 -143 0
-81 -113 -145 0
-83 -115 -147 0
-85 -117 -149 0
-87 -119 -151 0
-89 -121 -153 0
-91 -123 -155 0
-93 -125 -157 0
-95 -127 -159 0
-97 -129 -161 0
-99 -131 -163 0
-101 -133 -165 0
-103 -135 -167 0
-105 -137 -169 0
-107 -139 -171 0
-109 -141 -173 0
-111 -143 -175 0
-113 -145 -177 0
-115 -147 -179 0
-117 -149 -181 0
-119 -151 -183 0
-121 -153 -185 0
-123 -155 -187 0
-125 -157 -189 0
-127 -159 -191 0
-129 -161 -193 0
-131 -163 -195 0
-133 -165 -197 0
-135 -167 -199 0
-137 -169 -201 0
-139 -171 -203 0
-141 -173 -205 0
-143 -175 -207 0
-145 -177 -209 0
-147 -179 -211 0
-149 -181 -213 0
-151 -183 -215 0
-153 -185 -217 0
-155 -187 -219 0
-157 -189 -221 0
-159 -191 -223 0
-161 -193 -225 0
-163 -195 -227 0
-1 -35 -69 0
-3 -37 -71 0
-5 -39 -73 0
-7 -41 -75 0
-9 -43 -77 0
-11 -45 -79 0
-13 -47 -81 0
-15 -49 -83 0
-17 -51 -85 0
-19 -53 -87 0
-21 -55 -89 0
-23 -57 -91 0
-25 -59 -93 0
-27 -61 -95 0
-29 -63 -97 0
-31 -65 -99 0
-33 -67 -101 0
-35 -69 -103 0
-37 -71 -105 0
-39 -73 -107 0
-41 -75 -109 0
-43 -77 -111 0
-45 -79 -113 0
-47 -81 -115 0
-49 -83 -117 0
-51 -85 -119 0
-53 -87 -121 0
-55 -89 -123 0
-57 -91 -125 0
-59 -93 -127 0
-61 -95 -129 0
-63 -97 -131 0
-65 -99 -133 0
-67 -101 -135 0
-69 -103 -137 0
-71 -105 -139 0
-73 -107 -141 0
-75 -109 -143 0
-77 -111 -145 0
-79 -113 -147 0
-81 -115 -149 0
-83 -117 -151 0
-85 -119 -153 0
-87 -121 -155 0
-89 -123 -157 0
-91 -125 -159 0
-93 -127 -161 0
-95 -129 -163 0
-97 -131 -165 0
-99 -133 -167 0
-101 -135 -169 0
-103 -137 -171 0
-105 -139 -173 0
-107 -141 -175 0
-109 -143 -177 0
-111 -145 -179 0
-113 -147 -181 0
-115 -149 -183 0
-117 -151 -185 0
-119 -153 -187 0
-121 -155 -189 0
-123 -157 -191 0
-125 -159 -193 0
-127 -161 -195 0
-129 -163 -197 0
-131 -165 -199 0
-133 -167 -201 0
-135 -169 -203 0
-137 -171 -205 0
-139 -173 -207 0
-141 -175 -209 0
-143 -177 -211 0
-145 -179 -213 0
-147 -181 -215 0
-149 -183 -217 0
-151 -185 -219 0
-153 -187 -221 0
-155 -189 -223 0
-157 -191 -225 0
-159 -193 -227 0
-1 -37 -73 0
-3 -39 -75 0
-5 -41 -77 0
-7 -43 -79 0
-9 -45 -81 0
-11 -47 -83 0
-13 -49 -85 0
-15 -51 -87 0
-17 -53 -89 0
-19 -55 -91 0
-21 -57 -93 0
-23 -59 -95 0
-25 -61 -97 0
-27 -63 -99 0
-29 -65 -101 0
-31 -67 -103 0
-33 -69 -105 0
-35 -71 -107 0
-37 -73 -109 0
-39 -75 -111 0
-41 -77 -113 0
-43 -79 -115 0
-45 -81 -117 0
-47 -83 -119 0
-49 -85 -121 0
-51 -87 -123 0
-53 -89 -125 0
-55 -91 -127 0
-57 -93 -129 0
-59 -95 -131 0
-61 -97 -133 0
-63 -99 -135 0
-65 -101 -137 0
-67 -103 -139 0
-69 -105 -141 0
-71 -107 -143 0
-73 -109 -145 0
-75 -111 -147 0
-77 -113 -149 0
-79 -115 -151 0
-81 -117 -153 0
-83 -119 -155 0
-85 -121 -157 0
-87 -123 -159 0
-89 -125 -161 0
-91 -127 -163 0
-93 -129 -165 0
-95 -131 -167 0
-97 -133 -169 0
-99 -135 -171 0
-101 -137 -173 0
-103 -139 -175 0
-105 -141 -177 0
-107 -143 -179 0
-109 -145 -181 0
-111 -147 -183 0
-113 -149 -185 0
-115 -151 -187 0
-117 -153 -189 0
-119 -155 -191 0
-121 -157 -193 0
-123 -159 -195 0
-125 -161 -197 0
-127 -163 -199 0
-129 -165 -201 0
-131 -167 -203 0
-133 -169 -205 0
-135 -171 -207 0
-137 -173 -209 0
-139 -175 -211 0
-141 -177 -213 0
-143 -179 -215 0
-145 -181 -217 0
-147 -183 -219 0
-149 -185 -221 0
-151 -187 -223 0
-153 -189 -225 0
-155 -191 -227 0
-1 -39 -77 0
-3 -41 -79 0
-5 -43 -81 0
-7 -45 -83 0
-9 -47 -85 0
-11 -49 -87 0
-13 -51 -89 0
-15 -53 -91 0
-17 -55 -93 0
-19 -57 -95 0
-21 -59 -97 0
-23 -61 -99 0
-25 -63 -101 0
-27 -65 -103 0
-29 -67 -105 0
-31 -69 -107 0
-33 -71 -109 0
-35 -73 -111 0
-37 -75 -113 0
-39 -77 -115 0
-41 -79 -117 0
-43 -81 -119 0
-45 -83 -121 0
-47 -85 -123 0
-49 -87 -125 0
-51 -89 -127 0
-53 -91 -129 0
-55 -93 -131 0
-57 -95 -133 0
-59 -97 -135 0
-61 -99 -137 0
-63 -101 -139 0
-65 -103 -141 0
-67 -105 -143 0
-69 -107 -145 0
-71 -109 -147 0
-73 -111 -149 0
-75 -113 -151 0
-77 -115 -153 0
-79 -117 -155 0
-81 -119 -157 0
-83 -121 -159 0
-85 -123 -161 0
-87 -125 -163 0
-89 -127 -165 0
-91 -129 -167 0
-93 -131 -169 0
-95 -133 -171 0
-97 -135 -173 0
-99 -137 -175 0
-101 -139 -177 0
-103 -141 -179 0
-105 -143 -181 0
-107 -145 -183 0
-109 -147 -185 0
-111 -149 -187 0
-113 -151 -189 0
-115 -153 -191 0
-117 -155 -193 0
-119 -157 -195 0
-121 -159 -197 0
-123 -161 -199 0
-125 -163 -201 0
-127 -165 -203 0
-129 -167 -205 0
-131 -169 -207 0
-133 -171 -209 0
-135 -173 -211 0
-137 -175 -213 0
-139 -177 -215 0
-141 -179 -217 0
-143 -181 -219 0
-145 -183 -221 0
-147 -185 -223 0
-149 -187 -225 0
-151 -189 -227 0
-1 -41 -81 0
-3 -43 -83 0
-5 -45 -85 0
-7 -47 -87 0
-9 -49 -89 0
-11 -51 -91 0
-13 -53 -93 0
-15 -55 -95 0
-17 -57 -97 0
-19 -59 -99 0
-21 -61 -101 0
-23 -63 -103 0
-25 -65 -105 0
-27 -67 -107 0
-29 -69 -109 0
-31 -71 -111 0
-33 -73 -113 0
-35 -75 -115 0
-37 -77 -117 0
-39 -79 -119 0
-41 -81 -121 0
-43 -83 -123 0
-45 -85 -125 0
-47 -87 -127 0
-49 -89 -129 0
-51 -91 -131 0
-53 -93 -133 0
-55 -95 -135 0
-57 -97 -137 0
-59 -99 -139 0
-61 -101 -141 0
-63 -103 -143 0
-65 -105 -145 0
-67 -107 -147 0
-69 -109 -149 0
-71 -111 -151 0
-73 -113 -153 0
-75 -115 -155 0
-77 -117 -157 0
-79 -119 -159 0
-81 -121 -161 0
-83 -123 -163 0
-85 -125 -165 0
-87 -127 -167 0
-89 -129 -169 0
-91 -131 -171 0
-93 -133 -173 0
-95 -135 -175 0
-97 -137 -177 0
-99 -139 -179 0
-101 -141 -181 0
-103 -143 -183 0
-105 -145 -185 0
-107 -147 -187 0
-109 -149 -189 0
-111 -151 -191 0
-113 -153 -193 0
-115 -155 -195 0
-117 -157 -197 0
-119 -159 -199 0
-121 -161 -201 0
-123 -163 -203 0
-125 -165 -205 0
-127 -167 -207 0
-129 -169 -209 0
-131 -171 -211 0
-133 -173 -213 0
-135 -175 -215 0
-137 -177 -217 0
-139 -179 -219 0
-141 -181 -221 0
-143 -183 -223 0
-145 -185 -225 0
-147 -187 -227 0
-1 -43 -85 0
-3 -45 -87 0
-5 -47 -89 0
-7 -49 -91 0
-9 -51 -93 0
-11 -53 -95 0
-13 -55 -97 0
-15 -57 -99 0
-17 -59 -101 0
-19 -61 -103 0
-21 -63 -105 0
-23 -65 -107 0
-25 -67 -109 0
-27 -69 -111 0
-29 -71 -113 0
-31 -73 -115 0
-33 -75 -117 0
-35 -77 -119 0
-37 -79 -121 0
-39 -81 -123 0
-41 -83 -125 0
-43 -85 -127 0
-45 -87 -129 0
-47 -89 -131 0
-49 -91 -133 0
-51 -93 -135 0
-53 -95 -137 0
-55 -97 -139 0
-57 -99 -141 0
-59 -101 -143 0
-61 -103 -145 0
-63 -105 -147 0
-65 -107 -149 0
-67 -109 -151 0
-69 -111 -153 0
-71 -113 -155 0
-73 -115 -157 0
-75 -117 -159 0
-77 -119 -161 0
-79 -121 -163 0
-81 -123 -165 0
-83 -125 -167 0
-85 -127 -169 0
-87 -129 -171 0
-89 -131 -173 0
-91 -133 -175 0
-93 -135 -177 0
-95 -137 -179 0
-97 -139 -181 0
-99 -141 -183 0
-101 -143 -185 0
-103 -145 -187 0
-105 -147 -189 0
-107 -149 -191 0
-109 -151 -193 0
-111 -153 -195 0
-113 -155 -197 0
-115 -157 -199 0
-117 -159 -201 0
-119 -161 -203 0
-121 -163 -205 0
-123 -165 -207 0
-125 -167 -209 0
-127 -169 -211 0
-129 -171 -213 0
-131 -173 -215 0
-133 -175 -217 0
-135 -177 -219 0
-137 -179 -221 0
-139 -181 -223 0
-141 -183 -225 0
-143 -185 -227 0
-1 -45 -89 0
-3 -47 -91 0
-5 -49 -93 0
-7 -51 -95 0
-9 -53 -97 0
-11 -55 -99 0
-13 -57 -101 0
-15 -59 -103 0
-17 -61 -105 0
-19 -63 -107 0
-21 -65 -109 0
-23 -67 -111 0
-25 -69 -113 0
-27 -71 -115 0
-29 -73 -117 0
-31 -75 -119 0
-33 -77 -121 0
-35 -79 -123 0
-37 -81 -125 0
-39 -83 -127 0
-41 -85 -129 0
-43 -87 -131 0
-45 -89 -133 0
-47 -91 -135 0
-49 -93 -137 0
-51 -95 -139 0
-53 -97 -141 0
-55 -99 -143 0
-57 -101 -145 0
-59 -103 -147 0
-61 -105 -149 0
-63 -107 -151 0
-65 -109 -153 0
-67 -111 -155 0
-69 -113 -157 0
-71 -115 -159 0
-73 -117 -161 0
-75 -119 -163 0
-77 -121 -165 0
-79 -123 -167 0
-81 -125 -169 0
-83 -127 -171 0
-85 -129 -173 0
-87 -131 -175 0
-89 -133 -177 0
-91 -135 -179 0
-93 -137 -181 0
-95 -139 -183 0
-97 -141 -185 0
-99 -143 -187 0
-101 -145 -189 0
-103 -147 -191 0
-105 -149 -193 0
-107 -151 -195 0
-109 -153 -197 0
-111 -155 -199 0
-113 -157 -201 0
-115 -159 -203 0
-117 -161 -205 0
-119 -163 -207 0
-121 -165 -209 0
-123 -167 -211 0
-125 -169 -213 0
-127 -171 -215 0
-129 -173 -217 0
-131 -175 -219 0
-133 -177 -221 0
-135 -179 -223 0
-137 -181 -225 0
-139 -183 -227 0
-1 -47 -93 0
-3 -49 -95 0
-5 -51 -97 0
-7 -53 -99 0
-9 -55 -101 0
-11 -57 -103 0
-13 -59 -105 0
-15 -61 -107 0
-17 -63 -109 0
-19 -65 -111 0
-21 -67 -113 0
-23 -69 -115 0
-25 -71 -117 0
-27 -73 -119 0
-29 -75 -121 0
-31 -77 -123 0
-33 -79 -125 0
-35 -81 -127 0
-37 -83 -129 0
-39 -85 -131 0
-41 -87 -133 0
-43 -89 -135 0
-45 -91 -137 0
-47 -93 -139 0
-49 -95 -141 0
-51 -97 -143 0
-53 -99 -145 0
-55 -101 -147 0
-57 -103 -149 0
-59 -105 -151 0
-61 -107 -153 0
-63 -109 -155 0
-65 -111 -157 0
-67 -113 -159 0
-69 -115 -161 0
-71 -117 -163 0
-73 -119 -165 0
-75 -121 -167 0
-77 -123 -169 0
-79 -125 -171 0
-81 -127 -173 0
-83 -129 -175 0
-85 -131 -177 0
-87 -133 -179 0
-89 -135 -181 0
-91 -137 -183 0
-93 -139 -185 0
-95 -141 -187 0
-97 -143 -189 0
-99 -145 -191 0
-101 -147 -193 0
-103 -149 -195 0
-105 -151 -197 0
-107 -153 -199 0
-109 -155 -201 0
-111 -157 -203 0
-113 -159 -205 0
-115 -161 -207 0
-117 -163 -209 0
-119 -165 -211 0
-121 -167 -213 0
-123 -169 -215 0
-125 -171 -217 0
-127 -173 -219 0
-129 -175 -221 0
-131 -177 -223 0
-133 -179 -225 0
-135 -181 -227 0
-1 -49 -97 0
-3 -51 -99 0
-5 -53 -101 0
-7 -55 -103 0
-9 -57 -105 0
-11 -59 -107 0
-13 -61 -109 0
-15 -63 -111 0
-17 -65 -113 0
-19 -67 -115 0
-21 -69 -117 0
-23 -71 -119 0
-25 -73 -121 0
-27 -75 -123 0
-29 -77 -125 0
-31 -79 -127 0
-33 -81 -129 0
-35 -83 -131 0
-37 -85 -133 0
-39 -87 -135 0
-41 -89 -137 0
-43 -91 -139 0
-45 -93 -141 0
-47 -95 -143 0
-49 -97 -145 0
-51 -99 -147 0
-53 -101 -149 0
-55 -103 -151 0
-57 -105 -153 0
-59 -107 -155 0
-61 -109 -157 0
-63 -111 -159 0
-65 -113 -161 0
-67 -115 -163 0
-69 -117 -165 0
-71 -119 -167 0
-73 -121 -169 0
-75 -123 -171 0
-77 -125 -173 0
-79 -127 -175 0
-81 -129 -177 0
-83 -131 -179 0
-85 -133 -181 0
-87 -135 -183 0
-89 -137 -185 0
-91 -139 -187 0
-93 -141 -189 0
-95 -143 -191 0
-97 -145 -193 0
-99 -147 -195 0
-101 -149 -197 0
-103 -151 -199 0
-105 -153 -201 0
-107 -155 -203 0
-109 -157 -205 0
-111 -159 -207 0
-113 -161 -209 0
-115 -163 -211 0
-117 -165 -213 0
-119 -167 -215 0
-121 -169 -217 0
-123 -171 -219 0
-125 -173 -221 0
-127 -175 -223 0
-129 -177 -225 0
-131 -179 -227 0
-1 -51 -101 0
-3 -53 -103 0
-5 -55 -105 0
-7 -57 -107 0
-9 -59 -109 0
-11 -61 -111 0
-13 -63 -113 0
-15 -65 -115 0
-17 -67 -117 0
-19 -69 -119 0
-21 -71 -121 0
-23 -73 -123 0
-25 -75 -125 0
-27 -77 -127 0
-29 -79 -129 0
-31 -81 -131 0
-33 -83 -133 0
-35 -85 -135 0
-37 -87 -137 0
-39 -89 -139 0
-41 -91 -141 0
-43 -93 -143 0
-45 -95 -145 0
-47 -97 -147 0
-49 -99 -149 0
-51 -101 -151 0
-53 -103 -153 0
-55 -105 -155 0
-57 -107 -157 0
-59 -109 -159 0
-61 -111 -161 0
-63 -113 -163 0
-65 -115 -165 0
-67 -117 -167 0
-69 -119 -169 0
-71 -121 -171 0
-73 -123 -173 0
-75 -125 -175 0
-77 -127 -177 0
-79 -129 -179 0
-81 -131 -181 0
-83 -133 -183 0
-85 -135 -185 0
-87 -137 -187 0
-89 -139 -189 0
-91 -141 -191 0
-93 -143 -193 0
-95 -145 -195 0
-97 -147 -197 0
-99 -149 -199 0
-101 -151 -201 0
-103 -153 -203 0
-105 -155 -205 0
-107 -157 -207 0
-109 -159 -209 0
-111 -161 -211 0
-113 -163 -213 0
-115 -165 -215 0
-117 -167 -217 0
-119 -169 -219 0
-121 -171 -221 0
-123 -173 -223 0
-125 -175 -225 0
-127 -177 -227 0
-1 -53 -105 0
-3 -55 -107 0
-5 -57 -109 0
-7 -59 -111 0
-9 -61 -113 0
-11 -63 -115 0
-13 -65 -117 0
-15 -67 -119 0
-17 -69 -121 0
-19 -71 -123 0
-21 -73 -125 0
-23 -75 -127 0
-25 -77 -129 0
-27 -79 -131 0
-29 -81 -133 0
-31 -83 -135 0
-33 -85 -137 0
-35 -87 -139 0
-37 -89 -141 0
-39 -91 -143 0
-41 -93 -145 0
-43 -95 -147 0
-45 -97 -149 0
-47 -99 -151 0
-49 -101 -153 0
-51 -103 -155 0
-53 -105 -157 0
-55 -107 -159 0
-57 -109 -161 0
-59 -111 -163 0
-61 -113 -165 0
-63 -115 -167 0
-65 -117 -169 0
-67 -119 -171 0
-69 -121 -173 0
-71 -123 -175 0
-73 -125 -177 0
-75 -127 -179 0
-77 -129 -181 0
-79 -131 -183 0
-81 -133 -185 0
-83 -135 -187 0
-85 -137 -189 0
-87 -139 -191 0
-89 -141 -193 0
-91 -143 -195 0
-93 -145 -197 0
-95 -147 -199 0
-97 -149 -201 0
-99 -151 -203 0
-101 -153 -205 0
-103 -155 -207 0
-105 -157 -209 0
-107 -159 -211 0
-109 -161 -213 0
-111 -163 -215 0
-113 -165 -217 0
-115 -167 -219 0
-117 -169 -221 0
-119 -171 -223 0
-121 -173 -225 0
-123 -175 -227 0
-1 -55 -109 0
-3 -57 -111 0
-5 -59 -113 0
-7 -61 -115 0
-9 -63 -117 0
-11 -65 -119 0
-13 -67 -121 0
-15 -69 -123 0
-17 -71 -125 0
-19 -73 -127 0
-21 -75 -129 0
-23 -77 -131 0
-25 -79 -133 0
-27 -81 -135 0
-29 -83 -137 0
-31 -85 -139 0
-33 -87 -141 0
-35 -89 -143 0
-37 -91 -145 0
-39 -93 -147 0
-41 -95 -149 0
-43 -97 -151 0
-45 -99 -153 0
-47 -101 -155 0
-49 -103 -157 0
-51 -105 -159 0
-53 -107 -161 0
-55 -109 -163 0
-57 -111 -165 0
-59 -113 -167 0
-61 -115 -169 0
-63 -117 -171 0
-65 -119 -173 0
-67 -121 -175 0
-69 -123 -177 0
-71 -125 -179 0
-73 -127 -181 0
-75 -129 -183 0
-77 -131 -185 0
-79 -133 -187 0
-81 -135 -189 0
-83 -137 -191 0
-85 -139 -193 0
-87 -141 -195 0
-89 -143 -197 0
-91 -145 -199 0
-93 -147 -201 0
-95 -149 -203 0
-97 -151 -205 0
-99 -153 -207 0
-101 -155 -209 0
-103 -157 -211 0
-105 -159 -213 0
-107 -161 -215 0
-109 -163 -217 0
-111 -165 -219 0
-113 -167 -221 0
-115 -169 -223 0
-117 -171 -225 0
-119 -173 -227 0
-1 -57 -113 0
-3 -59 -115 0
-5 -61 -117 0
-7 -63 -119 0
-9 -65 -121 0
-11 -67 -123 0
-13 -69 -125 0
-15 -71 -127 0
-17 -73 -129 0
-19 -75 -131 0
-21 -77 -133 0
-23 -79 -135 0
-25 -81 -137 0
-27 -83 -139 0
-29 -85 -141 0
-31 -87 -143 0
-33 -89 -145 0
-35 -91 -147 0
-37 -93 -149 0
-39 -95 -151 0
-41 -97 -153 0
-43 -99 -155 0
-45 -101 -157 0
-47 -103 -159 0
-49 -105 -161 0
-51 -107 -163 0
-53 -109 -165 0
-55 -111 -167 0
-57 -113 -169 0
-59 -115 -171 0
-61 -117 -173 0
-63 -119 -175 0
-65 -121 -177 0
-67 -123 -179 0
-69 -125 -181 0
-71 -127 -183 0
-73 -129 -185 0
-75 -131 -187 0
-77 -133 -189 0
-79 -135 -191 0
-81 -137 -193 0
-83 -139 -195 0
-85 -141 -197 0
-87 -143 -199 0
-89 -145 -201 0
-91 -147 -203 0
-93 -149 -205 0
-95 -151 -207 0
-97 -153 -209 0
-99 -155 -211 0
-101 -157 -213 0
-103 -159 -215 0
-105 -161 -217 0
-107 -163 -219 0
-109 -165 -221 0
-111 -167 -223 0
-113 -169 -225 0
-115 -171 -227 0
-1 -59 -117 0
-3 -61 -119 0
-5 -63 -121 0
-7 -65 -123 0
-9 -67 -125 0
-11 -69 -127 0
-13 -71 -129 0
-15 -73 -131 0
-17 -75 -133 0
-19 -77 -135 0
-21 -79 -137 0
-23 -81 -139 0
-25 -83 -141 0
-27 -85 -143 0
-29 -87 -145 0
-31 -89 -147 0
-33 -91 -149 0
-35 -93 -151 0
-37 -95 -153 0
-39 -97 -155 0
-41 -99 -157 0
-43 -101 -159 0
-45 -103 -161 0
-47 -105 -163 0
-49 -107 -165 0
-51 -109 -167 0
-53 -111 -169 0
-55 -113 -171 0
-57 -115 -173 0
-59 -117 -175 0
-61 -119 -177 0
-63 -121 -179 0
-65 -123 -181 0
-67 -125 -183 0
-69 -127 -185 0
-71 -129 -187 0
-73 -131 -189 0
-75 -133 -191 0
-77 -135 -193 0
-79 -137 -195 0
-81 -139 -197 0
-83 -141 -199 0
-85 -143 -201 0
-87 -145 -203 0
-89 -147 -205 0
-91 -149 -207 0
-93 -151 -209 0
-95 -153 -211 0
-97 -155 -213 0
-99 -157 -215 0
-101 -159 -217 0
-103 -161 -219 0
-105 -163 -221 0
-107 -165 -223 0
-109 -167 -225 0
-111 -169 -227 0
-1 -61 -121 0
-3 -63 -123 0
-5 -65 -125 0
-7 -67 -127 0
-9 -69 -129 0
-11 -71 -131 0
-13 -73 -133 0
-15 -75 -135 0
-17 -77 -137 0
-19 -79 -139 0
-21 -81 -141 0
-23 -83 -143 0
-25 -85 -145 0
-27 -87 -147 0
-29 -89 -149 0
-31 -91 -151 0
-33 -93 -153 0
-35 -95 -155 0
-37 -97 -157 0
-39 -99 -159 0
-41 -101 -161 0
-43 -103 -163 0
-45 -105 -165 0
-47 -107 -167 0
-49 -109 -169 0
-51 -111 -171 0
-53 -113 -173 0
-55 -115 -175 0
-57 -117 -177 0
-59 -119 -179 0
-61 -121 -181 0
-63 -123 -183 0
-65 -125 -185 0
-67 -127 -187 0
-69 -129 -189 0
-71 -131 -191 0
-73 -133 -193 0
-75 -135 -195 0
-77 -137 -197 0
-79 -139 -199 0
-81 -141 -201 0
-83 -143 -203 0
-85 -145 -205 0
-87 -147 -207 0
-89 -149 -209 0
-91 -151 -211 0
-93 -153 -213 0
-95 -155 -215 0
-97 -157 -217 0
-99 -159 -219 0
-101 -161 -221 0
-103 -163 -223 0
-105 -165 -225 0
-107 -167 -227 0
-1 -63 -125 0
-3 -65 -127 0
-5 -67 -129 0
-7 -69 -131 0
-9 -71 -133 0
-11 -73 -135 0
-13 -75 -137 0
-15 -77 -139 0
-17 -79 -141 0
-19 -81 -143 0
-21 -83 -145 0
-23 -85 -147 0
-25 -87 -149 0
-27 -89 -151 0
-29 -91 -153 0
-31 -93 -155 0
-33 -95 -157 0
-35 -97 -159 0
-37 -99 -161 0
-39 -101 -163 0
-41 -103 -165 0
-43 -105 -167 0
-45 -107 -169 0
-47 -109 -171 0
-49 -111 -173 0
-51 -113 -175 0
-53 -115 -177 0
-55 -117 -179 0
-57 -119 -181 0
-59 -121 -183 0
-61 -123 -185 0
-63 -125 -187 0
-65 -127 -189 0
-67 -129 -191 0
-69 -131 -193 0
-71 -133 -195 0
-73 -135 -197 0
-75 -137 -199 0
-77 -139 -201 0
-79 -141 -203 0
-81 -143 -205 0
-83 -145 -207 0
-85 -147 -209 0
-87 -149 -211 0
-89 -151 -213 0
-91 -153 -215 0
-93 -155 -217 0
-95 -157 -219 0
-97 -159 -221 0
-99 -161 -223 0
-101 -163 -225 0
-103 -165 -227 0
-1 -65 -129 0
-3 -67 -131 0
-5 -69 -133 0
-7 -71 -135 0
-9 -73 -137 0
-11 -75 -139 0
-13 -77 -141 0
-15 -79 -143 0
-17 -81 -145 0
-19 -83 -147 0
-21 -85 -149 0
-23 -87 -151 0
-25 -89 -153 0
-27 -91 -155 0
-29 -93 -157 0
-31 -95 -159 0
-33 -97 -161 0
-35 -99 -163 0
-37 -101 -165 0
-39 -103 -167 0
-41 -105 -169 0
-43 -107 -171 0
-45 -109 -173 0
-47 -111 -175 0
-49 -113 -177 0
-51 -115 -179 0
-53 -117 -181 0
-55 -119 -183 0
-57 -121 -185 0
-59 -123 -187 0
-61 -125 -189 0
-63 -127 -191 0
-65 -129 -193 0
-67 -131 -195 0
-69 -133 -197 0
-71 -135 -199 0
-73 -137 -201 0
-75 -139 -203 0
-77 -141 -205 0
-79 -143 -207 0
-81 -145 -209 0
-83 -147 -211 0
-85 -149 -213 0
-87 -151 -215 0
-89 -153 -217 0
-91 -155 -219 0
-93 -157 -221 0
-95 -159 -223 0
-97 -161 -225 0
-99 -163 -227 0
-1 -67 -133 0
-3 -69 -135 0
-5 -71 -137 0
-7 -73 -139 0
-9 -75 -141 0
-11 -77 -143 0
-13 -79 -145 0
-15 -81 -147 0
-17 -83 -149 0
-19 -85 -151 0
-21 -87 -153 0
-23 -89 -155 0
-25 -91 -157 0
-27 -93 -159 0
-29 -95 -161 0
-31 -97 -163 0
-33 -99 -165 0
-35 -101 -167 0
-37 -103 -169 0
-39 -105 -171 0
-41 -107 -173 0
-43 -109 -175 0
-45 -111 -177 0
-47 -113 -179 0
-49 -115 -181 0
-51 -117 -183 0
-53 -119 -185 0
-55 -121 -187 0
-57 -123 -189 0
-59 -125 -191 0
-61 -127 -193 0
-63 -129 -195 0
-65 -131 -197 0
-67 -133 -199 0
-69 -135 -201 0
-71 -137 -203 0
-73 -139 -205 0
-75 -141 -207 0
-77 -143 -209 0
-79 -145 -211 0
-81 -147 -213 0
-83 -149 -215 0
-85 -151 -217 0
-87 -153 -219 0
-89 -155 -221 0
-91 -157 -223 0
-93 -159 -225 0
-95 -161 -227 0
-1 -69 -137 0
-3 -71 -139 0
-5 -73 -141 0
-7 -75 -143 0
-9 -77 -145 0
-11 -79 -147 0
-13 -81 -149 0
-15 -83 -151 0
-17 -85 -153 0
-19 -87 -155 0
-21 -89 -157 0
-23 -91 -159 0
-25 -93 -161 0
-27 -95 -163 0
-29 -97 -165 0
-31 -99 -167 0
-33 -101 -169 0
-35 -103 -171 0
-37 -105 -173 0
-39 -107 -175 0
-41 -109 -177 0
-43 -111 -179 0
-45 -113 -181 0
-47 -115 -183 0
-49 -117 -185 0
-51 -119 -187 0
-53 -121 -189 0
-55 -123 -191 0
-57 -125 -193 0
-59 -127 -195 0
-61 -129 -197 0
-63 -131 -199 0
-65 -133 -201 0
-67 -135 -203 0
-69 -137 -205 0
-71 -139 -207 0
-73 -141 -209 0
-75 -143 -211 0
-77 -145 -213 0
-79 -147 -215 0
-81 -149 -217 0
-83 -151 -219 0
-85 -153 -221 0
-87 -155 -223 0
-89 -157 -225 0
-91 -159 -227 0
-1 -71 -141 0
-3 -73 -143 0
-5 -75 -145 0
-7 -77 -147 0
-9 -79 -149 0
-11 -81 -151 0
-13 -83 -153 0
-15 -85 -155 0
-17 -87 -157 0
-19 -89 -159 0
-21 -91 -161 0
-23 -93 -163 0
-25 -95 -165 0
-27 -97 -167 0
-29 -99 -169 0
-31 -101 -171 0
-33 -103 -173 0
-35 -105 -175 0
-37 -107 -177 0
-39 -109 -179 0
-41 -111 -181 0
-43 -113 -183 0
-45 -115 -185 0
-47 -117 -187 0
-49 -119 -189 0
-51 -121 -191 0
-53 -123 -193 0
-55 -125 -195 0
-57 -127 -197 0
-59 -129 -199 0
-61 -131 -201 0
-63 -133 -203 0
-65 -135 -205 0
-67 -137 -207 0
-69 -139 -209 0
-71 -141 -211 0
-73 -143 -213 0
-75 -145 -215 0
-77 -147 -217 0
-79 -149 -219 0
-81 -151 -221 0
-83 -153 -223 0
-85 -155 -225 0
-87 -157 -227 0
-1 -73 -145 0
-3 -75 -147 0
-5 -77 -149 0
-7 -79 -151 0
-9 -81 -153 0
-11 -83 -155 0
-13 -85 -157 0
-15 -87 -159 0
-17 -89 -161 0
-19 -91 -163 0
-21 -93 -165 0
-23 -95 -167 0
-25 -97 -169 0
-27 -99 -171 0
-29 -101 -173 0
-31 -103 -175 0
-33 -105 -177 0
-35 -107 -179 0
-37 -109 -181 0
-39 -111 -183 0
-41 -113 -185 0
-43 -115 -187 0
-45 -117 -189 0
-47 -119 -191 0
-49 -121 -193 0
-51 -123 -195 0
-53 -125 -197 0
-55 -127 -199 0
-57 -129 -201 0
-59 -131 -203 0
-61 -133 -205 0
-63 -135 -207 0
-65 -137 -209 0
-67 -139 -211 0
-69 -141 -213 0
-71 -143 -215 0
-73 -145 -217 0
-75 -147 -219 0
-77 -149 -221 0
-79 -151 -223 0
-81 -153 -225 0
-83 -155 -227 0
-1 -75 -149 0
-3 -77 -151 0
-5 -79 -153 0
-7 -81 -155 0
-9 -83 -157 0
-11 -85 -159 0
-13 -87 -161 0
-15 -89 -163 0
-17 -91 -165 0
-19 -93 -167 0
-21 -95 -169 0
-23 -97 -171 0
-25 -99 -173 0
-27 -101 -175 0
-29 -103 -177 0
-31 -105 -179 0
-33 -107 -181 0
-35 -109 -183 0
-37 -111 -185 0
-39 -113 -187 0
-41 -115 -189 0
-43 -117 -191 0
-45 -119 -193 0
-47 -121 -195 0
-49 -123 -197 0
-51 -125 -199 0
-53 -127 -201 0
-55 -129 -203 0
-57 -131 -205 0
-59 -133 -207 0
-61 -135 -209 0
-63 -137 -211 0
-65 -139 -213 0
-67 -141 -215 0
-69 -143 -217 0
-71 -145 -219 0
-73 -147 -221 0
-75 -149 -223 0
-77 -151 -225 0
-79 -153 -227 0
-1 -77 -153 0
-3 -79 -155 0
-5 -81 -157 0
-7 -83 -159 0
-9 -85 -161 0
-11 -87 -163 0
-13 -89 -165 0
-15 -91 -167 0
-17 -93 -169 0
-19 -95 -171 0
-21 -97 -173 0
-23 -99 -175 0
-25 -101 -177 0
-27 -103 -179 0
-29 -105 -181 0
-31 -107 -183 0
-33 -109 -185 0
-35 -111 -187 0
-37 -113 -189 0
-39 -115 -191 0
-41 -117 -193 0
-43 -119 -195 0
-45 -121 -197 0
-47 -123 -199 0
-49 -125 -201 0
-51 -127 -203 0
-53 -129 -205 0
-55 -131 -207 0
-57 -133 -209 0
-59 -135 -211 0
-61 -137 -213 0
-63 -139 -215 0
-65 -141 -217 0
-67 -143 -219 0
-69 -145 -221 0
-71 -147 -223 0
-73 -149 -225 0
-75 -151 -227 0
-1 -79 -157 0
-3 -81 -159 0
-5 -83 -161 0
-7 -85 -163 0
-9 -87 -165 0
-11 -89 -167 0
-13 -91 -169 0
-15 -93 -171 0
-17 -95 -173 0
-19 -97 -175 0
-21 -99 -177 0
-23 -101 -179 0
-25 -103 -181 0
-27 -105 -183 0
-29 -107 -185 0
-31 -109 -187 0
-33 -111 -189 0
-35 -113 -191 0
-37 -115 -193 0
-39 -117 -195 0
-41 -119 -197 0
-43 -121 -199 0
-45 -123 -201 0
-47 -125 -203 0
-49 -127 -205 0
-51 -129 -207 0
-53 -131 -209 0
-55 -133 -211 0
-57 -135 -213 0
-59 -137 -215 0
-61 -139 -217 0
-63 -141 -219 0
-65 -143 -221 0
-67 -145 -223 0
-69 -147 -225 0
-71 -149 -227 0
-1 -81 -161 0
-3 -83 -163 0
-5 -85 -165 0
-7 -87 -167 0
-9 -89 -169 0
-11 -91 -171 0
-13 -93 -173 0
-15 -95 -175 0
-17 -97 -177 0
-19 -99 -179 0
-21 -101 -181 0
-23 -103 -183 0
-25 -105 -185 0
-27 -107 -187 0
-29 -109 -189 0
-31 -111 -191 0
-33 -113 -193 0
-35 -115 -195 0
-37 -117 -197 0
-39 -119 -199 0
-41 -121 -201 0
-43 -123 -203 0
-45 -125 -205 0
-47 -127 -207 0
-49 -129 -209 0
-51 -131 -211 0
-53 -133 -213 0
-55 -135 -215 0
-57 -137 -217 0
-59 -139 -219 0
-61 -141 -221 0
-63 -143 -223 0
-65 -145 -225 0
-67 -147 -227 0
-1 -83 -165 0
-3 -85 -167 0
-5 -87 -169 0
-7 -89 -171 0
-9 -91 -173 0
-11 -93 -175 0
-13 -95 -177 0
-15 -97 -179 0
-17 -99 -181 0
-19 -101 -183 0
-21 -103 -185 0
-23 -105 -187 0
-25 -107 -189 0
-27 -109 -191 0
-29 -111 -193 0
-31 -113 -195 0
-33 -115 -197 0
-35 -117 -199 0
-37 -119 -201 0
-39 -121 -203 0
-41 -123 -205 0
-43 -125 -207 0
-45 -127 -209 0
-47 -129 -211 0
-49 -131 -213 0
-51 -133 -215 0
-53 -135 -217 0
-55 -137 -219 0
-57 -139 -221 0
-59 -141 -223 0
-61 -143 -225 0
-63 -145 -227 0
-1 -85 -169 0
-3 -87 -171 0
-5 -89 -173 0
-7 -91 -175 0
-9 -93 -177 0
-11 -95 -179 0
-13 -97 -181 0
-15 -99 -183 0
-17 -101 -185 0
-19 -103 -187 0
-21 -105 -189 0
-23 -107 -191 0
-25 -109 -193 0
-27 -111 -195 0
-29 -113 -197 0
-31 -115 -199 0
-33 -117 -201 0
-35 -119 -203 0
-37 -121 -205 0
-39 -123 -207 0
-41 -125 -209 0
-43 -127 -211 0
-45 -129 -213 0
-47 -131 -215 0
-49 -133 -217 0
-51 -135 -219 0
-53 -137 -221 0
-55 -139 -223 0
-57 -141 -225 0
-59 -143 -227 0
-1 -87 -173 0
-3 -89 -175 0
-5 -91 -177 0
-7 -93 -179 0
-9 -95 -181 0
-11 -97 -183 0
-13 -99 -185 0
-15 -101 -187 0
-17 -103 -189 0
-19 -105 -191 0
-21 -107 -193 0
-23 -109 -195 0
-25 -111 -197 0
-27 -113 -199 0
-29 -115 -201 0
-31 -117 -203 0
-33 -119 -205 0
-35 -121 -207 0
-37 -123 -209 0
-39 -125 -211 0
-41 -127 -213 0
-43 -129 -215 0
-45 -131 -217 0
-47 -133 -219 0
-49 -135 -221 0
-51 -137 -223 0
-53 -139 -225 0
-55 -141 -227 0
-1 -89 -177 0
-3 -91 -179 0
-5 -93 -181 0
-7 -95 -183 0
-9 -97 -185 0
-11 -99 -187 0
-13 -101 -189 0
-15 -103 -191 0
-17 -105 -193 0
-19 -107 -195 0
-21 -109 -197 0
-23 -111 -199 0
-25 -113 -201 0
-27 -115 -203 0
-29 -117 -205 0
-31 -119 -207 0
-33 -121 -209 0
-35 -123 -211 0
-37 -125 -213 0
-39 -127 -215 0
-41 -129 -217 0
-43 -131 -219 0
-45 -133 -221 0
-47 -135 -223 0
-49 -137 -225 0
-51 -139 -227 0
-1 -91 -181 0
-3 -93 -183 0
-5 -95 -185 0
-7 -97 -187 0
-9 -99 -189 0
-11 -101 -191 0
-13 -103 -193 0
-15 -105 -195 0
-17 -107 -197 0
-19 -109 -199 0
-21 -111 -201 0
-23 -113 -203 0
-25 -115 -205 0
-27 -117 -207 0
-29 -119 -209 0
-31 -121 -211 0
-33 -123 -213 0
-35 -125 -215 0
-37 -127 -217 0
-39 -129 -219 0
-41 -131 -221 0
-43 -133 -223 0
-45 -135 -225 0
-47 -137 -227 0
-1 -93 -185 0
-3 -95 -187 0
-5 -97 -189 0
-7 -99 -191 0
-9 -101 -193 0
-11 -103 -195 0
-13 -105 -197 0
-15 -107 -199 0
-17 -109 -201 0
-19 -111 -203 0
-21 -113 -205 0
-23 -115 -207 0
-25 -117 -209 0
-27 -119 -211 0
-29 -121 -213 0
-31 -123 -215 0
-33 -125 -217 0
-35 -127 -219 0
-37 -129 -221 0
-39 -131 -223 0
-41 -133 -225 0
-43 -135 -227 0
-1 -95 -189 0
-3 -97 -191 0
-5 -99 -193 0
-7 -101 -195 0
-9 -103 -197 0
-11 -105 -199 0
-13 -107 -201 0
-15 -109 -203 0
-17 -111 -205 0
-19 -113 -207 0
-21 -115 -209 0
-23 -117 -211 0
-25 -119 -213 0
-27 -121 -215 0
-29 -123 -217 0
-31 -125 -219 0
-33 -127 -221 0
-35 -129 -223 0
-37 -131 -225 0
-39 -133 -227 0
-1 -97 -193 0
-3 -99 -195 0
-5 -101 -197 0
-7 -103 -199 0
-9 -105 -201 0
-11 -107 -203 0
-13 -109 -205 0
-15 -111 -207 0
-17 -113 -209 0
-19 -115 -211 0
-21 -117 -213 0
-23 -119 -215 0
-25 -121 -217 0
-27 -123 -219 0
-29 -125 -221 0
-31 -127 -223 0
-33 -129 -225 0
-35 -131 -227 0
-1 -99 -197 0
-3 -101 -199 0
-5 -103 -201 0
-7 -105 -203 0
-9 -107 -205 0
-11 -109 -207 0
-13 -111 -209 0
-15 -113 -211 0
-17 -115 -213 0
-19 -117 -215 0
-21 -119 -217 0
-23 -121 -219 0
-25 -123 -221 0
-27 -125 -223 0
-29 -127 -225 0
-31 -129 -227 0
-1 -101 -201 0
-3 -103 -203 0
-5 -105 -205 0
-7 -107 -207 0
-9 -109 -209 0
-11 -111 -211 0
-13 -113 -213 0
-15 -115 -215 0
-17 -117 -217 0
-19 -119 -219 0
-21 -121 -221 0
-23 -123 -223 0
-25 -125 -225 0
-27 -127 -227 0
-1 -103 -205 0
-3 -105 -207 0
-5 -107 -209 0
-7 -109 -211 0
-9 -111 -213 0
-11 -113 -215 0
-13 -115 -217 0
-15 -117 -219 0
-17 -119 -221 0
-19 -121 -223 0
-21 -123 -225 0
-23 -125 -227 0
-1 -105 -209 0
-3 -107 -211 0
-5 -109 -213 0
-7 -111 -215 0
-9 -113 -217 0
-11 -115 -219 0
-13 -117 -221 0
-15 -119 -223 0
-17 -121 -225 0
-19 -123 -227 0
-1 -107 -213 0
-3 -109 -215 0
-5 -111 -217 0
-7 -113 -219 0
-9 -115 -221 0
-11 -117 -223 0
-13 -119 -225 0
-15 -121 -227 0
-1 -109 -217 0
-3 -111 -219 0
-5 -113 -221 0
-7 -115 -223 0
-9 -117 -225 0
-11 -119 -227 0
-1 -111 -221 0
-3 -113 -223 0
-5 -115 -225 0
-7 -117 -227 0
-1 -113 -225 0
-3 -115 -227 0
-2 -4 -6 -8 -10 -12 -14 -16 -18 -20 -22 0
-4 -6 -8 -10 -12 -14 -16 -18 -20 -22 -24 0
-6 -8 -10 -12 -14 -16 -18 -20 -22 -24 -26 0
-8 -10 -12 -14 -16 -18 -20 -22 -24 -26 -28 0
-10 -12 -14 -16 -18 -20 -22 -24 -26 -28 -30 0
-12 -14 -16 -18 -20 -22 -24 -26 -28 -30 -32 0
-14 -16 -18 -20 -22 -24 -26 -28 -30 -32 -34 0
-16 -18 -20 -22 -24 -26 -28 -30 -32 -34 -36 0
-18 -20 -22 -24 -26 -28 -30 -32 -34 -36 -38 0
-20 -22 -24 -26 -28 -30 -32 -34 -36 -38 -40 0
-22 -24 -26 -28 -30 -32 -34 -36 -38 -40 -42 0
-24 -26 -28 -30 -32 -34 -36 -38 -40 -42 -44 0
-26 -28 -30 -32 -34 -36 -38 -40 -42 -44 -46 0
-28 -30 -32 -34 -36 -38 -40 -42 -44 -46 -48 0
-30 -32 -34 -36 -38 -40 -42 -44 -46 -48 -50 0
-32 -34 -36 -38 -40 -42 -44 -46 -48 -50 -52 0
-34 -36 -38 -40 -42 -44 -46 -48 -50 -52 -54 0
-36 -38 -40 -42 -44 -46 -48 -50 -52 -54 -56 0
-38 -40 -42 -44 -46 -48 -50 -52 -54 -56 -58 0
-40 -42 -44 -46 -48 -50 -52 -54 -56 -58 -60 0
-42 -44 -46 -48 -50 -52 -54 -56 -58 -60 -62 0
-44 -46 -48 -50 -52 -54 -56 -58 -60 -62 -64 0
-46 -48 -50 -52 -54 -56 -58 -60 -62 -64 -66 0
-48 -50 -52 -54 -56 -58 -60 -62 -64 -66 -68 0
-50 -52 -54 -56 -58 -60 -62 -64 -66 -68 -70 0
-52 -54 -56 -58 -60 -62 -64 -66 -68 -70 -72 0
-54 -56 -58 -60 -62 -64 -66 -68 -70 -72 -74 0
-56 -58 -60 -62 -64 -66 -68 -70 -72 -74 -76 0
-58 -60 -62 -64 -66 -68 -70 -72 -74 -76 -78 0
-60 -62 -64 -66 -68 -70 -72 -74 -76 -78 -80 0
-62 -64 -66 -68 -70 -72 -74 -76 -78 -80 -82 0
-64 -66 -68 -70 -72 -74 -76 -78 -80 -82 -84 0
-66 -68 -70 -72 -74 -76 -78 -80 -82 -84 -86 0
-68 -70 -72 -74 -76 -78 -80 -82 -84 -86 -88 0
-70 -72 -74 -76 -78 -80 -82 -84 -86 -88 -90 0
-72 -74 -76 -78 -80 -82 -84 -86 -88 -90 -92 0
-74 -76 -78 -80 -82 -84 -86 -88 -90 -92 -94 0
-76 -78 -80 -82 -84 -86 -88 -90 -92 -94 -96 0
-78 -80 -82 -84 -86 -88 -90 -92 -94 -96 -98 0
-80 -82 -84 -86 -88 -90 -92 -94 -96 -98 -100 0
-82 -84 -86 -88 -90 -92 -94 -96 -98 -100 -102 0
-84 -86 -88 -90 -92 -94 -96 -98 -100 -102 -104 0
-86 -88 -90 -92 -94 -96 -98 -100 -102 -104 -106 0
-88 -90 -92 -94 -96 -98 -100 -102 -104 -106 -108 0
-90 -92 -94 -96 -98 -100 -102 -104 -106 -108 -110 0
-92 -94 -96 -98 -100 -102 -104 -106 -108 -110 -112 0
-94 -96 -98 -100 -102 -104 -106 -108 -110 -112 -114 0
-96 -98 -100 -102 -104 -106 -108 -110 -112 -114 -116 0
-98 -100 -102 -104 -106 -108 -110 -112 -114 -116 -118 0
-100 -102 -104 -106 -108 -110 -112 -114 -116 -118 -120 0
-102 -104 -106 -108 -110 -112 -114 -116 -118 -120 -122 0
-104 -106 -108 -110 -112 -114 -116 -118 -120 -122 -124 0
-106 -108 -110 -112 -114 -116 -118 -120 -122 -124 -126 0
-108 -110 -112 -114 -116 -118 -120 -122 -124 -126 -128 0
-110 -112 -114 -116 -118 -120 -122 -124 -126 -128 -130 0
-112 -114 -116 -118 -120 -122 -124 -126 -128 -130 -132 0
-114 -116 -118 -120 -122 -124 -126 -128 -130 -132 -134 0
-116 -118 -120 -122 -124 -126 -128 -130 -132 -134 -136 0
-118 -120 -122 -124 -126 -128 -130 -132 -134 -136 -138 0
-120 -122 -124 -126 -128 -130 -132 -134 -136 -138 -140 0
-122 -124 -126 -128 -130 -132 -134 -136 -138 -140 -142 0
-124 -126 -128 -130 -132 -134 -136 -138 -140 -142 -144 0
-126 -128 -130 -132 -134 -136 -138 -140 -142 -144 -146 0
-128 -130 -132 -134 -136 -138 -140 -142 -144 -146 -148 0
-130 -132 -134 -136 -138 -140 -142 -144 -146 -148 -150 0
-132 -134 -136 -138 -140 -142 -144 -146 -148 -150 -152 0
-134 -136 -138 -140 -142 -144 -146 -148 -150 -152 -154 0
-136 -138 -140 -142 -144 -146 -148 -150 -152 -154 -156 0
-138 -140 -142 -144 -146 -148 -150 -152 -154 -156 -158 0
-140 -142 -144 -146 -148 -150 -152 -154 -156 -158 -160 0
-142 -144 -146 -148 -150 -152 -154 -156 -158 -160 -162 0
-144 -146 -148 -150 -152 -154 -156 -158 -160 -162 -164 0
-146 -148 -150 -152 -154 -156 -158 -160 -162 -164 -166 0
-148 -150 -152 -154 -156 -158 -160 -162 -164 -166 -168 0
-150 -152 -154 -156 -158 -160 -162 -164 -166 -168 -170 0
-152 -154 -156 -158 -160 -162 -164 -166 -168 -170 -172 0
-154 -156 -158 -160 -162 -164 -166 -168 -170 -172 -174 0
-156 -158 -160 -162 -164 -166 -168 -170 -172 -174 -176 0
-158 -160 -162 -164 -166 -168 -170 -172 -174 -176 -178 0
-160 -162 -164 -166 -168 -170 -172 -174 -176 -178 -180 0
-162 -164 -166 -168 -170 -172 -174 -176 -178 -180 -182 0
-164 -166 -168 -170 -172 -174 -176 -178 -180 -182 -184 0
-166 -168 -170 -172 -174 -176 -178 -180 -182 -184 -186 0
-168 -170 -172 -174 -176 -178 -180 -182 -184 -186 -188 0
-170 -172 -174 -176 -178 -180 -182 -184 -186 -188 -190 0
-172 -174 -176 -178 -180 -182 -184 -186 -188 -190 -192 0
-174 -176 -178 -180 -182 -184 -186 -188 -190 -192 -194 0
-176 -178 -180 -182 -184 -186 -188 -190 -192 -194 -196 0
-178 -180 -182 -184 -186 -188 -190 -192 -194 -196 -198 0
-180 -182 -184 -186 -188 -190 -192 -194 -196 -198 -200 0
-182 -184 -186 -188 -190 -192 -194 -196 -198 -200 -202 0
-184 -186 -188 -190 -192 -194 -196 -198 -200 -202 -204 0
-186 -188 -190 -192 -194 -196 -198 -200 -202 -204 -206 0
-188 -190 -192 -194 -196 -198 -200 -202 -204 -206 -208 0
-190 -192 -194 -196 -198 -200 -202 -204 -206 -208 -210 0
-192 -194 -196 -198 -200 -202 -204 -206 -208 -210 -212 0
-194 -196 -198 -200 -202 -204 -206 -208 -210 -212 -214 0
-196 -198 -200 -202 -204 -206 -208 -210 -212 -214 -216 0
-198 -200 -202 -204 -206 -208 -210 -212 -214 -216 -218 0
-200 -202 -204 -206 -208 -210 -212 -214 -216 -218 -220 0
-202 -204 -206 -208 -210 -212 -214 -216 -218 -220 -222 0
-204 -206 -208 -210 -212 -214 -216 -218 -220 -222 -224 0
-206 -208 -210 -212 -214 -216 -218 -220 -222 -224 -226 0
-208 -210 -212 -214 -216 -218 -220 -222 -224 -226 -228 0
-2 -6 -10 -14 -18 -22 -26 -30 -34 -38 -42 0
-4 -8 -12 -16 -20 -24 -28 -32 -36 -40 -44 0
-6 -10 -14 -18 -22 -26 -30 -34 -38 -42 -46 0
-8 -12 -16 -20 -24 -28 -32 -36 -40 -44 -48 0
-10 -14 -18 -22 -26 -30 -34 -38 -42 -46 -50 0
-12 -16 -20 -24 -28 -32 -36 -40 -44 -48 -52 0
-14 -18 -22 -26 -30 -34 -38 -42 -46 -50 -54 0
-16 -20 -24 -28 -32 -36 -40 -44 -48 -52 -56 0
-18 -22 -26 -30 -34 -38 -42 -46 -50 -54 -58 0
-20 -24 -28 -32 -36 -40 -44 -48 -52 -56 -60 0
-22 -26 -30 -34 -38 -42 -46 -50 -54 -58 -62 0
-24 -28 -32 -36 -40 -44 -48 -52 -56 -60 -64 0
-26 -30 -34 -38 -42 -46 -50 -54 -58 -62 -66 0
-28 -32 -36 -40 -44 -48 -52 -56 -60 -64 -68 0
-30 -34 -38 -42 -46 -50 -54 -58 -62 -66 -70 0
-32 -36 -40 -44 -48 -52 -56 -60 -64 -68 -72 0
-34 -38 -42 -46 -50 -54 -58 -62 -66 -70 -74 0
-36 -40 -44 -48 -52 -56 -60 -64 -68 -72 -76 0
-38 -42 -46 -50 -54 -58 -62 -66 -70 -74 -78 0
-40 -44 -48 -52 -56 -60 -64 -68 -72 -76 -80 0
-42 -46 -50 -54 -58 -62 -66 -70 -74 -78 -82 0
-44 -48 -52 -56 -60 -64 -68 -72 -76 -80 -84 0
-46 -50 -54 -58 -62 -66 -70 -74 -78 -82 -86 0
-48 -52 -56 -60 -64 -68 -72 -76 -80 -84 -88 0
-50 -54 -58 -62 -66 -70 -74 -78 -82 -86 -90 0
-52 -56 -60 -64 -68 -72 -76 -80 -84 -88 -92 0
-54 -58 -62 -66 -70 -74 -78 -82 -86 -90 -94 0
-56 -60 -64 -68 -72 -76 -80 -84 -88 -92 -96 0
-58 -62 -66 -70 -74 -78 -82 -86 -90 -94 -98 0
-60 -64 -68 -72 -76 -80 -84 -88 -92 -96 -100 0
-62 -66 -70 -74 -78 -82 -86 -90 -94 -98 -102 0
-64 -68 -72 -76 -80 -84 -88 -92 -96 -100 -104 0
-66 -70 -74 -78 -82 -86 -90 -94 -98 -102 -106 0
-68 -72 -76 -80 -84 -88 -92 -96 -100 -104 -108 0
-70 -74 -78 -82 -86 -90 -94 -98 -102 -106 -110 0
-72 -76 -80 -84 -88 -92 -96 -100 -104 -108 -112 0
-74 -78 -82 -86 -90 -94 -98 -102 -106 -110 -114 0
-76 -80 -84 -88 -92 -96 -100 -104 -108 -112 -116 0
-78 -82 -86 -90 -94 -98 -102 -106 -110 -114 -118 0
-80 -84 -88 -92 -96 -100 -104 -108 -112 -116 -120 0
-82 -86 -90 -94 -98 -102 -106 -110 -114 -118 -122 0
-84 -88 -92 -96 -100 -104 -108 -112 -116 -120 -124 0
-86 -90 -94 -98 -102 -106 -110 -114 -118 -122 -126 0
-88 -92 -96 -100 -104 -108 -112 -116 -120 -124 -128 0
-90 -94 -98 -102 -106 -110 -114 -118 -122 -126 -130 0
-92 -96 -100 -104 -108 -112 -116 -120 -124 -128 -132 0
-94 -98 -102 -106 -110 -114 -118 -122 -126 -130 -134 0
-96 -100 -104 -108 -112 -116 -120 -124 -128 -132 -136 0
-98 -102 -106 -110 -114 -118 -122 -126 -130 -134 -138 0
-100 -104 -108 -112 -116 -120 -124 -128 -132 -136 -140 0
-102 -106 -110 -114 -118 -122 -126 -130 -134 -138 -142 0
-104 -108 -112 -116 -120 -124 -128 -132 -136 -140 -144 0
-106 -110 -114 -118 -122 -126 -130 -134 -138 -142 -146 0
-108 -112 -116 -120 -124 -128 -132 -136 -140 -144 -148 0
-110 -114 -118 -122 -126 -130 -134 -138 -142 -146 -150 0
-112 -116 -120 -124 -128 -132 -136 -140 -144 -148 -152 0
-114 -118 -122 -126 -130 -134 -138 -142 -146 -150 -154 0
-116 -120 -124 -128 -132 -136 -140 -144 -148 -152 -156 0
-118 -122 -126 -130 -134 -138 -142 -146 -150 -154 -158 0
-120 -124 -128 -132 -136 -140 -144 -148 -152 -156 -160 0
-122 -126 -130 -134 -138 -142 -146 -150 -154 -158 -162 0
-124 -128 -132 -136 -140 -144 -148 -152 -156 -160 -164 0
-126 -130 -134 -138 -142 -146 -150 -154 -158 -162 -166 0
-128 -132 -136 -140 -144 -148 -152 -156 -160 -164 -168 0
-130 -134 -138 -142 -146 -150 -154 -158 -162 -166 -170 0
-132 -136 -140 -144 -148 -152 -156 -160 -164 -168 -172 0
-134 -138 -142 -146 -150 -154 -158 -162 -166 -170 -174 0
-136 -140 -144 -148 -152 -156 -160 -164 -168 -172 -176 0
-138 -142 -146 -150 -154 -158 -162 -166 -170 -174 -178 0
-140 -144 -148 -152 -156 -160 -164 -168 -172 -176 -180 0
-142 -146 -150 -154 -158 -162 -166 -170 -174 -178 -182 0
-144 -148 -152 -156 -160 -164 -168 -172 -176 -180 -184 0
-146 -150 -154 -158 -162 -166 -170 -174 -178 -182 -186 0
-148 -152 -156 -160 -164 -168 -172 -176 -180 -184 -188 0
-150 -154 -158 -162 -166 -170 -174 -178 -182 -186 -190 0
-152 -156 -160 -164 -168 -172 -176 -180 -184 -188 -192 0
-154 -158 -162 -166 -170 -174 -178 -182 -186 -190 -194 0
-156 -160 -164 -168 -172 -176 -180 -184 -188 -192 -196 0
-158 -162 -166 -170 -174 -178 -182 -186 -190 -194 -198 0
-160 -164 -168 -172 -176 -180 -184 -188 -192 -196 -200 0
-162 -166 -170 -174 -178 -182 -186 -190 -194 -198 -202 0
-164 -168 -172 -176 -180 -184 -188 -192 -196 -200 -204 0
-166 -170 -174 -178 -182 -186 -190 -194 -198 -202 -206 0
-168 -172 -176 -180 -184 -188 -192 -196 -200 -204 -208 0
-170 -174 -178 -182 -186 -190 -194 -198 -202 -206 -210 0
-172 -176 -180 -184 -188 -192 -196 -200 -204 -208 -212 0
-174 -178 -182 -186 -190 -194 -198 -202 -206 -210 -214 0
-176 -180 -184 -188 -192 -196 -200 -204 -208 -212 -216 0
-178 -182 -186 -190 -194 -198 -202 -206 -210 -214 -218 0
-180 -184 -188 -192 -196 -200 -204 -208 -212 -216 -220 0
-182 -186 -190 -194 -198 -202 -206 -210 -214 -218 -222 0
-184 -188 -192 -196 -200 -204 -208 -212 -216 -220 -224 0
-186 -190 -194 -198 -202 -206 -210 -214 -218 -222 -226 0
-188 -192 -196 -200 -204 -208 -212 -216 -220 -224 -228 0
-2 -8 -14 -20 -26 -32 -38 -44 -50 -56 -62 0
-4 -10 -16 -22 -28 -34 -40 -46 -52 -58 -64 0
-6 -12 -18 -24 -30 -36 -42 -48 -54 -60 -66 0
-8 -14 -20 -26 -32 -38 -44 -50 -56 -62 -68 0
-10 -16 -22 -28 -34 -40 -46 -52 -58 -64 -70 0
-12 -18 -24 -30 -36 -42 -48 -54 -60 -66 -72 0
-14 -20 -26 -32 -38 -44 -50 -56 -62 -68 -74 0
-16 -22 -28 -34 -40 -46 -52 -58 -64 -70 -76 0
-18 -24 -30 -36 -42 -48 -54 -60 -66 -72 -78 0
-20 -26 -32 -38 -44 -50 -56 -62 -68 -74 -80 0
-22 -28 -34 -40 -46 -52 -58 -64 -70 -76 -82 0
-24 -30 -36 -42 -48 -54 -60 -66 -72 -78 -84 0
-26 -32 -38 -44 -50 -56 -62 -68 -74 -80 -86 0
-28 -34 -40 -46 -52 -58 -64 -70 -76 -82 -88 0
-30 -36 -42 -48 -54 -60 -66 -72 -78 -84 -90 0
-32 -38 -44 -50 -56 -62 -68 -74 -80 -86 -92 0
-34 -40 -46 -52 -58 -64 -70 -76 -82 -88 -94 0
-36 -42 -48 -54 -60 -66 -72 -78 -84 -90 -96 0
-38 -44 -50 -56 -62 -68 -74 -80 -86 -92 -98 0
-40 -46 -52 -58 -64 -70 -76 -82 -88 -94 -100 0
-42 -48 -54 -60 -66 -72 -78 -84 -90 -96 -102 0
-44 -50 -56 -62 -68 -74 -80 -86 -92 -98 -104 0
-46 -52 -58 -64 -70 -76 -82 -88 -94 -100 -106 0
-48 -54 -60 -66 -72 -78 -84 -90 -96 -102 -108 0
-50 -56 -62 -68 -74 -80 -86 -92 -98 -104 -110 0
-52 -58 -64 -70 -76 -82 -88 -94 -100 -106 -112 0
-54 -60 -66 -72 -78 -84 -90 -96 -102 -108 -114 0
-56 -62 -68 -74 -80 -86 -92 -98 -104 -110 -116 0
-58 -64 -70 -76 -82 -88 -94 -100 -106 -112 -118 0
-60 -66 -72 -78 -84 -90 -96 -102 -108 -114 -120 0
-62 -68 -74 -80 -86 -92 -98 -104 -110 -116 -122 0
-64 -70 -76 -82 -88 -94 -100 -106 -112 -118 -124 0
-66 -72 -78 -84 -90 -96 -102 -108 -114 -120 -126 0
-68 -74 -80 -86 -92 -98 -104 -110 -116 -122 -128 0
-70 -76 -82 -88 -94 -100 -106 -112 -118 -124 -130 0
-72 -78 -84 -90 -96 -102 -108 -114 -120 -126 -132 0
-74 -80 -86 -92 -98 -104 -110 -116 -122 -128 -134 0
-76 -82 -88 -94 -100 -106 -112 -118 -124 -130 -136 0
-78 -84 -90 -96 -102 -108 -114 -120 -126 -132 -138 0
-80 -86 -92 -98 -104 -110 -116 -122 -128 -134 -140 0
-82 -88 -94 -100 -106 -112 -118 -124 -130 -136 -142 0
-84 -90 -96 -102 -108 -114 -120 -126 -132 -138 -144 0
-86 -92 -98 -104 -110 -116 -122 -128 -134 -140 -146 0
-88 -94 -100 -106 -112 -118 -124 -130 -136 -142 -148 0
-90 -96 -102 -108 -114 -120 -126 -132 -138 -144 -150 0
-92 -98 -104 -110 -116 -122 -128 -134 -140 -146 -152 0
-94 -100 -106 -112 -118 -124 -130 -136 -142 -148 -154 0
-96 -102 -108 -114 -120 -126 -132 -138 -144 -150 -156 0
-98 -104 -110 -116 -122 -128 -134 -140 -146 -152 -158 0
-100 -106 -112 -118 -124 -130 -136 -142 -148 -154 -160 0
-102 -108 -114 -120 -126 -132 -138 -144 -150 -156 -162 0
-104 -110 -116 -122 -128 -134 -140 -146 -152 -158 -164 0
-106 -112 -118 -124 -130 -136 -142 -148 -154 -160 -166 0
-108 -114 -120 -126 -132 -138 -144 -150 -156 -162 -168 0
-110 -116 -122 -128 -134 -140 -146 -152 -158 -164 -170 0
-112 -118 -124 -130 -136 -142 -148 -154 -160 -166 -172 0
-114 -120 -126 -132 -138 -144 -150 -156 -162 -168 -174 0
-116 -122 -128 -134 -140 -146 -152 -158 -164 -170 -176 0
-118 -124 -130 -136 -142 -148 -154 -160 -166 -172 -178 0
-120 -126 -132 -138 -144 -150 -156 -162 -168 -174 -180 0
-122 -128 -134 -140 -146 -152 -158 -164 -170 -176 -182 0
-124 -130 -136 -142 -148 -154 -160 -166 -172 -178 -184 0
-126 -132 -138 -144 -150 -156 -162 -168 -174 -180 -186 0
-128 -134 -140 -146 -152 -158 -164 -170 -176 -182 -188 0
-130 -136 -142 -148 -154 -160 -166 -172 -178 -184 -190 0
-132 -138 -144 -150 -156 -162 -168 -174 -180 -186 -192 0
-134 -140 -146 -152 -158 -164 -170 -176 -182 -188 -194 0
-136 -142 -148 -154 -160 -166 -172 -178 -184 -190 -196 0
-138 -144 -150 -156 -162 -168 -174 -180 -186 -192 -198 0
-140 -146 -152 -158 -164 -170 -176 -182 -188 -194 -200 0
-142 -148 -154 -160 -166 -172 -178 -184 -190 -196 -202 0
-144 -150 -156 -162 -168 -174 -180 -186 -192 -198 -204 0
-146 -152 -158 -164 -170 -176 -182 -188 -194 -200 -206 0
-148 -154 -160 -166 -172 -178 -184 -190 -196 -202 -208 0
-150 -156 -162 -168 -174 -180 -186 -192 -198 -204 -210 0
-152 -158 -164 -170 -176 -182 -188 -194 -200 -206 -212 0
-154 -160 -166 -172 -178 -184 -190 -196 -202 -208 -214 0
-156 -162 -168 -174 -180 -186 -192 -198 -204 -210 -216 0
-158 -164 -170 -176 -182 -188 -194 -200 -206 -212 -218 0
-160 -166 -172 -178 -184 -190 -196 -202 -208 -214 -220 0
-162 -168 -174 -180 -186 -192 -198 -204 -210 -216 -222 0
-164 -170 -176 -182 -188 -194 -200 -206 -212 -218 -224 0
-166 -172 -178 -184 -190 -196 -202 -208 -214 -220 -226 0
-168 -174 -180 -186 -192 -198 -204 -210 -216 -222 -228 0
-2 -10 -18 -26 -34 -42 -50 -58 -66 -74 -82 0
-4 -12 -20 -28 -36 -44 -52 -60 -68 -76 -84 0
-6 -14 -22 -30 -38 -46 -54 -62 -70 -78 -86 0
-8 -16 -24 -32 -40 -48 -56 -64 -72 -80 -88 0
-10 -18 -26 -34 -42 -50 -58 -66 -74 -82 -90 0
-12 -20 -28 -36 -44 -52 -60 -68 -76 -84 -92 0
-14 -22 -30 -38 -46 -54 -62 -70 -78 -86 -94 0
-16 -24 -32 -40 -48 -56 -64 -72 -80 -88 -96 0
-18 -26 -34 -42 -50 -58 -66 -74 -82 -90 -98 0
-20 -28 -36 -44 -52 -60 -68 -76 -84 -92 -100 0
-22 -30 -38 -46 -54 -62 -70 -78 -86 -94 -102 0
-24 -32 -40 -48 -56 -64 -72 -80 -88 -96 -104 0
-26 -34 -42 -50 -58 -66 -74 -82 -90 -98 -106 0
-28 -36 -44 -52 -60 -68 -76 -84 -92 -100 -108 0
-30 -38 -46 -54 -62 -70 -78 -86 -94 -102 -110 0
-32 -40 -48 -56 -64 -72 -80 -88 -96 -104 -112 0
-34 -42 -50 -58 -66 -74 -82 -90 -98 -106 -114 0
-36 -44 -52 -60 -68 -76 -84 -92 -100 -108 -116 0
-38 -46 -54 -62 -70 -78 -86 -94 -102 -110 -118 0
-40 -48 -56 -64 -72 -80 -88 -96 -104 -112 -120 0
-42 -50 -58 -66 -74 -82 -90 -98 -106 -114 -122 0
-44 -52 -60 -68 -76 -84 -92 -100 -108 -116 -124 0
-46 -54 -62 -70 -78 -86 -94 -102 -110 -118 -126 0
-48 -56 -64 -72 -80 -88 -96 -104 -112 -120 -128 0
-50 -58 -66 -74 -82 -90 -98 -106 -114 -122 -130 0
-52 -60 -68 -76 -84 -92 -100 -108 -116 -124 -132 0
-54 -62 -70 -78 -86 -94 -102 -110 -118 -126 -134 0
-56 -64 -72 -80 -88 -96 -104 -112 -120 -128 -136 0
-58 -66 -74 -82 -90 -98 -106 -114 -122 -130 -138 0
-60 -68 -76 -84 -92 -100 -108 -116 -124 -132 -140 0
-62 -70 -78 -86 -94 -102 -110 -118 -126 -134 -142 0
-64 -72 -80 -88 -96 -104 -112 -120 -128 -136 -144 0
-66 -74 -82 -90 -98 -106 -114 -122 -130 -138 -146 0
-68 -76 -84 -92 -100 -108 -116 -124 -132 -140 -148 0
-70 -78 -86 -94 -102 -110 -118 -126 -134 -142 -150 0
-72 -80 -88 -96 -104 -112 -120 -128 -136 -144 -152 0
-74 -82 -90 -98 -106 -114 -122 -130 -138 -146 -154 0
-76 -84 -92 -100 -108 -116 -124 -132 -140 -148 -156 0
-78 -86 -94 -102 -110 -118 -126 -134 -142 -150 -158 0
-80 -88 -96 -104 -112 -120 -128 -136 -144 -152 -160 0
-82 -90 -98 -106 -114 -122 -130 -138 -146 -154 -162 0
-84 -92 -100 -108 -116 -124 -132 -140 -148 -156 -164 0
-86 -94 -102 -110 -118 -126 -134 -142 -150 -158 -166 0
-88 -96 -104 -112 -120 -128 -136 -144 -152 -160 -168 0
-90 -98 -106 -114 -122 -130 -138 -146 -154 -162 -170 0
-92 -100 -108 -116 -124 -132 -140 -148 -156 -164 -172 0
-94 -102 -110 -118 -126 -134 -142 -150 -158 -166 -174 0
-96 -104 -112 -120 -128 -136 -144 -152 -160 -168 -176 0
-98 -106 -114 -122 -130 -138 -146 -154 -162 -170 -178 0
-100 -108 -116 -124 -132 -140 -148 -156 -164 -172 -180 0
-102 -110 -118 -126 -134 -142 -150 -158 -166 -174 -182 0
-104 -112 -120 -128 -136 -144 -152 -160 -168 -176 -184 0
-106 -114 -122 -130 -138 -146 -154 -162 -170 -178 -186 0
-108 -116 -124 -132 -140 -148 -156 -164 -172 -180 -188 0
-110 -118 -126 -134 -142 -150 -158 -166 -174 -182 -190 0
-112 -120 -128 -136 -144 -152 -160 -168 -176 -184 -192 0
-114 -122 -130 -138 -146 -154 -162 -170 -178 -186 -194 0
-116 -124 -132 -140 -148 -156 -164 -172 -180 -188 -196 0
-118 -126 -134 -142 -150 -158 -166 -174 -182 -190 -198 0
-120 -128 -136 -144 -152 -160 -168 -176 -184 -192 -200 0
-122 -130 -138 -146 -154 -162 -170 -178 -186 -194 -202 0
-124 -132 -140 -148 -156 -164 -172 -180 -188 -196 -204 0
-126 -134 -142 -150 -158 -166 -174 -182 -190 -198 -206 0
-128 -136 -144 -152 -160 -168 -176 -184 -192 -200 -208 0
-130 -138 -146 -154 -162 -170 -178 -186 -194 -202 -210 0
-132 -140 -148 -156 -164 -172 -180 -188 -196 -204 -212 0
-134 -142 -150 -158 -166 -174 -182 -190 -198 -206 -214 0
-136 -144 -152 -160 -168 -176 -184 -192 -200 -208 -216 0
-138 -146 -154 -162 -170 -178 -186 -194 -202 -210 -218 0
-140 -148 -156 -164 -172 -180 -188 -196 -204 -212 -220 0
-142 -150 -158 -166 -174 -182 -190 -198 -206 -214 -222 0
-144 -152 -160 -168 -176 -184 -192 -200 -208 -216 -224 0
-146 -154 -162 -170 -178 -186 -194 -202 -210 -218 -226 0
-148 -156 -164 -172 -180 -188 -196 -204 -212 -220 -228 0
-2 -12 -22 -32 -42 -52 -62 -72 -82 -92 -102 0
-4 -14 -24 -34 -44 -54 -64 -74 -84 -94 -104 0
-6 -16 -26 -36 -46 -56 -66 -76 -86 -96 -106 0
-8 -18 -28 -38 -48 -58 -68 -78 -88 -98 -108 0
-10 -20 -30 -40 -50 -60 -70 -80 -90 -100 -110 0
-12 -22 -32 -42 -52 -62 -72 -82 -92 -102 -112 0
-14 -24 -34 -44 -54 -64 -74 -84 -94 -104 -114 0
-16 -26 -36 -46 -56 -66 -76 -86 -96 -106 -116 0
-18 -28 -38 -48 -58 -68 -78 -88 -98 -108 -118 0
-20 -30 -40 -50 -60 -70 -80 -90 -100 -110 -120 0
-22 -32 -42 -52 -62 -72 -82 -92 -102 -112 -122 0
-24 -34 -44 -54 -64 -74 -84 -94 -104 -114 -124 0
-26 -36 -46 -56 -66 -76 -86 -96 -106 -116 -126 0
-28 -38 -48 -58 -68 -78 -88 -98 -108 -118 -128 0
-30 -40 -50 -60 -70 -80 -90 -100 -110 -120 -130 0
-32 -42 -52 -62 -72 -82 -92 -102 -112 -122 -132 0
-34 -44 -54 -64 -74 -84 -94 -104 -114 -124 -134 0
-36 -46 -56 -66 -76 -86 -96 -106 -116 -126 -136 0
-38 -48 -58 -68 -78 -88 -98 -108 -118 -128 -138 0
-40 -50 -60 -70 -80 -90 -100 -110 -120 -130 -140 0
-42 -52 -62 -72 -82 -92 -102 -112 -122 -132 -142 0
-44 -54 -64 -74 -84 -94 -104 -114 -124 -134 -144 0
-46 -56 -66 -76 -86 -96 -106 -116 -126 -136 -146 0
-48 -58 -68 -78 -88 -98 -108 -118 -128 -138 -148 0
-50 -60 -70 -80 -90 -100 -110 -120 -130 -140 -150 0
-52 -62 -72 -82 -92 -102 -112 -122 -132 -142 -152 0
-54 -64 -74 -84 -94 -104 -114 -124 -134 -144 -154 0
-56 -66 -76 -86 -96 -106 -116 -126 -136 -146 -156 0
-58 -68 -78 -88 -98 -108 -118 -128 -138 -148 -158 0
-60 -70 -80 -90 -100 -110 -120 -130 -140 -150 -160 0
-62 -72 -82 -92 -102 -112 -122 -132 -142 -152 -162 0
-64 -74 -84 -94 -104 -114 -124 -134 -144 -154 -164 0
-66 -76 -86 -96 -106 -116 -126 -136 -146 -156 -166 0
-68 -78 -88 -98 -108 -118 -128 -138 -148 -158 -168 0
-70 -80 -90 -100 -110 -120 -130 -140 -150 -160 -170 0
-72 -82 -92 -102 -112 -122 -132 -142 -152 -162 -172 0
-74 -84 -94 -104 -114 -124 -134 -144 -154 -164 -174 0
-76 -86 -96 -106 -116 -126 -136 -146 -156 -166 -176 0
-78 -88 -98 -108 -118 -128 -138 -148 -158 -168 -178 0
-80 -90 -100 -110 -120 -130 -140 -150 -160 -170 -180 0
-82 -92 -102 -112 -122 -132 -142 -152 -162 -172 -182 0
-84 -94 -104 -114 -124 -134 -144 -154 -164 -174 -184 0
-86 -96 -106 -116 -126 -136 -146 -156 -166 -176 -186 0
-88 -98 -108 -118 -128 -138 -148 -158 -168 -178 -188 0
-90 -100 -110 -120 -130 -140 -150 -160 -170 -180 -190 0
-92 -102 -112 -122 -132 -142 -152 -162 -172 -182 -192 0
-94 -104 -114 -124 -134 -144 -154 -164 -174 -184 -194 0
-96 -106 -116 -126 -136 -146 -156 -166 -176 -186 -196 0
-98 -108 -118 -128 -138 -148 -158 -168 -178 -188 -198 0
-100 -110 -120 -130 -140 -150 -160 -170 -180 -190 -200 0
-102 -112 -122 -132 -142 -152 -162 -172 -182 -192 -202 0
-104 -114 -124 -134 -144 -154 -164 -174 -184 -194 -204 0
-106 -116 -126 -136 -146 -156 -166 -176 -186 -196 -206 0
-108 -118 -128 -138 -148 -158 -168 -178 -188 -198 -208 0
-110 -120 -130 -140 -150 -160 -170 -180 -190 -200 -210 0
-112 -122 -132 -142 -152 -162 -172 -182 -192 -202 -212 0
-114 -124 -134 -144 -154 -164 -174 -184 -194 -204 -214 0
-116 -126 -136 -146 -156 -166 -176 -186 -196 -206 -216 0
-118 -128 -138 -148 -158 -168 -178 -188 -198 -208 -218 0
-120 -130 -140 -150 -160 -170 -180 -190 -200 -210 -220 0
-122 -132 -142 -152 -162 -172 -182 -192 -202 -212 -222 0
-124 -134 -144 -154 -164 -174 -184 -194 -204 -214 -224 0
-126 -136 -146 -156 -166 -176 -186 -196 -206 -216 -226 0
-128 -138 -148 -158 -168 -178 -188 -198 -208 -218 -228 0
-2 -14 -26 -38 -50 -62 -74 -86 -98 -110 -122 0
-4 -16 -28 -40 -52 -64 -76 -88 -100 -112 -124 0
-6 -18 -30 -42 -54 -66 -78 -90 -102 -114 -126 0
-8 -20 -32 -44 -56 -68 -80 -92 -104 -116 -128 0
-10 -22 -34 -46 -58 -70 -82 -94 -106 -118 -130 0
-12 -24 -36 -48 -60 -72 -84 -96 -108 -120 -132 0
-14 -26 -38 -50 -62 -74 -86 -98 -110 -122 -134 0
-16 -28 -40 -52 -64 -76 -88 -100 -112 -124 -136 0
-18 -30 -42 -54 -66 -78 -90 -102 -114 -126 -138 0
-20 -32 -44 -56 -68 -80 -92 -104 -116 -128 -140 0
-22 -34 -46 -58 -70 -82 -94 -106 -118 -130 -142 0
-24 -36 -48 -60 -72 -84 -96 -108 -120 -132 -144 0
-26 -38 -50 -62 -74 -86 -98 -110 -122 -134 -146 0
-28 -40 -52 -64 -76 -88 -100 -112 -124 -136 -148 0
-30 -42 -54 -66 -78 -90 -102 -114 -126 -138 -150 0
-32 -44 -56 -68 -80 -92 -104 -116 -128 -140 -152 0
-34 -46 -58 -70 -82 -94 -106 -118 -130 -142 -154 0
-36 -48 -60 -72 -84 -96 -108 -120 -132 -144 -156 0
-38 -50 -62 -74 -86 -98 -110 -122 -134 -146 -158 0
-40 -52 -64 -76 -88 -100 -112 -124 -136 -148 -160 0
-42 -54 -66 -78 -90 -102 -114 -126 -138 -150 -162 0
-44 -56 -68 -80 -92 -104 -116 -128 -140 -152 -164 0
-46 -58 -70 -82 -94 -106 -118 -130 -142 -154 -166 0
-48 -60 -72 -84 -96 -108 -120 -132 -144 -156 -168 0
-50 -62 -74 -86 -98 -110 -122 -134 -146 -158 -170 0
-52 -64 -76 -88 -100 -112 -124 -136 -148 -160 -172 0
-54 -66 -78 -90 -102 -114 -126 -138 -150 -162 -174 0
-56 -68 -80 -92 -104 -116 -128 -140 -152 -164 -176 0
-58 -70 -82 -94 -106 -118 -130 -142 -154 -166 -178 0
-60 -72 -84 -96 -108 -120 -132 -144 -156 -168 -180 0
-62 -74 -86 -98 -110 -122 -134 -146 -158 -170 -182 0
-64 -76 -88 -100 -112 -124 -136 -148 -160 -172 -184 0
-66 -78 -90 -102 -114 -126 -138 -150 -162 -174 -186 0
-68 -80 -92 -104 -116 -128 -140 -152 -164 -176 -188 0
-70 -82 -94 -106 -118 -130 -142 -154 -166 -178 -190 0
-72 -84 -96 -108 -120 -132 -144 -156 -168 -180 -192 0
-74 -86 -98 -110 -122 -134 -146 -158 -170 -182 -194 0
-76 -88 -100 -112 -124 -136 -148 -160 -172 -184 -196 0
-78 -90 -102 -114 -126 -138 -150 -162 -174 -186 -198 0
-80 -92 -104 -116 -128 -140 -152 -164 -176 -188 -200 0
-82 -94 -106 -118 -130 -142 -154 -166 -178 -190 -202 0
-84 -96 -108 -120 -132 -144 -156 -168 -180 -192 -204 0
-86 -98 -110 -122 -134 -146 -158 -170 -182 -194 -206 0
-88 -100 -112 -124 -136 -148 -160 -172 -184 -196 -208 0
-90 -102 -114 -126 -138 -150 -162 -174 -186 -198 -210 0
-92 -104 -116 -128 -140 -152 -164 -176 -188 -200 -212 0
-94 -106 -118 -130 -142 -154 -166 -178 -190 -202 -214 0
-96 -108 -120 -132 -144 -156 -168 -180 -192 -204 -216 0
-98 -110 -122 -134 -146 -158 -170 -182 -194 -206 -218 0
-100 -112 -124 -136 -148 -160 -172 -184 -196 -208 -220 0
-102 -114 -126 -138 -150 -162 -174 -186 -198 -210 -222 0
-104 -116 -128 -140 -152 -164 -176 -188 -200 -212 -224 0
-106 -118 -130 -142 -154 -166 -178 -190 -202 -214 -226 0
-108 -120 -132 -144 -156 -168 -180 -192 -204 -216 -228 0
-2 -16 -30 -44 -58 -72 -86 -100 -114 -128 -142 0
-4 -18 -32 -46 -60 -74 -88 -102 -116 -130 -144 0
-6 -20 -34 -48 -62 -76 -90 -104 -118 -132 -146 0
-8 -22 -36 -50 -64 -78 -92 -106 -120 -134 -148 0
-10 -24 -38 -52 -66 -80 -94 -108 -122 -136 -150 0
-12 -26 -40 -54 -68 -82 -96 -110 -124 -138 -152 0
-14 -28 -42 -56 -70 -84 -98 -112 -126 -140 -154 0
-16 -30 -44 -58 -72 -86 -100 -114 -128 -142 -156 0
-18 -32 -46 -60 -74 -88 -102 -116 -130 -144 -158 0
-20 -34 -48 -62 -76 -90 -104 -118 -132 -146 -160 0
-22 -36 -50 -64 -78 -92 -106 -120 -134 -148 -162 0
-24 -38 -52 -66 -80 -94 -108 -122 -136 -150 -164 0
-26 -40 -54 -68 -82 -96 -110 -124 -138 -152 -166 0
-28 -42 -56 -70 -84 -98 -112 -126 -140 -154 -168 0
-30 -44 -58 -72 -86 -100 -114 -128 -142 -156 -170 0
-32 -46 -60 -74 -88 -102 -116 -130 -144 -158 -172 0
-34 -48 -62 -76 -90 -104 -118 -132 -146 -160 -174 0
-36 -50 -64 -78 -92 -106 -120 -134 -148 -162 -176 0
-38 -52 -66 -80 -94 -108 -122 -136 -150 -164 -178 0
-40 -54 -68 -82 -96 -110 -124 -138 -152 -166 -180 0
-42 -56 -70 -84 -98 -112 -126 -140 -154 -168 -182 0
-44 -58 -72 -86 -100 -114 -128 -142 -156 -170 -184 0
-46 -60 -74 -88 -102 -116 -130 -144 -158 -172 -186 0
-48 -62 -76 -90 -104 -118 -132 -146 -160 -174 -188 0
-50 -64 -78 -92 -106 -120 -134 -148 -162 -176 -190 0
-52 -66 -80 -94 -108 -122 -136 -150 -164 -178 -192 0
-54 -68 -82 -96 -110 -124 -138 -152 -166 -180 -194 0
-56 -70 -84 -98 -112 -126 -140 -154 -168 -182 -196 0
-58 -72 -86 -100 -114 -128 -142 -156 -170 -184 -198 0
-60 -74 -88 -102 -116 -130 -144 -158 -172 -186 -200 0
-62 -76 -90 -104 -118 -132 -146 -160 -174 -188 -202 0
-64 -78 -92 -106 -120 -134 -148 -162 -176 -190 -204 0
-66 -80 -94 -108 -122 -136 -150 -164 -178 -192 -206 0
-68 -82 -96 -110 -124 -138 -152 -166 -180 -194 -208 0
-70 -84 -98 -112 -126 -140 -154 -168 -182 -196 -210 0
-72 -86 -100 -114 -128 -142 -156 -170 -184 -198 -212 0
-74 -88 -102 -116 -130 -144 -158 -172 -186 -200 -214 0
-76 -90 -104 -118 -132 -146 -160 -174 -188 -202 -216 0
-78 -92 -106 -120 -134 -148 -162 -176 -190 -204 -218 0
-80 -94 -108 -122 -136 -150 -164 -178 -192 -206 -220 0
-82 -96 -110 -124 -138 -152 -166 -180 -194 -208 -222 0
-84 -98 -112 -126 -140 -154 -168 -182 -196 -210 -224 0
-86 -100 -114 -128 -142 -156 -170 -184 -198 -212 -226 0
-88 -102 -116 -130 -144 -158 -172 -186 -200 -214 -228 0
-2 -18 -34 -50 -66 -82 -98 -114 -130 -146 -162 0
-4 -20 -36 -52 -68 -84 -100 -116 -132 -148 -164 0
-6 -22 -38 -54 -70 -86 -102 -118 -134 -150 -166 0
-8 -24 -40 -56 -72 -88 -104 -120 -136 -152 -168 0
-10 -26 -42 -58 -74 -90 -106 -122 -138 -154 -170 0
-12 -28 -44 -60 -76 -92 -108 -124 -140 -156 -172 0
-14 -30 -46 -62 -78 -94 -110 -126 -142 -158 -174 0
-16 -32 -48 -64 -80 -96 -112 -128 -144 -160 -176 0
-18 -34 -50 -66 -82 -98 -114 -130 -146 -162 -178 0
-20 -36 -52 -68 -84 -100 -116 -132 -148 -164 -180 0
-22 -38 -54 -70 -86 -102 -118 -134 -150 -166 -182 0
-24 -40 -56 -72 -88 -104 -120 -136 -152 -168 -184 0
-26 -42 -58 -74 -90 -106 -122 -138 -154 -170 -186 0
-28 -44 -60 -76 -92 -108 -124 -140 -156 -172 -188 0
-30 -46 -62 -78 -94 -110 -126 -142 -158 -174 -190 0
-32 -48 -64 -80 -96 -112 -128 -144 -160 -176 -192 0
-34 -50 -66 -82 -98 -114 -130 -146 -162 -178 -194 0
-36 -52 -68 -84 -100 -116 -132 -148 -164 -180 -196 0
-38 -54 -70 -86 -102 -118 -134 -150 -166 -182 -198 0
-40 -56 -72 -88 -104 -120 -136 -152 -168 -184 -200 0
-42 -58 -74 -90 -106 -122 -138 -154 -170 -186 -202 0
-44 -60 -76 -92 -108 -124 -140 -156 -172 -188 -204 0
-46 -62 -78 -94 -110 -126 -142 -158 -174 -190 -206 0
-48 -64 -80 -96 -112 -128 -144 -160 -176 -192 -208 0
-50 -66 -82 -98 -114 -130 -146 -162 -178 -194 -210 0
-52 -68 -84 -100 -116 -132 -148 -164 -180 -196 -212 0
-54 -70 -86 -102 -118 -134 -150 -166 -182 -198 -214 0
-56 -72 -88 -104 -120 -136 -152 -168 -184 -200 -216 0
-58 -74 -90 -106 -122 -138 -154 -170 -186 -202 -218 0
-60 -76 -92 -108 -124 -140 -156 -172 -188 -204 -220 0
-62 -78 -94 -110 -126 -142 -158 -174 -190 -206 -222 0
-64 -80 -96 -112 -128 -144 -160 -176 -192 -208 -224 0
-66 -82 -98 -114 -130 -146 -162 -178 -194 -210 -226 0
-68 -84 -100 -116 -132 -148 -164 -180 -196 -212 -228 0
-2 -20 -38 -56 -74 -92 -110 -128 -146 -164 -182 0
-4 -22 -40 -58 -76 -94 -112 -130 -148 -166 -184 0
-6 -24 -42 -60 -78 -96 -114 -132 -150 -168 -186 0
-8 -26 -44 -62 -80 -98 -116 -134 -152 -170 -188 0
-10 -28 -46 -64 -82 -100 -118 -136 -154 -172 -190 0
-12 -30 -48 -66 -84 -102 -120 -138 -156 -174 -192 0
-14 -32 -50 -68 -86 -104 -122 -140 -158 -176 -194 0
-16 -34 -52 -70 -88 -106 -124 -142 -160 -178 -196 0
-18 -36 -54 -72 -90 -108 -126 -144 -162 -180 -198 0
-20 -38 -56 -74 -92 -110 -128 -146 -164 -182 -200 0
-22 -40 -58 -76 -94 -112 -130 -148 -166 -184 -202 0
-24 -42 -60 -78 -96 -114 -132 -150 -168 -186 -204 0
-26 -44 -62 -80 -98 -116 -134 -152 -170 -188 -206 0
-28 -46 -64 -82 -100 -118 -136 -154 -172 -190 -208 0
-30 -48 -66 -84 -102 -120 -138 -156 -174 -192 -210 0
-32 -50 -68 -86 -104 -122 -140 -158 -176 -194 -212 0
-34 -52 -70 -88 -106 -124 -142 -160 -178 -196 -214 0
-36 -54 -72 -90 -108 -126 -144 -162 -180 -198 -216 0
-38 -56 -74 -92 -110 -128 -146 -164 -182 -200 -218 0
-40 -58 -76 -94 -112 -130 -148 -166 -184 -202 -220 0
-42 -60 -78 -96 -114 -132 -150 -168 -186 -204 -222 0
-44 -62 -80 -98 -116 -134 -152 -170 -188 -206 -224 0
-46 -64 -82 -100 -118 -136 -154 -172 -190 -208 -226 0
-48 -66 -84 -102 -120 -138 -156 -174 -192 -210 -228 0
-2 -22 -42 -62 -82 -102 -122 -142 -162 -182 -202 0
-4 -24 -44 -64 -84 -104 -124 -144 -164 -184 -204 0
-6 -26 -46 -66 -86 -106 -126 -146 -166 -186 -206 0
-8 -28 -48 -68 -88 -108 -128 -148 -168 -188 -208 0
-10 -30 -50 -70 -90 -110 -130 -150 -170 -190 -210 0
-12 -32 -52 -72 -92 -112 -132 -152 -172 -192 -212 0
-14 -34 -54 -74 -94 -114 -134 -154 -174 -194 -214 0
-16 -36 -56 -76 -96 -116 -136 -156 -176 -196 -216 0
-18 -38 -58 -78 -98 -118 -138 -158 -178 -198 -218 0
-20 -40 -60 -80 -100 -120 -140 -160 -180 -200 -220 0
-22 -42 -62 -82 -102 -122 -142 -162 -182 -202 -222 0
-24 -44 -64 -84 -104 -124 -144 -164 -184 -204 -224 0
-26 -46 -66 -86 -106 -126 -146 -166 -186 -206 -226 0
-28 -48 -68 -88 -108 -128 -148 -168 -188 -208 -228 0
-2 -24 -46 -68 -90 -112 -134 -156 -178 -200 -222 0
-4 -26 -48 -70 -92 -114 -136 -158 -180 -202 -224 0
-6 -28 -50 -72 -94 -116 -138 -160 -182 -204 -226 0
-8 -30 -52 -74 -96 -118 -140 -162 -184 -206 -228 0
-1 -2 0
-3 -4 0
-5 -6 0
-7 -8 0
-9 -10 0
-11 -12 0
-13 -14 0
-15 -16 0
-17 -18 0
-19 -20 0
-21 -22 0
-23 -24 0
-25 -26 0
-27 -28 0
-29 -30 0
-31 -32 0
-33 -34 0
-35 -36 0
-37 -38 0
-39 -40 0
-41 -42 0
-43 -44 0
-45 -46 0
-47 -48 0
-49 -50 0
-51 -52 0
-53 -54 0
-55 -56 0
-57 -58 0
-59 -60 0
-61 -62 0
-63 -64 0
-65 -66 0
-67 -68 0
-69 -70 0
-71 -72 0
-73 -74 0
-75 -76 0
-77 -78 0
-79 -80 0
-81 -82 0
-83 -84 0
-85 -86 0
-87 -88 0
-89 -90 0
-91 -92 0
-93 -94 0
-95 -96 0
-97 -98 0
-99 -100 0
-101 -102 0
-103 -104 0
-105 -106 0
-107 -108 0
-109 -110 0
-111 -112 0
-113 -114 0
-115 -116 0
-117 -118 0
-119 -120 0
-121 -122 0
-123 -124 0
-125 -126 0
-127 -128 0
-129 -130 0
-131 -132 0
-133 -134 0
-135 -136 0
-137 -138 0
-139 -140 0
-141 -142 0
-143 -144 0
-145 -146 0
-147 -148 0
-149 -150 0
-151 -152 0
-153 -154 0
-155 -156 0
-157 -158 0
-159 -160 0
-161 -162 0
-163 -164 0
-165 -166 0
-167 -168 0
-169 -170 0
-171 -172 0
-173 -174 0
-175 -176 0
-177 -178 0
-179 -180 0
-181 -182 0
-183 -184 0
-185 -186 0
-187 -188 0
-189 -190 0
-191 -192 0
-193 -194 0
-195 -196 0
-197 -198 0
-199 -200 0
-201 -202 0
-203 -204 0
-205 -206 0
-207 -208 0
-209 -210 0
-211 -212 0
-213 -214 0
-215 -216 0
-217 -218 0
-219 -220 0
-221 -222 0
-223 -224 0
-225 -226 0
-227 -228 0
