p cnf 224 5206
1 2 3 4 0
5 6 7 8 0
9 10 11 12 0
13 14 15 16 0
17 18 19 20 0
21 22 23 24 0
25 26 27 28 0
29 30 31 32 0
33 34 35 36 0
37 38 39 40 0
41 42 43 44 0
45 46 47 48 0
49 50 51 52 0
53 54 55 56 0
57 58 59 60 0
61 62 63 64 0
65 66 67 68 0
69 70 71 72 0
73 74 75 76 0
77 78 79 80 0
81 82 83 84 0
85 86 87 88 0
89 90 91 92 0
93 94 95 96 0
97 98 99 100 0
101 102 103 104 0
105 106 107 108 0
109 110 111 112 0
113 114 115 116 0
117 118 119 120 0
121 122 123 124 0
125 126 127 128 0
129 130 131 132 0
133 134 135 136 0
137 138 139 140 0
141 142 143 144 0
145 146 147 148 0
149 150 151 152 0
153 154 155 156 0
157 158 159 160 0
161 162 163 164 0
165 166 167 168 0
169 170 171 172 0
173 174 175 176 0
177 178 179 180 0
181 182 183 184 0
185 186 187 188 0
189 190 191 192 0
193 194 195 196 0
197 198 199 200 0
201 202 203 204 0
205 206 207 208 0
209 210 211 212 0
213 214 215 216 0
217 218 219 220 0
221 222 223 224 0
-1 -5 0
-2 -6 0
-3 -7 0
-4 -8 0
-5 -9 0
-6 -10 0
-7 -11 0
-8 -12 0
-5 -9 -13 0
-6 -10 -14 0
-7 -11 -15 0
-8 -12 -16 0
-5 -13 -17 0
-6 -14 -18 0
-7 -15 -19 0
-8 -16 -20 0
-5 -17 -21 0
-6 -18 -22 0
-7 -19 -23 0
-8 -20 -24 0
-5 -21 -25 0
-6 -22 -26 0
-7 -23 -27 0
-8 -24 -28 0
-5 -25 -29 0
-6 -26 -30 0
-7 -27 -31 0
-8 -28 -32 0
-5 -29 -33 0
-6 -30 -34 0
-7 -31 -35 0
-8 -32 -36 0
-5 -33 -37 0
-6 -34 -38 0
-7 -35 -39 0
-8 -36 -40 0
-5 -37 -41 0
-6 -38 -42 0
-7 -39 -43 0
-8 -40 -44 0
-5 -41 -45 0
-6 -42 -46 0
-7 -43 -47 0
-8 -44 -48 0
-5 -45 -49 0
-6 -46 -50 0
-7 -47 -51 0
-8 -48 -52 0
-5 -49 -53 0
-6 -50 -54 0
-7 -51 -55 0
-8 -52 -56 0
-5 -53 -57 0
-6 -54 -58 0
-7 -55 -59 0
-8 -56 -60 0
-5 -57 -61 0
-6 -58 -62 0
-7 -59 -63 0
-8 -60 -64 0
-5 -61 -65 0
-6 -62 -66 0
-7 -63 -67 0
-8 -64 -68 0
-5 -65 -69 0
-6 -66 -70 0
-7 -67 -71 0
-8 -68 -72 0
-5 -69 -73 0
-6 -70 -74 0
-7 -71 -75 0
-8 -72 -76 0
-5 -73 -77 0
-6 -74 -78 0
-7 -75 -79 0
-8 -76 -80 0
-5 -77 -81 0
-6 -78 -82 0
-7 -79 -83 0
-8 -80 -84 0
-5 -81 -85 0
-6 -82 -86 0
-7 -83 -87 0
-8 -84 -88 0
-5 -85 -89 0
-6 -86 -90 0
-7 -87 -91 0
-8 -88 -92 0
-5 -89 -93 0
-6 -90 -94 0
-7 -91 -95 0
-8 -92 -96 0
-5 -93 -97 0
-6 -94 -98 0
-7 -95 -99 0
-8 -96 -100 0
-5 -97 -101 0
-6 -98 -102 0
-7 -99 -103 0
-8 -100 -104 0
-5 -101 -105 0
-6 -102 -106 0
-7 -103 -107 0
-8 -104 -108 0
-5 -105 -109 0
-6 -106 -110 0
-7 -107 -111 0
-8 -108 -112 0
-5 -109 -113 0
-6 -110 -114 0
-7 -111 -115 0
-8 -112 -116 0
-5 -113 -117 0
-6 -114 -118 0
-7 -115 -119 0
-8 -116 -120 0
-5 -117 -121 0
-6 -118 -122 0
-7 -119 -123 0
-8 -120 -124 0
-5 -121 -125 0
-6 -122 -126 0
-7 -123 -127 0
-8 -124 -128 0
-5 -125 -129 0
-6 -126 -130 0
-7 -127 -131 0
-8 -128 -132 0
-5 -129 -133 0
-6 -130 -134 0
-7 -131 -135 0
-8 -132 -136 0
-5 -133 -137 0
-6 -134 -138 0
-7 -135 -139 0
-8 -136 -140 0
-5 -137 -141 0
-6 -138 -142 0
-7 -139 -143 0
-8 -140 -144 0
-5 -141 -145 0
-6 -142 -146 0
-7 -143 -147 0
-8 -144 -148 0
-5 -145 -149 0
-6 -146 -150 0
-7 -147 -151 0
-8 -148 -152 0
-5 -149 -153 0
-6 -150 -154 0
-7 -151 -155 0
-8 -152 -156 0
-5 -153 -157 0
-6 -154 -158 0
-7 -155 -159 0
-8 -156 -160 0
-5 -157 -161 0
-6 -158 -162 0
-7 -159 -163 0
-8 -160 -164 0
-5 -161 -165 0
-6 -162 -166 0
-7 -163 -167 0
-8 -164 -168 0
-5 -165 -169 0
-6 -166 -170 0
-7 -167 -171 0
-8 -168 -172 0
-5 -169 -173 0
-6 -170 -174 0
-7 -171 -175 0
-8 -172 -176 0
-5 -173 -177 0
-6 -174 -178 0
-7 -175 -179 0
-8 -176 -180 0
-5 -177 -181 0
-6 -178 -182 0
-7 -179 -183 0
-8 -180 -184 0
-5 -181 -185 0
-6 -182 -186 0
-7 -183 -187 0
-8 -184 -188 0
-5 -185 -189 0
-6 -186 -190 0
-7 -187 -191 0
-8 -188 -192 0
-5 -189 -193 0
-6 -190 -194 0
-7 -191 -195 0
-8 -192 -196 0
-5 -193 -197 0
-6 -194 -198 0
-7 -195 -199 0
-8 -196 -200 0
-5 -197 -201 0
-6 -198 -202 0
-7 -199 -203 0
-8 -200 -204 0
-5 -201 -205 0
-6 -202 -206 0
-7 -203 -207 0
-8 -204 -208 0
-5 -205 -209 0
-6 -206 -210 0
-7 -207 -211 0
-8 -208 -212 0
-5 -209 -213 0
-6 -210 -214 0
-7 -211 -215 0
-8 -212 -216 0
-5 -213 -217 0
-6 -214 -218 0
-7 -215 -219 0
-8 -216 -220 0
-5 -217 -221 0
-6 -218 -222 0
-7 -219 -223 0
-8 -220 -224 0
-1 -9 -13 0
-2 -10 -14 0
-3 -11 -15 0
-4 -12 -16 0
-5 -13 0
-6 -14 0
-7 -15 0
-8 -16 0
-9 -13 -17 0
-10 -14 -18 0
-11 -15 -19 0
-12 -16 -20 0
-13 -21 0
-14 -22 0
-15 -23 0
-16 -24 0
-13 -17 -25 0
-14 -18 -26 0
-15 -19 -27 0
-16 -20 -28 0
-13 -21 -29 0
-14 -22 -30 0
-15 -23 -31 0
-16 -24 -32 0
-13 -25 -33 0
-14 -26 -34 0
-15 -27 -35 0
-16 -28 -36 0
-13 -29 -37 0
-14 -30 -38 0
-15 -31 -39 0
-16 -32 -40 0
-13 -33 -41 0
-14 -34 -42 0
-15 -35 -43 0
-16 -36 -44 0
-13 -37 -45 0
-14 -38 -46 0
-15 -39 -47 0
-16 -40 -48 0
-13 -41 -49 0
-14 -42 -50 0
-15 -43 -51 0
-16 -44 -52 0
-13 -45 -53 0
-14 -46 -54 0
-15 -47 -55 0
-16 -48 -56 0
-13 -49 -57 0
-14 -50 -58 0
-15 -51 -59 0
-16 -52 -60 0
-13 -53 -61 0
-14 -54 -62 0
-15 -55 -63 0
-16 -56 -64 0
-13 -57 -65 0
-14 -58 -66 0
-15 -59 -67 0
-16 -60 -68 0
-13 -61 -69 0
-14 -62 -70 0
-15 -63 -71 0
-16 -64 -72 0
-13 -65 -73 0
-14 -66 -74 0
-15 -67 -75 0
-16 -68 -76 0
-13 -69 -77 0
-14 -70 -78 0
-15 -71 -79 0
-16 -72 -80 0
-13 -73 -81 0
-14 -74 -82 0
-15 -75 -83 0
-16 -76 -84 0
-13 -77 -85 0
-14 -78 -86 0
-15 -79 -87 0
-16 -80 -88 0
-13 -81 -89 0
-14 -82 -90 0
-15 -83 -91 0
-16 -84 -92 0
-13 -85 -93 0
-14 -86 -94 0
-15 -87 -95 0
-16 -88 -96 0
-13 -89 -97 0
-14 -90 -98 0
-15 -91 -99 0
-16 -92 -100 0
-13 -93 -101 0
-14 -94 -102 0
-15 -95 -103 0
-16 -96 -104 0
-13 -97 -105 0
-14 -98 -106 0
-15 -99 -107 0
-16 -100 -108 0
-13 -101 -109 0
-14 -102 -110 0
-15 -103 -111 0
-16 -104 -112 0
-13 -105 -113 0
-14 -106 -114 0
-15 -107 -115 0
-16 -108 -116 0
-13 -109 -117 0
-14 -110 -118 0
-15 -111 -119 0
-16 -112 -120 0
-13 -113 -121 0
-14 -114 -122 0
-15 -115 -123 0
-16 -116 -124 0
-13 -117 -125 0
-14 -118 -126 0
-15 -119 -127 0
-16 -120 -128 0
-13 -121 -129 0
-14 -122 -130 0
-15 -123 -131 0
-16 -124 -132 0
-13 -125 -133 0
-14 -126 -134 0
-15 -127 -135 0
-16 -128 -136 0
-13 -129 -137 0
-14 -130 -138 0
-15 -131 -139 0
-16 -132 -140 0
-13 -133 -141 0
-14 -134 -142 0
-15 -135 -143 0
-16 -136 -144 0
-13 -137 -145 0
-14 -138 -146 0
-15 -139 -147 0
-16 -140 -148 0
-13 -141 -149 0
-14 -142 -150 0
-15 -143 -151 0
-16 -144 -152 0
-13 -145 -153 0
-14 -146 -154 0
-15 -147 -155 0
-16 -148 -156 0
-13 -149 -157 0
-14 -150 -158 0
-15 -151 -159 0
-16 -152 -160 0
-13 -153 -161 0
-14 -154 -162 0
-15 -155 -163 0
-16 -156 -164 0
-13 -157 -165 0
-14 -158 -166 0
-15 -159 -167 0
-16 -160 -168 0
-13 -161 -169 0
-14 -162 -170 0
-15 -163 -171 0
-16 -164 -172 0
-13 -165 -173 0
-14 -166 -174 0
-15 -167 -175 0
-16 -168 -176 0
-13 -169 -177 0
-14 -170 -178 0
-15 -171 -179 0
-16 -172 -180 0
-13 -173 -181 0
-14 -174 -182 0
-15 -175 -183 0
-16 -176 -184 0
-13 -177 -185 0
-14 -178 -186 0
-15 -179 -187 0
-16 -180 -188 0
-13 -181 -189 0
-14 -182 -190 0
-15 -183 -191 0
-16 -184 -192 0
-13 -185 -193 0
-14 -186 -194 0
-15 -187 -195 0
-16 -188 -196 0
-13 -189 -197 0
-14 -190 -198 0
-15 -191 -199 0
-16 -192 -200 0
-13 -193 -201 0
-14 -194 -202 0
-15 -195 -203 0
-16 -196 -204 0
-13 -197 -205 0
-14 -198 -206 0
-15 -199 -207 0
-16 -200 -208 0
-13 -201 -209 0
-14 -202 -210 0
-15 -203 -211 0
-16 -204 -212 0
-13 -205 -213 0
-14 -206 -214 0
-15 -207 -215 0
-16 -208 -216 0
-13 -209 -217 0
-14 -210 -218 0
-15 -211 -219 0
-16 -212 -220 0
-13 -213 -221 0
-14 -214 -222 0
-15 -215 -223 0
-16 -216 -224 0
-1 -13 -21 0
-2 -14 -22 0
-3 -15 -23 0
-4 -16 -24 0
-5 -17 -21 0
-6 -18 -22 0
-7 -19 -23 0
-8 -20 -24 0
-9 -21 0
-10 -22 0
-11 -23 0
-12 -24 0
-13 -21 -25 0
-14 -22 -26 0
-15 -23 -27 0
-16 -24 -28 0
-17 -21 -29 0
-18 -22 -30 0
-19 -23 -31 0
-20 -24 -32 0
-21 -33 0
-22 -34 0
-23 -35 0
-24 -36 0
-21 -25 -37 0
-22 -26 -38 0
-23 -27 -39 0
-24 -28 -40 0
-21 -29 -41 0
-22 -30 -42 0
-23 -31 -43 0
-24 -32 -44 0
-21 -33 -45 0
-22 -34 -46 0
-23 -35 -47 0
-24 -36 -48 0
-21 -37 -49 0
-22 -38 -50 0
-23 -39 -51 0
-24 -40 -52 0
-21 -41 -53 0
-22 -42 -54 0
-23 -43 -55 0
-24 -44 -56 0
-21 -45 -57 0
-22 -46 -58 0
-23 -47 -59 0
-24 -48 -60 0
-21 -49 -61 0
-22 -50 -62 0
-23 -51 -63 0
-24 -52 -64 0
-21 -53 -65 0
-22 -54 -66 0
-23 -55 -67 0
-24 -56 -68 0
-21 -57 -69 0
-22 -58 -70 0
-23 -59 -71 0
-24 -60 -72 0
-21 -61 -73 0
-22 -62 -74 0
-23 -63 -75 0
-24 -64 -76 0
-21 -65 -77 0
-22 -66 -78 0
-23 -67 -79 0
-24 -68 -80 0
-21 -69 -81 0
-22 -70 -82 0
-23 -71 -83 0
-24 -72 -84 0
-21 -73 -85 0
-22 -74 -86 0
-23 -75 -87 0
-24 -76 -88 0
-21 -77 -89 0
-22 -78 -90 0
-23 -79 -91 0
-24 -80 -92 0
-21 -81 -93 0
-22 -82 -94 0
-23 -83 -95 0
-24 -84 -96 0
-21 -85 -97 0
-22 -86 -98 0
-23 -87 -99 0
-24 -88 -100 0
-21 -89 -101 0
-22 -90 -102 0
-23 -91 -103 0
-24 -92 -104 0
-21 -93 -105 0
-22 -94 -106 0
-23 -95 -107 0
-24 -96 -108 0
-21 -97 -109 0
-22 -98 -110 0
-23 -99 -111 0
-24 -100 -112 0
-21 -101 -113 0
-22 -102 -114 0
-23 -103 -115 0
-24 -104 -116 0
-21 -105 -117 0
-22 -106 -118 0
-23 -107 -119 0
-24 -108 -120 0
-21 -109 -121 0
-22 -110 -122 0
-23 -111 -123 0
-24 -112 -124 0
-21 -113 -125 0
-22 -114 -126 0
-23 -115 -127 0
-24 -116 -128 0
-21 -117 -129 0
-22 -118 -130 0
-23 -119 -131 0
-24 -120 -132 0
-21 -121 -133 0
-22 -122 -134 0
-23 -123 -135 0
-24 -124 -136 0
-21 -125 -137 0
-22 -126 -138 0
-23 -127 -139 0
-24 -128 -140 0
-21 -129 -141 0
-22 -130 -142 0
-23 -131 -143 0
-24 -132 -144 0
-21 -133 -145 0
-22 -134 -146 0
-23 -135 -147 0
-24 -136 -148 0
-21 -137 -149 0
-22 -138 -150 0
-23 -139 -151 0
-24 -140 -152 0
-21 -141 -153 0
-22 -142 -154 0
-23 -143 -155 0
-24 -144 -156 0
-21 -145 -157 0
-22 -146 -158 0
-23 -147 -159 0
-24 -148 -160 0
-21 -149 -161 0
-22 -150 -162 0
-23 -151 -163 0
-24 -152 -164 0
-21 -153 -165 0
-22 -154 -166 0
-23 -155 -167 0
-24 -156 -168 0
-21 -157 -169 0
-22 -158 -170 0
-23 -159 -171 0
-24 -160 -172 0
-21 -161 -173 0
-22 -162 -174 0
-23 -163 -175 0
-24 -164 -176 0
-21 -165 -177 0
-22 -166 -178 0
-23 -167 -179 0
-24 -168 -180 0
-21 -169 -181 0
-22 -170 -182 0
-23 -171 -183 0
-24 -172 -184 0
-21 -173 -185 0
-22 -174 -186 0
-23 -175 -187 0
-24 -176 -188 0
-21 -177 -189 0
-22 -178 -190 0
-23 -179 -191 0
-24 -180 -192 0
-21 -181 -193 0
-22 -182 -194 0
-23 -183 -195 0
-24 -184 -196 0
-21 -185 -197 0
-22 -186 -198 0
-23 -187 -199 0
-24 -188 -200 0
-21 -189 -201 0
-22 -190 -202 0
-23 -191 -203 0
-24 -192 -204 0
-21 -193 -205 0
-22 -194 -206 0
-23 -195 -207 0
-24 -196 -208 0
-21 -197 -209 0
-22 -198 -210 0
-23 -199 -211 0
-24 -200 -212 0
-21 -201 -213 0
-22 -202 -214 0
-23 -203 -215 0
-24 -204 -216 0
-21 -205 -217 0
-22 -206 -218 0
-23 -207 -219 0
-24 -208 -220 0
-21 -209 -221 0
-22 -210 -222 0
-23 -211 -223 0
-24 -212 -224 0
-1 -17 -29 0
-2 -18 -30 0
-3 -19 -31 0
-4 -20 -32 0
-5 -21 -29 0
-6 -22 -30 0
-7 -23 -31 0
-8 -24 -32 0
-9 -25 -29 0
-10 -26 -30 0
-11 -27 -31 0
-12 -28 -32 0
-13 -29 0
-14 -30 0
-15 -31 0
-16 -32 0
-17 -29 -33 0
-18 -30 -34 0
-19 -31 -35 0
-20 -32 -36 0
-21 -29 -37 0
-22 -30 -38 0
-23 -31 -39 0
-24 -32 -40 0
-25 -29 -41 0
-26 -30 -42 0
-27 -31 -43 0
-28 -32 -44 0
-29 -45 0
-30 -46 0
-31 -47 0
-32 -48 0
-29 -33 -49 0
-30 -34 -50 0
-31 -35 -51 0
-32 -36 -52 0
-29 -37 -53 0
-30 -38 -54 0
-31 -39 -55 0
-32 -40 -56 0
-29 -41 -57 0
-30 -42 -58 0
-31 -43 -59 0
-32 -44 -60 0
-29 -45 -61 0
-30 -46 -62 0
-31 -47 -63 0
-32 -48 -64 0
-29 -49 -65 0
-30 -50 -66 0
-31 -51 -67 0
-32 -52 -68 0
-29 -53 -69 0
-30 -54 -70 0
-31 -55 -71 0
-32 -56 -72 0
-29 -57 -73 0
-30 -58 -74 0
-31 -59 -75 0
-32 -60 -76 0
-29 -61 -77 0
-30 -62 -78 0
-31 -63 -79 0
-32 -64 -80 0
-29 -65 -81 0
-30 -66 -82 0
-31 -67 -83 0
-32 -68 -84 0
-29 -69 -85 0
-30 -70 -86 0
-31 -71 -87 0
-32 -72 -88 0
-29 -73 -89 0
-30 -74 -90 0
-31 -75 -91 0
-32 -76 -92 0
-29 -77 -93 0
-30 -78 -94 0
-31 -79 -95 0
-32 -80 -96 0
-29 -81 -97 0
-30 -82 -98 0
-31 -83 -99 0
-32 -84 -100 0
-29 -85 -101 0
-30 -86 -102 0
-31 -87 -103 0
-32 -88 -104 0
-29 -89 -105 0
-30 -90 -106 0
-31 -91 -107 0
-32 -92 -108 0
-29 -93 -109 0
-30 -94 -110 0
-31 -95 -111 0
-32 -96 -112 0
-29 -97 -113 0
-30 -98 -114 0
-31 -99 -115 0
-32 -100 -116 0
-29 -101 -117 0
-30 -102 -118 0
-31 -103 -119 0
-32 -104 -120 0
-29 -105 -121 0
-30 -106 -122 0
-31 -107 -123 0
-32 -108 -124 0
-29 -109 -125 0
-30 -110 -126 0
-31 -111 -127 0
-32 -112 -128 0
-29 -113 -129 0
-30 -114 -130 0
-31 -115 -131 0
-32 -116 -132 0
-29 -117 -133 0
-30 -118 -134 0
-31 -119 -135 0
-32 -120 -136 0
-29 -121 -137 0
-30 -122 -138 0
-31 -123 -139 0
-32 -124 -140 0
-29 -125 -141 0
-30 -126 -142 0
-31 -127 -143 0
-32 -128 -144 0
-29 -129 -145 0
-30 -130 -146 0
-31 -131 -147 0
-32 -132 -148 0
-29 -133 -149 0
-30 -134 -150 0
-31 -135 -151 0
-32 -136 -152 0
-29 -137 -153 0
-30 -138 -154 0
-31 -139 -155 0
-32 -140 -156 0
-29 -141 -157 0
-30 -142 -158 0
-31 -143 -159 0
-32 -144 -160 0
-29 -145 -161 0
-30 -146 -162 0
-31 -147 -163 0
-32 -148 -164 0
-29 -149 -165 0
-30 -150 -166 0
-31 -151 -167 0
-32 -152 -168 0
-29 -153 -169 0
-30 -154 -170 0
-31 -155 -171 0
-32 -156 -172 0
-29 -157 -173 0
-30 -158 -174 0
-31 -159 -175 0
-32 -160 -176 0
-29 -161 -177 0
-30 -162 -178 0
-31 -163 -179 0
-32 -164 -180 0
-29 -165 -181 0
-30 -166 -182 0
-31 -167 -183 0
-32 -168 -184 0
-29 -169 -185 0
-30 -170 -186 0
-31 -171 -187 0
-32 -172 -188 0
-29 -173 -189 0
-30 -174 -190 0
-31 -175 -191 0
-32 -176 -192 0
-29 -177 -193 0
-30 -178 -194 0
-31 -179 -195 0
-32 -180 -196 0
-29 -181 -197 0
-30 -182 -198 0
-31 -183 -199 0
-32 -184 -200 0
-29 -185 -201 0
-30 -186 -202 0
-31 -187 -203 0
-32 -188 -204 0
-29 -189 -205 0
-30 -190 -206 0
-31 -191 -207 0
-32 -192 -208 0
-29 -193 -209 0
-30 -194 -210 0
-31 -195 -211 0
-32 -196 -212 0
-29 -197 -213 0
-30 -198 -214 0
-31 -199 -215 0
-32 -200 -216 0
-29 -201 -217 0
-30 -202 -218 0
-31 -203 -219 0
-32 -204 -220 0
-29 -205 -221 0
-30 -206 -222 0
-31 -207 -223 0
-32 -208 -224 0
-1 -21 -37 0
-2 -22 -38 0
-3 -23 -39 0
-4 -24 -40 0
-5 -25 -37 0
-6 -26 -38 0
-7 -27 -39 0
-8 -28 -40 0
-9 -29 -37 0
-10 -30 -38 0
-11 -31 -39 0
-12 -32 -40 0
-13 -33 -37 0
-14 -34 -38 0
-15 -35 -39 0
-16 -36 -40 0
-17 -37 0
-18 -38 0
-19 -39 0
-20 -40 0
-21 -37 -41 0
-22 -38 -42 0
-23 -39 -43 0
-24 -40 -44 0
-25 -37 -45 0
-26 -38 -46 0
-27 -39 -47 0
-28 -40 -48 0
-29 -37 -49 0
-30 -38 -50 0
-31 -39 -51 0
-32 -40 -52 0
-33 -37 -53 0
-34 -38 -54 0
-35 -39 -55 0
-36 -40 -56 0
-37 -57 0
-38 -58 0
-39 -59 0
-40 -60 0
-37 -41 -61 0
-38 -42 -62 0
-39 -43 -63 0
-40 -44 -64 0
-37 -45 -65 0
-38 -46 -66 0
-39 -47 -67 0
-40 -48 -68 0
-37 -49 -69 0
-38 -50 -70 0
-39 -51 -71 0
-40 -52 -72 0
-37 -53 -73 0
-38 -54 -74 0
-39 -55 -75 0
-40 -56 -76 0
-37 -57 -77 0
-38 -58 -78 0
-39 -59 -79 0
-40 -60 -80 0
-37 -61 -81 0
-38 -62 -82 0
-39 -63 -83 0
-40 -64 -84 0
-37 -65 -85 0
-38 -66 -86 0
-39 -67 -87 0
-40 -68 -88 0
-37 -69 -89 0
-38 -70 -90 0
-39 -71 -91 0
-40 -72 -92 0
-37 -73 -93 0
-38 -74 -94 0
-39 -75 -95 0
-40 -76 -96 0
-37 -77 -97 0
-38 -78 -98 0
-39 -79 -99 0
-40 -80 -100 0
-37 -81 -101 0
-38 -82 -102 0
-39 -83 -103 0
-40 -84 -104 0
-37 -85 -105 0
-38 -86 -106 0
-39 -87 -107 0
-40 -88 -108 0
-37 -89 -109 0
-38 -90 -110 0
-39 -91 -111 0
-40 -92 -112 0
-37 -93 -113 0
-38 -94 -114 0
-39 -95 -115 0
-40 -96 -116 0
-37 -97 -117 0
-38 -98 -118 0
-39 -99 -119 0
-40 -100 -120 0
-37 -101 -121 0
-38 -102 -122 0
-39 -103 -123 0
-40 -104 -124 0
-37 -105 -125 0
-38 -106 -126 0
-39 -107 -127 0
-40 -108 -128 0
-37 -109 -129 0
-38 -110 -130 0
-39 -111 -131 0
-40 -112 -132 0
-37 -113 -133 0
-38 -114 -134 0
-39 -115 -135 0
-40 -116 -136 0
-37 -117 -137 0
-38 -118 -138 0
-39 -119 -139 0
-40 -120 -140 0
-37 -121 -141 0
-38 -122 -142 0
-39 -123 -143 0
-40 -124 -144 0
-37 -125 -145 0
-38 -126 -146 0
-39 -127 -147 0
-40 -128 -148 0
-37 -129 -149 0
-38 -130 -150 0
-39 -131 -151 0
-40 -132 -152 0
-37 -133 -153 0
-38 -134 -154 0
-39 -135 -155 0
-40 -136 -156 0
-37 -137 -157 0
-38 -138 -158 0
-39 -139 -159 0
-40 -140 -160 0
-37 -141 -161 0
-38 -142 -162 0
-39 -143 -163 0
-40 -144 -164 0
-37 -145 -165 0
-38 -146 -166 0
-39 -147 -167 0
-40 -148 -168 0
-37 -149 -169 0
-38 -150 -170 0
-39 -151 -171 0
-40 -152 -172 0
-37 -153 -173 0
-38 -154 -174 0
-39 -155 -175 0
-40 -156 -176 0
-37 -157 -177 0
-38 -158 -178 0
-39 -159 -179 0
-40 -160 -180 0
-37 -161 -181 0
-38 -162 -182 0
-39 -163 -183 0
-40 -164 -184 0
-37 -165 -185 0
-38 -166 -186 0
-39 -167 -187 0
-40 -168 -188 0
-37 -169 -189 0
-38 -170 -190 0
-39 -171 -191 0
-40 -172 -192 0
-37 -173 -193 0
-38 -174 -194 0
-39 -175 -195 0
-40 -176 -196 0
-37 -177 -197 0
-38 -178 -198 0
-39 -179 -199 0
-40 -180 -200 0
-37 -181 -201 0
-38 -182 -202 0
-39 -183 -203 0
-40 -184 -204 0
-37 -185 -205 0
-38 -186 -206 0
-39 -187 -207 0
-40 -188 -208 0
-37 -189 -209 0
-38 -190 -210 0
-39 -191 -211 0
-40 -192 -212 0
-37 -193 -213 0
-38 -194 -214 0
-39 -195 -215 0
-40 -196 -216 0
-37 -197 -217 0
-38 -198 -218 0
-39 -199 -219 0
-40 -200 -220 0
-37 -201 -221 0
-38 -202 -222 0
-39 -203 -223 0
-40 -204 -224 0
-1 -25 -45 0
-2 -26 -46 0
-3 -27 -47 0
-4 -28 -48 0
-5 -29 -45 0
-6 -30 -46 0
-7 -31 -47 0
-8 -32 -48 0
-9 -33 -45 0
-10 -34 -46 0
-11 -35 -47 0
-12 -36 -48 0
-13 -37 -45 0
-14 -38 -46 0
-15 -39 -47 0
-16 -40 -48 0
-17 -41 -45 0
-18 -42 -46 0
-19 -43 -47 0
-20 -44 -48 0
-21 -45 0
-22 -46 0
-23 -47 0
-24 -48 0
-25 -45 -49 0
-26 -46 -50 0
-27 -47 -51 0
-28 -48 -52 0
-29 -45 -53 0
-30 -46 -54 0
-31 -47 -55 0
-32 -48 -56 0
-33 -45 -57 0
-34 -46 -58 0
-35 -47 -59 0
-36 -48 -60 0
-37 -45 -61 0
-38 -46 -62 0
-39 -47 -63 0
-40 -48 -64 0
-41 -45 -65 0
-42 -46 -66 0
-43 -47 -67 0
-44 -48 -68 0
-45 -69 0
-46 -70 0
-47 -71 0
-48 -72 0
-45 -49 -73 0
-46 -50 -74 0
-47 -51 -75 0
-48 -52 -76 0
-45 -53 -77 0
-46 -54 -78 0
-47 -55 -79 0
-48 -56 -80 0
-45 -57 -81 0
-46 -58 -82 0
-47 -59 -83 0
-48 -60 -84 0
-45 -61 -85 0
-46 -62 -86 0
-47 -63 -87 0
-48 -64 -88 0
-45 -65 -89 0
-46 -66 -90 0
-47 -67 -91 0
-48 -68 -92 0
-45 -69 -93 0
-46 -70 -94 0
-47 -71 -95 0
-48 -72 -96 0
-45 -73 -97 0
-46 -74 -98 0
-47 -75 -99 0
-48 -76 -100 0
-45 -77 -101 0
-46 -78 -102 0
-47 -79 -103 0
-48 -80 -104 0
-45 -81 -105 0
-46 -82 -106 0
-47 -83 -107 0
-48 -84 -108 0
-45 -85 -109 0
-46 -86 -110 0
-47 -87 -111 0
-48 -88 -112 0
-45 -89 -113 0
-46 -90 -114 0
-47 -91 -115 0
-48 -92 -116 0
-45 -93 -117 0
-46 -94 -118 0
-47 -95 -119 0
-48 -96 -120 0
-45 -97 -121 0
-46 -98 -122 0
-47 -99 -123 0
-48 -100 -124 0
-45 -101 -125 0
-46 -102 -126 0
-47 -103 -127 0
-48 -104 -128 0
-45 -105 -129 0
-46 -106 -130 0
-47 -107 -131 0
-48 -108 -132 0
-45 -109 -133 0
-46 -110 -134 0
-47 -111 -135 0
-48 -112 -136 0
-45 -113 -137 0
-46 -114 -138 0
-47 -115 -139 0
-48 -116 -140 0
-45 -117 -141 0
-46 -118 -142 0
-47 -119 -143 0
-48 -120 -144 0
-45 -121 -145 0
-46 -122 -146 0
-47 -123 -147 0
-48 -124 -148 0
-45 -125 -149 0
-46 -126 -150 0
-47 -127 -151 0
-48 -128 -152 0
-45 -129 -153 0
-46 -130 -154 0
-47 -131 -155 0
-48 -132 -156 0
-45 -133 -157 0
-46 -134 -158 0
-47 -135 -159 0
-48 -136 -160 0
-45 -137 -161 0
-46 -138 -162 0
-47 -139 -163 0
-48 -140 -164 0
-45 -141 -165 0
-46 -142 -166 0
-47 -143 -167 0
-48 -144 -168 0
-45 -145 -169 0
-46 -146 -170 0
-47 -147 -171 0
-48 -148 -172 0
-45 -149 -173 0
-46 -150 -174 0
-47 -151 -175 0
-48 -152 -176 0
-45 -153 -177 0
-46 -154 -178 0
-47 -155 -179 0
-48 -156 -180 0
-45 -157 -181 0
-46 -158 -182 0
-47 -159 -183 0
-48 -160 -184 0
-45 -161 -185 0
-46 -162 -186 0
-47 -163 -187 0
-48 -164 -188 0
-45 -165 -189 0
-46 -166 -190 0
-47 -167 -191 0
-48 -168 -192 0
-45 -169 -193 0
-46 -170 -194 0
-47 -171 -195 0
-48 -172 -196 0
-45 -173 -197 0
-46 -174 -198 0
-47 -175 -199 0
-48 -176 -200 0
-45 -177 -201 0
-46 -178 -202 0
-47 -179 -203 0
-48 -180 -204 0
-45 -181 -205 0
-46 -182 -206 0
-47 -183 -207 0
-48 -184 -208 0
-45 -185 -209 0
-46 -186 -210 0
-47 -187 -211 0
-48 -188 -212 0
-45 -189 -213 0
-46 -190 -214 0
-47 -191 -215 0
-48 -192 -216 0
-45 -193 -217 0
-46 -194 -218 0
-47 -195 -219 0
-48 -196 -220 0
-45 -197 -221 0
-46 -198 -222 0
-47 -199 -223 0
-48 -200 -224 0
-1 -29 -53 0
-2 -30 -54 0
-3 -31 -55 0
-4 -32 -56 0
-5 -33 -53 0
-6 -34 -54 0
-7 -35 -55 0
-8 -36 -56 0
-9 -37 -53 0
-10 -38 -54 0
-11 -39 -55 0
-12 -40 -56 0
-13 -41 -53 0
-14 -42 -54 0
-15 -43 -55 0
-16 -44 -56 0
-17 -45 -53 0
-18 -46 -54 0
-19 -47 -55 0
-20 -48 -56 0
-21 -49 -53 0
-22 -50 -54 0
-23 -51 -55 0
-24 -52 -56 0
-25 -53 0
-26 -54 0
-27 -55 0
-28 -56 0
-29 -53 -57 0
-30 -54 -58 0
-31 -55 -59 0
-32 -56 -60 0
-33 -53 -61 0
-34 -54 -62 0
-35 -55 -63 0
-36 -56 -64 0
-37 -53 -65 0
-38 -54 -66 0
-39 -55 -67 0
-40 -56 -68 0
-41 -53 -69 0
-42 -54 -70 0
-43 -55 -71 0
-44 -56 -72 0
-45 -53 -73 0
-46 -54 -74 0
-47 -55 -75 0
-48 -56 -76 0
-49 -53 -77 0
-50 -54 -78 0
-51 -55 -79 0
-52 -56 -80 0
-53 -81 0
-54 -82 0
-55 -83 0
-56 -84 0
-53 -57 -85 0
-54 -58 -86 0
-55 -59 -87 0
-56 -60 -88 0
-53 -61 -89 0
-54 -62 -90 0
-55 -63 -91 0
-56 -64 -92 0
-53 -65 -93 0
-54 -66 -94 0
-55 -67 -95 0
-56 -68 -96 0
-53 -69 -97 0
-54 -70 -98 0
-55 -71 -99 0
-56 -72 -100 0
-53 -73 -101 0
-54 -74 -102 0
-55 -75 -103 0
-56 -76 -104 0
-53 -77 -105 0
-54 -78 -106 0
-55 -79 -107 0
-56 -80 -108 0
-53 -81 -109 0
-54 -82 -110 0
-55 -83 -111 0
-56 -84 -112 0
-53 -85 -113 0
-54 -86 -114 0
-55 -87 -115 0
-56 -88 -116 0
-53 -89 -117 0
-54 -90 -118 0
-55 -91 -119 0
-56 -92 -120 0
-53 -93 -121 0
-54 -94 -122 0
-55 -95 -123 0
-56 -96 -124 0
-53 -97 -125 0
-54 -98 -126 0
-55 -99 -127 0
-56 -100 -128 0
-53 -101 -129 0
-54 -102 -130 0
-55 -103 -131 0
-56 -104 -132 0
-53 -105 -133 0
-54 -106 -134 0
-55 -107 -135 0
-56 -108 -136 0
-53 -109 -137 0
-54 -110 -138 0
-55 -111 -139 0
-56 -112 -140 0
-53 -113 -141 0
-54 -114 -142 0
-55 -115 -143 0
-56 -116 -144 0
-53 -117 -145 0
-54 -118 -146 0
-55 -119 -147 0
-56 -120 -148 0
-53 -121 -149 0
-54 -122 -150 0
-55 -123 -151 0
-56 -124 -152 0
-53 -125 -153 0
-54 -126 -154 0
-55 -127 -155 0
-56 -128 -156 0
-53 -129 -157 0
-54 -130 -158 0
-55 -131 -159 0
-56 -132 -160 0
-53 -133 -161 0
-54 -134 -162 0
-55 -135 -163 0
-56 -136 -164 0
-53 -137 -165 0
-54 -138 -166 0
-55 -139 -167 0
-56 -140 -168 0
-53 -141 -169 0
-54 -142 -170 0
-55 -143 -171 0
-56 -144 -172 0
-53 -145 -173 0
-54 -146 -174 0
-55 -147 -175 0
-56 -148 -176 0
-53 -149 -177 0
-54 -150 -178 0
-55 -151 -179 0
-56 -152 -180 0
-53 -153 -181 0
-54 -154 -182 0
-55 -155 -183 0
-56 -156 -184 0
-53 -157 -185 0
-54 -158 -186 0
-55 -159 -187 0
-56 -160 -188 0
-53 -161 -189 0
-54 -162 -190 0
-55 -163 -191 0
-56 -164 -192 0
-53 -165 -193 0
-54 -166 -194 0
-55 -167 -195 0
-56 -168 -196 0
-53 -169 -197 0
-54 -170 -198 0
-55 -171 -199 0
-56 -172 -200 0
-53 -173 -201 0
-54 -174 -202 0
-55 -175 -203 0
-56 -176 -204 0
-53 -177 -205 0
-54 -178 -206 0
-55 -179 -207 0
-56 -180 -208 0
-53 -181 -209 0
-54 -182 -210 0
-55 -183 -211 0
-56 -184 -212 0
-53 -185 -213 0
-54 -186 -214 0
-55 -187 -215 0
-56 -188 -216 0
-53 -189 -217 0
-54 -190 -218 0
-55 -191 -219 0
-56 -192 -220 0
-53 -193 -221 0
-54 -194 -222 0
-55 -195 -223 0
-56 -196 -224 0
-1 -33 -61 0
-2 -34 -62 0
-3 -35 -63 0
-4 -36 -64 0
-5 -37 -61 0
-6 -38 -62 0
-7 -39 -63 0
-8 -40 -64 0
-9 -41 -61 0
-10 -42 -62 0
-11 -43 -63 0
-12 -44 -64 0
-13 -45 -61 0
-14 -46 -62 0
-15 -47 -63 0
-16 -48 -64 0
-17 -49 -61 0
-18 -50 -62 0
-19 -51 -63 0
-20 -52 -64 0
-21 -53 -61 0
-22 -54 -62 0
-23 -55 -63 0
-24 -56 -64 0
-25 -57 -61 0
-26 -58 -62 0
-27 -59 -63 0
-28 -60 -64 0
-29 -61 0
-30 -62 0
-31 -63 0
-32 -64 0
-33 -61 -65 0
-34 -62 -66 0
-35 -63 -67 0
-36 -64 -68 0
-37 -61 -69 0
-38 -62 -70 0
-39 -63 -71 0
-40 -64 -72 0
-41 -61 -73 0
-42 -62 -74 0
-43 -63 -75 0
-44 -64 -76 0
-45 -61 -77 0
-46 -62 -78 0
-47 -63 -79 0
-48 -64 -80 0
-49 -61 -81 0
-50 -62 -82 0
-51 -63 -83 0
-52 -64 -84 0
-53 -61 -85 0
-54 -62 -86 0
-55 -63 -87 0
-56 -64 -88 0
-57 -61 -89 0
-58 -62 -90 0
-59 -63 -91 0
-60 -64 -92 0
-61 -93 0
-62 -94 0
-63 -95 0
-64 -96 0
-61 -65 -97 0
-62 -66 -98 0
-63 -67 -99 0
-64 -68 -100 0
-61 -69 -101 0
-62 -70 -102 0
-63 -71 -103 0
-64 -72 -104 0
-61 -73 -105 0
-62 -74 -106 0
-63 -75 -107 0
-64 -76 -108 0
-61 -77 -109 0
-62 -78 -110 0
-63 -79 -111 0
-64 -80 -112 0
-61 -81 -113 0
-62 -82 -114 0
-63 -83 -115 0
-64 -84 -116 0
-61 -85 -117 0
-62 -86 -118 0
-63 -87 -119 0
-64 -88 -120 0
-61 -89 -121 0
-62 -90 -122 0
-63 -91 -123 0
-64 -92 -124 0
-61 -93 -125 0
-62 -94 -126 0
-63 -95 -127 0
-64 -96 -128 0
-61 -97 -129 0
-62 -98 -130 0
-63 -99 -131 0
-64 -100 -132 0
-61 -101 -133 0
-62 -102 -134 0
-63 -103 -135 0
-64 -104 -136 0
-61 -105 -137 0
-62 -106 -138 0
-63 -107 -139 0
-64 -108 -140 0
-61 -109 -141 0
-62 -110 -142 0
-63 -111 -143 0
-64 -112 -144 0
-61 -113 -145 0
-62 -114 -146 0
-63 -115 -147 0
-64 -116 -148 0
-61 -117 -149 0
-62 -118 -150 0
-63 -119 -151 0
-64 -120 -152 0
-61 -121 -153 0
-62 -122 -154 0
-63 -123 -155 0
-64 -124 -156 0
-61 -125 -157 0
-62 -126 -158 0
-63 -127 -159 0
-64 -128 -160 0
-61 -129 -161 0
-62 -130 -162 0
-63 -131 -163 0
-64 -132 -164 0
-61 -133 -165 0
-62 -134 -166 0
-63 -135 -167 0
-64 -136 -168 0
-61 -137 -169 0
-62 -138 -170 0
-63 -139 -171 0
-64 -140 -172 0
-61 -141 -173 0
-62 -142 -174 0
-63 -143 -175 0
-64 -144 -176 0
-61 -145 -177 0
-62 -146 -178 0
-63 -147 -179 0
-64 -148 -180 0
-61 -149 -181 0
-62 -150 -182 0
-63 -151 -183 0
-64 -152 -184 0
-61 -153 -185 0
-62 -154 -186 0
-63 -155 -187 0
-64 -156 -188 0
-61 -157 -189 0
-62 -158 -190 0
-63 -159 -191 0
-64 -160 -192 0
-61 -161 -193 0
-62 -162 -194 0
-63 -163 -195 0
-64 -164 -196 0
-61 -165 -197 0
-62 -166 -198 0
-63 -167 -199 0
-64 -168 -200 0
-61 -169 -201 0
-62 -170 -202 0
-63 -171 -203 0
-64 -172 -204 0
-61 -173 -205 0
-62 -174 -206 0
-63 -175 -207 0
-64 -176 -208 0
-61 -177 -209 0
-62 -178 -210 0
-63 -179 -211 0
-64 -180 -212 0
-61 -181 -213 0
-62 -182 -214 0
-63 -183 -215 0
-64 -184 -216 0
-61 -185 -217 0
-62 -186 -218 0
-63 -187 -219 0
-64 -188 -220 0
-61 -189 -221 0
-62 -190 -222 0
-63 -191 -223 0
-64 -192 -224 0
-1 -37 -69 0
-2 -38 -70 0
-3 -39 -71 0
-4 -40 -72 0
-5 -41 -69 0
-6 -42 -70 0
-7 -43 -71 0
-8 -44 -72 0
-9 -45 -69 0
-10 -46 -70 0
-11 -47 -71 0
-12 -48 -72 0
-13 -49 -69 0
-14 -50 -70 0
-15 -51 -71 0
-16 -52 -72 0
-17 -53 -69 0
-18 -54 -70 0
-19 -55 -71 0
-20 -56 -72 0
-21 -57 -69 0
-22 -58 -70 0
-23 -59 -71 0
-24 -60 -72 0
-25 -61 -69 0
-26 -62 -70 0
-27 -63 -71 0
-28 -64 -72 0
-29 -65 -69 0
-30 -66 -70 0
-31 -67 -71 0
-32 -68 -72 0
-33 -69 0
-34 -70 0
-35 -71 0
-36 -72 0
-37 -69 -73 0
-38 -70 -74 0
-39 -71 -75 0
-40 -72 -76 0
-41 -69 -77 0
-42 -70 -78 0
-43 -71 -79 0
-44 -72 -80 0
-45 -69 -81 0
-46 -70 -82 0
-47 -71 -83 0
-48 -72 -84 0
-49 -69 -85 0
-50 -70 -86 0
-51 -71 -87 0
-52 -72 -88 0
-53 -69 -89 0
-54 -70 -90 0
-55 -71 -91 0
-56 -72 -92 0
-57 -69 -93 0
-58 -70 -94 0
-59 -71 -95 0
-60 -72 -96 0
-61 -69 -97 0
-62 -70 -98 0
-63 -71 -99 0
-64 -72 -100 0
-65 -69 -101 0
-66 -70 -102 0
-67 -71 -103 0
-68 -72 -104 0
-69 -105 0
-70 -106 0
-71 -107 0
-72 -108 0
-69 -73 -109 0
-70 -74 -110 0
-71 -75 -111 0
-72 -76 -112 0
-69 -77 -113 0
-70 -78 -114 0
-71 -79 -115 0
-72 -80 -116 0
-69 -81 -117 0
-70 -82 -118 0
-71 -83 -119 0
-72 -84 -120 0
-69 -85 -121 0
-70 -86 -122 0
-71 -87 -123 0
-72 -88 -124 0
-69 -89 -125 0
-70 -90 -126 0
-71 -91 -127 0
-72 -92 -128 0
-69 -93 -129 0
-70 -94 -130 0
-71 -95 -131 0
-72 -96 -132 0
-69 -97 -133 0
-70 -98 -134 0
-71 -99 -135 0
-72 -100 -136 0
-69 -101 -137 0
-70 -102 -138 0
-71 -103 -139 0
-72 -104 -140 0
-69 -105 -141 0
-70 -106 -142 0
-71 -107 -143 0
-72 -108 -144 0
-69 -109 -145 0
-70 -110 -146 0
-71 -111 -147 0
-72 -112 -148 0
-69 -113 -149 0
-70 -114 -150 0
-71 -115 -151 0
-72 -116 -152 0
-69 -117 -153 0
-70 -118 -154 0
-71 -119 -155 0
-72 -120 -156 0
-69 -121 -157 0
-70 -122 -158 0
-71 -123 -159 0
-72 -124 -160 0
-69 -125 -161 0
-70 -126 -162 0
-71 -127 -163 0
-72 -128 -164 0
-69 -129 -165 0
-70 -130 -166 0
-71 -131 -167 0
-72 -132 -168 0
-69 -133 -169 0
-70 -134 -170 0
-71 -135 -171 0
-72 -136 -172 0
-69 -137 -173 0
-70 -138 -174 0
-71 -139 -175 0
-72 -140 -176 0
-69 -141 -177 0
-70 -142 -178 0
-71 -143 -179 0
-72 -144 -180 0
-69 -145 -181 0
-70 -146 -182 0
-71 -147 -183 0
-72 -148 -184 0
-69 -149 -185 0
-70 -150 -186 0
-71 -151 -187 0
-72 -152 -188 0
-69 -153 -189 0
-70 -154 -190 0
-71 -155 -191 0
-72 -156 -192 0
-69 -157 -193 0
-70 -158 -194 0
-71 -159 -195 0
-72 -160 -196 0
-69 -161 -197 0
-70 -162 -198 0
-71 -163 -199 0
-72 -164 -200 0
-69 -165 -201 0
-70 -166 -202 0
-71 -167 -203 0
-72 -168 -204 0
-69 -169 -205 0
-70 -170 -206 0
-71 -171 -207 0
-72 -172 -208 0
-69 -173 -209 0
-70 -174 -210 0
-71 -175 -211 0
-72 -176 -212 0
-69 -177 -213 0
-70 -178 -214 0
-71 -179 -215 0
-72 -180 -216 0
-69 -181 -217 0
-70 -182 -218 0
-71 -183 -219 0
-72 -184 -220 0
-69 -185 -221 0
-70 -186 -222 0
-71 -187 -223 0
-72 -188 -224 0
-1 -41 -77 0
-2 -42 -78 0
-3 -43 -79 0
-4 -44 -80 0
-5 -45 -77 0
-6 -46 -78 0
-7 -47 -79 0
-8 -48 -80 0
-9 -49 -77 0
-10 -50 -78 0
-11 -51 -79 0
-12 -52 -80 0
-13 -53 -77 0
-14 -54 -78 0
-15 -55 -79 0
-16 -56 -80 0
-17 -57 -77 0
-18 -58 -78 0
-19 -59 -79 0
-20 -60 -80 0
-21 -61 -77 0
-22 -62 -78 0
-23 -63 -79 0
-24 -64 -80 0
-25 -65 -77 0
-26 -66 -78 0
-27 -67 -79 0
-28 -68 -80 0
-29 -69 -77 0
-30 -70 -78 0
-31 -71 -79 0
-32 -72 -80 0
-33 -73 -77 0
-34 -74 -78 0
-35 -75 -79 0
-36 -76 -80 0
-37 -77 0
-38 -78 0
-39 -79 0
-40 -80 0
-41 -77 -81 0
-42 -78 -82 0
-43 -79 -83 0
-44 -80 -84 0
-45 -77 -85 0
-46 -78 -86 0
-47 -79 -87 0
-48 -80 -88 0
-49 -77 -89 0
-50 -78 -90 0
-51 -79 -91 0
-52 -80 -92 0
-53 -77 -93 0
-54 -78 -94 0
-55 -79 -95 0
-56 -80 -96 0
-57 -77 -97 0
-58 -78 -98 0
-59 -79 -99 0
-60 -80 -100 0
-61 -77 -101 0
-62 -78 -102 0
-63 -79 -103 0
-64 -80 -104 0
-65 -77 -105 0
-66 -78 -106 0
-67 -79 -107 0
-68 -80 -108 0
-69 -77 -109 0
-70 -78 -110 0
-71 -79 -111 0
-72 -80 -112 0
-73 -77 -113 0
-74 -78 -114 0
-75 -79 -115 0
-76 -80 -116 0
-77 -117 0
-78 -118 0
-79 -119 0
-80 -120 0
-77 -81 -121 0
-78 -82 -122 0
-79 -83 -123 0
-80 -84 -124 0
-77 -85 -125 0
-78 -86 -126 0
-79 -87 -127 0
-80 -88 -128 0
-77 -89 -129 0
-78 -90 -130 0
-79 -91 -131 0
-80 -92 -132 0
-77 -93 -133 0
-78 -94 -134 0
-79 -95 -135 0
-80 -96 -136 0
-77 -97 -137 0
-78 -98 -138 0
-79 -99 -139 0
-80 -100 -140 0
-77 -101 -141 0
-78 -102 -142 0
-79 -103 -143 0
-80 -104 -144 0
-77 -105 -145 0
-78 -106 -146 0
-79 -107 -147 0
-80 -108 -148 0
-77 -109 -149 0
-78 -110 -150 0
-79 -111 -151 0
-80 -112 -152 0
-77 -113 -153 0
-78 -114 -154 0
-79 -115 -155 0
-80 -116 -156 0
-77 -117 -157 0
-78 -118 -158 0
-79 -119 -159 0
-80 -120 -160 0
-77 -121 -161 0
-78 -122 -162 0
-79 -123 -163 0
-80 -124 -164 0
-77 -125 -165 0
-78 -126 -166 0
-79 -127 -167 0
-80 -128 -168 0
-77 -129 -169 0
-78 -130 -170 0
-79 -131 -171 0
-80 -132 -172 0
-77 -133 -173 0
-78 -134 -174 0
-79 -135 -175 0
-80 -136 -176 0
-77 -137 -177 0
-78 -138 -178 0
-79 -139 -179 0
-80 -140 -180 0
-77 -141 -181 0
-78 -142 -182 0
-79 -143 -183 0
-80 -144 -184 0
-77 -145 -185 0
-78 -146 -186 0
-79 -147 -187 0
-80 -148 -188 0
-77 -149 -189 0
-78 -150 -190 0
-79 -151 -191 0
-80 -152 -192 0
-77 -153 -193 0
-78 -154 -194 0
-79 -155 -195 0
-80 -156 -196 0
-77 -157 -197 0
-78 -158 -198 0
-79 -159 -199 0
-80 -160 -200 0
-77 -161 -201 0
-78 -162 -202 0
-79 -163 -203 0
-80 -164 -204 0
-77 -165 -205 0
-78 -166 -206 0
-79 -167 -207 0
-80 -168 -208 0
-77 -169 -209 0
-78 -170 -210 0
-79 -171 -211 0
-80 -172 -212 0
-77 -173 -213 0
-78 -174 -214 0
-79 -175 -215 0
-80 -176 -216 0
-77 -177 -217 0
-78 -178 -218 0
-79 -179 -219 0
-80 -180 -220 0
-77 -181 -221 0
-78 -182 -222 0
-79 -183 -223 0
-80 -184 -224 0
-1 -45 -85 0
-2 -46 -86 0
-3 -47 -87 0
-4 -48 -88 0
-5 -49 -85 0
-6 -50 -86 0
-7 -51 -87 0
-8 -52 -88 0
-9 -53 -85 0
-10 -54 -86 0
-11 -55 -87 0
-12 -56 -88 0
-13 -57 -85 0
-14 -58 -86 0
-15 -59 -87 0
-16 -60 -88 0
-17 -61 -85 0
-18 -62 -86 0
-19 -63 -87 0
-20 -64 -88 0
-21 -65 -85 0
-22 -66 -86 0
-23 -67 -87 0
-24 -68 -88 0
-25 -69 -85 0
-26 -70 -86 0
-27 -71 -87 0
-28 -72 -88 0
-29 -73 -85 0
-30 -74 -86 0
-31 -75 -87 0
-32 -76 -88 0
-33 -77 -85 0
-34 -78 -86 0
-35 -79 -87 0
-36 -80 -88 0
-37 -81 -85 0
-38 -82 -86 0
-39 -83 -87 0
-40 -84 -88 0
-41 -85 0
-42 -86 0
-43 -87 0
-44 -88 0
-45 -85 -89 0
-46 -86 -90 0
-47 -87 -91 0
-48 -88 -92 0
-49 -85 -93 0
-50 -86 -94 0
-51 -87 -95 0
-52 -88 -96 0
-53 -85 -97 0
-54 -86 -98 0
-55 -87 -99 0
-56 -88 -100 0
-57 -85 -101 0
-58 -86 -102 0
-59 -87 -103 0
-60 -88 -104 0
-61 -85 -105 0
-62 -86 -106 0
-63 -87 -107 0
-64 -88 -108 0
-65 -85 -109 0
-66 -86 -110 0
-67 -87 -111 0
-68 -88 -112 0
-69 -85 -113 0
-70 -86 -114 0
-71 -87 -115 0
-72 -88 -116 0
-73 -85 -117 0
-74 -86 -118 0
-75 -87 -119 0
-76 -88 -120 0
-77 -85 -121 0
-78 -86 -122 0
-79 -87 -123 0
-80 -88 -124 0
-81 -85 -125 0
-82 -86 -126 0
-83 -87 -127 0
-84 -88 -128 0
-85 -129 0
-86 -130 0
-87 -131 0
-88 -132 0
-85 -89 -133 0
-86 -90 -134 0
-87 -91 -135 0
-88 -92 -136 0
-85 -93 -137 0
-86 -94 -138 0
-87 -95 -139 0
-88 -96 -140 0
-85 -97 -141 0
-86 -98 -142 0
-87 -99 -143 0
-88 -100 -144 0
-85 -101 -145 0
-86 -102 -146 0
-87 -103 -147 0
-88 -104 -148 0
-85 -105 -149 0
-86 -106 -150 0
-87 -107 -151 0
-88 -108 -152 0
-85 -109 -153 0
-86 -110 -154 0
-87 -111 -155 0
-88 -112 -156 0
-85 -113 -157 0
-86 -114 -158 0
-87 -115 -159 0
-88 -116 -160 0
-85 -117 -161 0
-86 -118 -162 0
-87 -119 -163 0
-88 -120 -164 0
-85 -121 -165 0
-86 -122 -166 0
-87 -123 -167 0
-88 -124 -168 0
-85 -125 -169 0
-86 -126 -170 0
-87 -127 -171 0
-88 -128 -172 0
-85 -129 -173 0
-86 -130 -174 0
-87 -131 -175 0
-88 -132 -176 0
-85 -133 -177 0
-86 -134 -178 0
-87 -135 -179 0
-88 -136 -180 0
-85 -137 -181 0
-86 -138 -182 0
-87 -139 -183 0
-88 -140 -184 0
-85 -141 -185 0
-86 -142 -186 0
-87 -143 -187 0
-88 -144 -188 0
-85 -145 -189 0
-86 -146 -190 0
-87 -147 -191 0
-88 -148 -192 0
-85 -149 -193 0
-86 -150 -194 0
-87 -151 -195 0
-88 -152 -196 0
-85 -153 -197 0
-86 -154 -198 0
-87 -155 -199 0
-88 -156 -200 0
-85 -157 -201 0
-86 -158 -202 0
-87 -159 -203 0
-88 -160 -204 0
-85 -161 -205 0
-86 -162 -206 0
-87 -163 -207 0
-88 -164 -208 0
-85 -165 -209 0
-86 -166 -210 0
-87 -167 -211 0
-88 -168 -212 0
-85 -169 -213 0
-86 -170 -214 0
-87 -171 -215 0
-88 -172 -216 0
-85 -173 -217 0
-86 -174 -218 0
-87 -175 -219 0
-88 -176 -220 0
-85 -177 -221 0
-86 -178 -222 0
-87 -179 -223 0
-88 -180 -224 0
-1 -49 -93 0
-2 -50 -94 0
-3 -51 -95 0
-4 -52 -96 0
-5 -53 -93 0
-6 -54 -94 0
-7 -55 -95 0
-8 -56 -96 0
-9 -57 -93 0
-10 -58 -94 0
-11 -59 -95 0
-12 -60 -96 0
-13 -61 -93 0
-14 -62 -94 0
-15 -63 -95 0
-16 -64 -96 0
-17 -65 -93 0
-18 -66 -94 0
-19 -67 -95 0
-20 -68 -96 0
-21 -69 -93 0
-22 -70 -94 0
-23 -71 -95 0
-24 -72 -96 0
-25 -73 -93 0
-26 -74 -94 0
-27 -75 -95 0
-28 -76 -96 0
-29 -77 -93 0
-30 -78 -94 0
-31 -79 -95 0
-32 -80 -96 0
-33 -81 -93 0
-34 -82 -94 0
-35 -83 -95 0
-36 -84 -96 0
-37 -85 -93 0
-38 -86 -94 0
-39 -87 -95 0
-40 -88 -96 0
-41 -89 -93 0
-42 -90 -94 0
-43 -91 -95 0
-44 -92 -96 0
-45 -93 0
-46 -94 0
-47 -95 0
-48 -96 0
-49 -93 -97 0
-50 -94 -98 0
-51 -95 -99 0
-52 -96 -100 0
-53 -93 -101 0
-54 -94 -102 0
-55 -95 -103 0
-56 -96 -104 0
-57 -93 -105 0
-58 -94 -106 0
-59 -95 -107 0
-60 -96 -108 0
-61 -93 -109 0
-62 -94 -110 0
-63 -95 -111 0
-64 -96 -112 0
-65 -93 -113 0
-66 -94 -114 0
-67 -95 -115 0
-68 -96 -116 0
-69 -93 -117 0
-70 -94 -118 0
-71 -95 -119 0
-72 -96 -120 0
-73 -93 -121 0
-74 -94 -122 0
-75 -95 -123 0
-76 -96 -124 0
-77 -93 -125 0
-78 -94 -126 0
-79 -95 -127 0
-80 -96 -128 0
-81 -93 -129 0
-82 -94 -130 0
-83 -95 -131 0
-84 -96 -132 0
-85 -93 -133 0
-86 -94 -134 0
-87 -95 -135 0
-88 -96 -136 0
-89 -93 -137 0
-90 -94 -138 0
-91 -95 -139 0
-92 -96 -140 0
-93 -141 0
-94 -142 0
-95 -143 0
-96 -144 0
-93 -97 -145 0
-94 -98 -146 0
-95 -99 -147 0
-96 -100 -148 0
-93 -101 -149 0
-94 -102 -150 0
-95 -103 -151 0
-96 -104 -152 0
-93 -105 -153 0
-94 -106 -154 0
-95 -107 -155 0
-96 -108 -156 0
-93 -109 -157 0
-94 -110 -158 0
-95 -111 -159 0
-96 -112 -160 0
-93 -113 -161 0
-94 -114 -162 0
-95 -115 -163 0
-96 -116 -164 0
-93 -117 -165 0
-94 -118 -166 0
-95 -119 -167 0
-96 -120 -168 0
-93 -121 -169 0
-94 -122 -170 0
-95 -123 -171 0
-96 -124 -172 0
-93 -125 -173 0
-94 -126 -174 0
-95 -127 -175 0
-96 -128 -176 0
-93 -129 -177 0
-94 -130 -178 0
-95 -131 -179 0
-96 -132 -180 0
-93 -133 -181 0
-94 -134 -182 0
-95 -135 -183 0
-96 -136 -184 0
-93 -137 -185 0
-94 -138 -186 0
-95 -139 -187 0
-96 -140 -188 0
-93 -141 -189 0
-94 -142 -190 0
-95 -143 -191 0
-96 -144 -192 0
-93 -145 -193 0
-94 -146 -194 0
-95 -147 -195 0
-96 -148 -196 0
-93 -149 -197 0
-94 -150 -198 0
-95 -151 -199 0
-96 -152 -200 0
-93 -153 -201 0
-94 -154 -202 0
-95 -155 -203 0
-96 -156 -204 0
-93 -157 -205 0
-94 -158 -206 0
-95 -159 -207 0
-96 -160 -208 0
-93 -161 -209 0
-94 -162 -210 0
-95 -163 -211 0
-96 -164 -212 0
-93 -165 -213 0
-94 -166 -214 0
-95 -167 -215 0
-96 -168 -216 0
-93 -169 -217 0
-94 -170 -218 0
-95 -171 -219 0
-96 -172 -220 0
-93 -173 -221 0
-94 -174 -222 0
-95 -175 -223 0
-96 -176 -224 0
-1 -53 -101 0
-2 -54 -102 0
-3 -55 -103 0
-4 -56 -104 0
-5 -57 -101 0
-6 -58 -102 0
-7 -59 -103 0
-8 -60 -104 0
-9 -61 -101 0
-10 -62 -102 0
-11 -63 -103 0
-12 -64 -104 0
-13 -65 -101 0
-14 -66 -102 0
-15 -67 -103 0
-16 -68 -104 0
-17 -69 -101 0
-18 -70 -102 0
-19 -71 -103 0
-20 -72 -104 0
-21 -73 -101 0
-22 -74 -102 0
-23 -75 -103 0
-24 -76 -104 0
-25 -77 -101 0
-26 -78 -102 0
-27 -79 -103 0
-28 -80 -104 0
-29 -81 -101 0
-30 -82 -102 0
-31 -83 -103 0
-32 -84 -104 0
-33 -85 -101 0
-34 -86 -102 0
-35 -87 -103 0
-36 -88 -104 0
-37 -89 -101 0
-38 -90 -102 0
-39 -91 -103 0
-40 -92 -104 0
-41 -93 -101 0
-42 -94 -102 0
-43 -95 -103 0
-44 -96 -104 0
-45 -97 -101 0
-46 -98 -102 0
-47 -99 -103 0
-48 -100 -104 0
-49 -101 0
-50 -102 0
-51 -103 0
-52 -104 0
-53 -101 -105 0
-54 -102 -106 0
-55 -103 -107 0
-56 -104 -108 0
-57 -101 -109 0
-58 -102 -110 0
-59 -103 -111 0
-60 -104 -112 0
-61 -101 -113 0
-62 -102 -114 0
-63 -103 -115 0
-64 -104 -116 0
-65 -101 -117 0
-66 -102 -118 0
-67 -103 -119 0
-68 -104 -120 0
-69 -101 -121 0
-70 -102 -122 0
-71 -103 -123 0
-72 -104 -124 0
-73 -101 -125 0
-74 -102 -126 0
-75 -103 -127 0
-76 -104 -128 0
-77 -101 -129 0
-78 -102 -130 0
-79 -103 -131 0
-80 -104 -132 0
-81 -101 -133 0
-82 -102 -134 0
-83 -103 -135 0
-84 -104 -136 0
-85 -101 -137 0
-86 -102 -138 0
-87 -103 -139 0
-88 -104 -140 0
-89 -101 -141 0
-90 -102 -142 0
-91 -103 -143 0
-92 -104 -144 0
-93 -101 -145 0
-94 -102 -146 0
-95 -103 -147 0
-96 -104 -148 0
-97 -101 -149 0
-98 -102 -150 0
-99 -103 -151 0
-100 -104 -152 0
-101 -153 0
-102 -154 0
-103 -155 0
-104 -156 0
-101 -105 -157 0
-102 -106 -158 0
-103 -107 -159 0
-104 -108 -160 0
-101 -109 -161 0
-102 -110 -162 0
-103 -111 -163 0
-104 -112 -164 0
-101 -113 -165 0
-102 -114 -166 0
-103 -115 -167 0
-104 -116 -168 0
-101 -117 -169 0
-102 -118 -170 0
-103 -119 -171 0
-104 -120 -172 0
-101 -121 -173 0
-102 -122 -174 0
-103 -123 -175 0
-104 -124 -176 0
-101 -125 -177 0
-102 -126 -178 0
-103 -127 -179 0
-104 -128 -180 0
-101 -129 -181 0
-102 -130 -182 0
-103 -131 -183 0
-104 -132 -184 0
-101 -133 -185 0
-102 -134 -186 0
-103 -135 -187 0
-104 -136 -188 0
-101 -137 -189 0
-102 -138 -190 0
-103 -139 -191 0
-104 -140 -192 0
-101 -141 -193 0
-102 -142 -194 0
-103 -143 -195 0
-104 -144 -196 0
-101 -145 -197 0
-102 -146 -198 0
-103 -147 -199 0
-104 -148 -200 0
-101 -149 -201 0
-102 -150 -202 0
-103 -151 -203 0
-104 -152 -204 0
-101 -153 -205 0
-102 -154 -206 0
-103 -155 -207 0
-104 -156 -208 0
-101 -157 -209 0
-102 -158 -210 0
-103 -159 -211 0
-104 -160 -212 0
-101 -161 -213 0
-102 -162 -214 0
-103 -163 -215 0
-104 -164 -216 0
-101 -165 -217 0
-102 -166 -218 0
-103 -167 -219 0
-104 -168 -220 0
-101 -169 -221 0
-102 -170 -222 0
-103 -171 -223 0
-104 -172 -224 0
-1 -57 -109 0
-2 -58 -110 0
-3 -59 -111 0
-4 -60 -112 0
-5 -61 -109 0
-6 -62 -110 0
-7 -63 -111 0
-8 -64 -112 0
-9 -65 -109 0
-10 -66 -110 0
-11 -67 -111 0
-12 -68 -112 0
-13 -69 -109 0
-14 -70 -110 0
-15 -71 -111 0
-16 -72 -112 0
-17 -73 -109 0
-18 -74 -110 0
-19 -75 -111 0
-20 -76 -112 0
-21 -77 -109 0
-22 -78 -110 0
-23 -79 -111 0
-24 -80 -112 0
-25 -81 -109 0
-26 -82 -110 0
-27 -83 -111 0
-28 -84 -112 0
-29 -85 -109 0
-30 -86 -110 0
-31 -87 -111 0
-32 -88 -112 0
-33 -89 -109 0
-34 -90 -110 0
-35 -91 -111 0
-36 -92 -112 0
-37 -93 -109 0
-38 -94 -110 0
-39 -95 -111 0
-40 -96 -112 0
-41 -97 -109 0
-42 -98 -110 0
-43 -99 -111 0
-44 -100 -112 0
-45 -101 -109 0
-46 -102 -110 0
-47 -103 -111 0
-48 -104 -112 0
-49 -105 -109 0
-50 -106 -110 0
-51 -107 -111 0
-52 -108 -112 0
-53 -109 0
-54 -110 0
-55 -111 0
-56 -112 0
-57 -109 -113 0
-58 -110 -114 0
-59 -111 -115 0
-60 -112 -116 0
-61 -109 -117 0
-62 -110 -118 0
-63 -111 -119 0
-64 -112 -120 0
-65 -109 -121 0
-66 -110 -122 0
-67 -111 -123 0
-68 -112 -124 0
-69 -109 -125 0
-70 -110 -126 0
-71 -111 -127 0
-72 -112 -128 0
-73 -109 -129 0
-74 -110 -130 0
-75 -111 -131 0
-76 -112 -132 0
-77 -109 -133 0
-78 -110 -134 0
-79 -111 -135 0
-80 -112 -136 0
-81 -109 -137 0
-82 -110 -138 0
-83 -111 -139 0
-84 -112 -140 0
-85 -109 -141 0
-86 -110 -142 0
-87 -111 -143 0
-88 -112 -144 0
-89 -109 -145 0
-90 -110 -146 0
-91 -111 -147 0
-92 -112 -148 0
-93 -109 -149 0
-94 -110 -150 0
-95 -111 -151 0
-96 -112 -152 0
-97 -109 -153 0
-98 -110 -154 0
-99 -111 -155 0
-100 -112 -156 0
-101 -109 -157 0
-102 -110 -158 0
-103 -111 -159 0
-104 -112 -160 0
-105 -109 -161 0
-106 -110 -162 0
-107 -111 -163 0
-108 -112 -164 0
-109 -165 0
-110 -166 0
-111 -167 0
-112 -168 0
-109 -113 -169 0
-110 -114 -170 0
-111 -115 -171 0
-112 -116 -172 0
-109 -117 -173 0
-110 -118 -174 0
-111 -119 -175 0
-112 -120 -176 0
-109 -121 -177 0
-110 -122 -178 0
-111 -123 -179 0
-112 -124 -180 0
-109 -125 -181 0
-110 -126 -182 0
-111 -127 -183 0
-112 -128 -184 0
-109 -129 -185 0
-110 -130 -186 0
-111 -131 -187 0
-112 -132 -188 0
-109 -133 -189 0
-110 -134 -190 0
-111 -135 -191 0
-112 -136 -192 0
-109 -137 -193 0
-110 -138 -194 0
-111 -139 -195 0
-112 -140 -196 0
-109 -141 -197 0
-110 -142 -198 0
-111 -143 -199 0
-112 -144 -200 0
-109 -145 -201 0
-110 -146 -202 0
-111 -147 -203 0
-112 -148 -204 0
-109 -149 -205 0
-110 -150 -206 0
-111 -151 -207 0
-112 -152 -208 0
-109 -153 -209 0
-110 -154 -210 0
-111 -155 -211 0
-112 -156 -212 0
-109 -157 -213 0
-110 -158 -214 0
-111 -159 -215 0
-112 -160 -216 0
-109 -161 -217 0
-110 -162 -218 0
-111 -163 -219 0
-112 -164 -220 0
-109 -165 -221 0
-110 -166 -222 0
-111 -167 -223 0
-112 -168 -224 0
-1 -61 -117 0
-2 -62 -118 0
-3 -63 -119 0
-4 -64 -120 0
-5 -65 -117 0
-6 -66 -118 0
-7 -67 -119 0
-8 -68 -120 0
-9 -69 -117 0
-10 -70 -118 0
-11 -71 -119 0
-12 -72 -120 0
-13 -73 -117 0
-14 -74 -118 0
-15 -75 -119 0
-16 -76 -120 0
-17 -77 -117 0
-18 -78 -118 0
-19 -79 -119 0
-20 -80 -120 0
-21 -81 -117 0
-22 -82 -118 0
-23 -83 -119 0
-24 -84 -120 0
-25 -85 -117 0
-26 -86 -118 0
-27 -87 -119 0
-28 -88 -120 0
-29 -89 -117 0
-30 -90 -118 0
-31 -91 -119 0
-32 -92 -120 0
-33 -93 -117 0
-34 -94 -118 0
-35 -95 -119 0
-36 -96 -120 0
-37 -97 -117 0
-38 -98 -118 0
-39 -99 -119 0
-40 -100 -120 0
-41 -101 -117 0
-42 -102 -118 0
-43 -103 -119 0
-44 -104 -120 0
-45 -105 -117 0
-46 -106 -118 0
-47 -107 -119 0
-48 -108 -120 0
-49 -109 -117 0
-50 -110 -118 0
-51 -111 -119 0
-52 -112 -120 0
-53 -113 -117 0
-54 -114 -118 0
-55 -115 -119 0
-56 -116 -120 0
-57 -117 0
-58 -118 0
-59 -119 0
-60 -120 0
-61 -117 -121 0
-62 -118 -122 0
-63 -119 -123 0
-64 -120 -124 0
-65 -117 -125 0
-66 -118 -126 0
-67 -119 -127 0
-68 -120 -128 0
-69 -117 -129 0
-70 -118 -130 0
-71 -119 -131 0
-72 -120 -132 0
-73 -117 -133 0
-74 -118 -134 0
-75 -119 -135 0
-76 -120 -136 0
-77 -117 -137 0
-78 -118 -138 0
-79 -119 -139 0
-80 -120 -140 0
-81 -117 -141 0
-82 -118 -142 0
-83 -119 -143 0
-84 -120 -144 0
-85 -117 -145 0
-86 -118 -146 0
-87 -119 -147 0
-88 -120 -148 0
-89 -117 -149 0
-90 -118 -150 0
-91 -119 -151 0
-92 -120 -152 0
-93 -117 -153 0
-94 -118 -154 0
-95 -119 -155 0
-96 -120 -156 0
-97 -117 -157 0
-98 -118 -158 0
-99 -119 -159 0
-100 -120 -160 0
-101 -117 -161 0
-102 -118 -162 0
-103 -119 -163 0
-104 -120 -164 0
-105 -117 -165 0
-106 -118 -166 0
-107 -119 -167 0
-108 -120 -168 0
-109 -117 -169 0
-110 -118 -170 0
-111 -119 -171 0
-112 -120 -172 0
-113 -117 -173 0
-114 -118 -174 0
-115 -119 -175 0
-116 -120 -176 0
-117 -177 0
-118 -178 0
-119 -179 0
-120 -180 0
-117 -121 -181 0
-118 -122 -182 0
-119 -123 -183 0
-120 -124 -184 0
-117 -125 -185 0
-118 -126 -186 0
-119 -127 -187 0
-120 -128 -188 0
-117 -129 -189 0
-118 -130 -190 0
-119 -131 -191 0
-120 -132 -192 0
-117 -133 -193 0
-118 -134 -194 0
-119 -135 -195 0
-120 -136 -196 0
-117 -137 -197 0
-118 -138 -198 0
-119 -139 -199 0
-120 -140 -200 0
-117 -141 -201 0
-118 -142 -202 0
-119 -143 -203 0
-120 -144 -204 0
-117 -145 -205 0
-118 -146 -206 0
-119 -147 -207 0
-120 -148 -208 0
-117 -149 -209 0
-118 -150 -210 0
-119 -151 -211 0
-120 -152 -212 0
-117 -153 -213 0
-118 -154 -214 0
-119 -155 -215 0
-120 -156 -216 0
-117 -157 -217 0
-118 -158 -218 0
-119 -159 -219 0
-120 -160 -220 0
-117 -161 -221 0
-118 -162 -222 0
-119 -163 -223 0
-120 -164 -224 0
-1 -65 -125 0
-2 -66 -126 0
-3 -67 -127 0
-4 -68 -128 0
-5 -69 -125 0
-6 -70 -126 0
-7 -71 -127 0
-8 -72 -128 0
-9 -73 -125 0
-10 -74 -126 0
-11 -75 -127 0
-12 -76 -128 0
-13 -77 -125 0
-14 -78 -126 0
-15 -79 -127 0
-16 -80 -128 0
-17 -81 -125 0
-18 -82 -126 0
-19 -83 -127 0
-20 -84 -128 0
-21 -85 -125 0
-22 -86 -126 0
-23 -87 -127 0
-24 -88 -128 0
-25 -89 -125 0
-26 -90 -126 0
-27 -91 -127 0
-28 -92 -128 0
-29 -93 -125 0
-30 -94 -126 0
-31 -95 -127 0
-32 -96 -128 0
-33 -97 -125 0
-34 -98 -126 0
-35 -99 -127 0
-36 -100 -128 0
-37 -101 -125 0
-38 -102 -126 0
-39 -103 -127 0
-40 -104 -128 0
-41 -105 -125 0
-42 -106 -126 0
-43 -107 -127 0
-44 -108 -128 0
-45 -109 -125 0
-46 -110 -126 0
-47 -111 -127 0
-48 -112 -128 0
-49 -113 -125 0
-50 -114 -126 0
-51 -115 -127 0
-52 -116 -128 0
-53 -117 -125 0
-54 -118 -126 0
-55 -119 -127 0
-56 -120 -128 0
-57 -121 -125 0
-58 -122 -126 0
-59 -123 -127 0
-60 -124 -128 0
-61 -125 0
-62 -126 0
-63 -127 0
-64 -128 0
-65 -125 -129 0
-66 -126 -130 0
-67 -127 -131 0
-68 -128 -132 0
-69 -125 -133 0
-70 -126 -134 0
-71 -127 -135 0
-72 -128 -136 0
-73 -125 -137 0
-74 -126 -138 0
-75 -127 -139 0
-76 -128 -140 0
-77 -125 -141 0
-78 -126 -142 0
-79 -127 -143 0
-80 -128 -144 0
-81 -125 -145 0
-82 -126 -146 0
-83 -127 -147 0
-84 -128 -148 0
-85 -125 -149 0
-86 -126 -150 0
-87 -127 -151 0
-88 -128 -152 0
-89 -125 -153 0
-90 -126 -154 0
-91 -127 -155 0
-92 -128 -156 0
-93 -125 -157 0
-94 -126 -158 0
-95 -127 -159 0
-96 -128 -160 0
-97 -125 -161 0
-98 -126 -162 0
-99 -127 -163 0
-100 -128 -164 0
-101 -125 -165 0
-102 -126 -166 0
-103 -127 -167 0
-104 -128 -168 0
-105 -125 -169 0
-106 -126 -170 0
-107 -127 -171 0
-108 -128 -172 0
-109 -125 -173 0
-110 -126 -174 0
-111 -127 -175 0
-112 -128 -176 0
-113 -125 -177 0
-114 -126 -178 0
-115 -127 -179 0
-116 -128 -180 0
-117 -125 -181 0
-118 -126 -182 0
-119 -127 -183 0
-120 -128 -184 0
-121 -125 -185 0
-122 -126 -186 0
-123 -127 -187 0
-124 -128 -188 0
-125 -189 0
-126 -190 0
-127 -191 0
-128 -192 0
-125 -129 -193 0
-126 -130 -194 0
-127 -131 -195 0
-128 -132 -196 0
-125 -133 -197 0
-126 -134 -198 0
-127 -135 -199 0
-128 -136 -200 0
-125 -137 -201 0
-126 -138 -202 0
-127 -139 -203 0
-128 -140 -204 0
-125 -141 -205 0
-126 -142 -206 0
-127 -143 -207 0
-128 -144 -208 0
-125 -145 -209 0
-126 -146 -210 0
-127 -147 -211 0
-128 -148 -212 0
-125 -149 -213 0
-126 -150 -214 0
-127 -151 -215 0
-128 -152 -216 0
-125 -153 -217 0
-126 -154 -218 0
-127 -155 -219 0
-128 -156 -220 0
-125 -157 -221 0
-126 -158 -222 0
-127 -159 -223 0
-128 -160 -224 0
-1 -69 -133 0
-2 -70 -134 0
-3 -71 -135 0
-4 -72 -136 0
-5 -73 -133 0
-6 -74 -134 0
-7 -75 -135 0
-8 -76 -136 0
-9 -77 -133 0
-10 -78 -134 0
-11 -79 -135 0
-12 -80 -136 0
-13 -81 -133 0
-14 -82 -134 0
-15 -83 -135 0
-16 -84 -136 0
-17 -85 -133 0
-18 -86 -134 0
-19 -87 -135 0
-20 -88 -136 0
-21 -89 -133 0
-22 -90 -134 0
-23 -91 -135 0
-24 -92 -136 0
-25 -93 -133 0
-26 -94 -134 0
-27 -95 -135 0
-28 -96 -136 0
-29 -97 -133 0
-30 -98 -134 0
-31 -99 -135 0
-32 -100 -136 0
-33 -101 -133 0
-34 -102 -134 0
-35 -103 -135 0
-36 -104 -136 0
-37 -105 -133 0
-38 -106 -134 0
-39 -107 -135 0
-40 -108 -136 0
-41 -109 -133 0
-42 -110 -134 0
-43 -111 -135 0
-44 -112 -136 0
-45 -113 -133 0
-46 -114 -134 0
-47 -115 -135 0
-48 -116 -136 0
-49 -117 -133 0
-50 -118 -134 0
-51 -119 -135 0
-52 -120 -136 0
-53 -121 -133 0
-54 -122 -134 0
-55 -123 -135 0
-56 -124 -136 0
-57 -125 -133 0
-58 -126 -134 0
-59 -127 -135 0
-60 -128 -136 0
-61 -129 -133 0
-62 -130 -134 0
-63 -131 -135 0
-64 -132 -136 0
-65 -133 0
-66 -134 0
-67 -135 0
-68 -136 0
-69 -133 -137 0
-70 -134 -138 0
-71 -135 -139 0
-72 -136 -140 0
-73 -133 -141 0
-74 -134 -142 0
-75 -135 -143 0
-76 -136 -144 0
-77 -133 -145 0
-78 -134 -146 0
-79 -135 -147 0
-80 -136 -148 0
-81 -133 -149 0
-82 -134 -150 0
-83 -135 -151 0
-84 -136 -152 0
-85 -133 -153 0
-86 -134 -154 0
-87 -135 -155 0
-88 -136 -156 0
-89 -133 -157 0
-90 -134 -158 0
-91 -135 -159 0
-92 -136 -160 0
-93 -133 -161 0
-94 -134 -162 0
-95 -135 -163 0
-96 -136 -164 0
-97 -133 -165 0
-98 -134 -166 0
-99 -135 -167 0
-100 -136 -168 0
-101 -133 -169 0
-102 -134 -170 0
-103 -135 -171 0
-104 -136 -172 0
-105 -133 -173 0
-106 -134 -174 0
-107 -135 -175 0
-108 -136 -176 0
-109 -133 -177 0
-110 -134 -178 0
-111 -135 -179 0
-112 -136 -180 0
-113 -133 -181 0
-114 -134 -182 0
-115 -135 -183 0
-116 -136 -184 0
-117 -133 -185 0
-118 -134 -186 0
-119 -135 -187 0
-120 -136 -188 0
-121 -133 -189 0
-122 -134 -190 0
-123 -135 -191 0
-124 -136 -192 0
-125 -133 -193 0
-126 -134 -194 0
-127 -135 -195 0
-128 -136 -196 0
-129 -133 -197 0
-130 -134 -198 0
-131 -135 -199 0
-132 -136 -200 0
-133 -201 0
-134 -202 0
-135 -203 0
-136 -204 0
-133 -137 -205 0
-134 -138 -206 0
-135 -139 -207 0
-136 -140 -208 0
-133 -141 -209 0
-134 -142 -210 0
-135 -143 -211 0
-136 -144 -212 0
-133 -145 -213 0
-134 -146 -214 0
-135 -147 -215 0
-136 -148 -216 0
-133 -149 -217 0
-134 -150 -218 0
-135 -151 -219 0
-136 -152 -220 0
-133 -153 -221 0
-134 -154 -222 0
-135 -155 -223 0
-136 -156 -224 0
-1 -73 -141 0
-2 -74 -142 0
-3 -75 -143 0
-4 -76 -144 0
-5 -77 -141 0
-6 -78 -142 0
-7 -79 -143 0
-8 -80 -144 0
-9 -81 -141 0
-10 -82 -142 0
-11 -83 -143 0
-12 -84 -144 0
-13 -85 -141 0
-14 -86 -142 0
-15 -87 -143 0
-16 -88 -144 0
-17 -89 -141 0
-18 -90 -142 0
-19 -91 -143 0
-20 -92 -144 0
-21 -93 -141 0
-22 -94 -142 0
-23 -95 -143 0
-24 -96 -144 0
-25 -97 -141 0
-26 -98 -142 0
-27 -99 -143 0
-28 -100 -144 0
-29 -101 -141 0
-30 -102 -142 0
-31 -103 -143 0
-32 -104 -144 0
-33 -105 -141 0
-34 -106 -142 0
-35 -107 -143 0
-36 -108 -144 0
-37 -109 -141 0
-38 -110 -142 0
-39 -111 -143 0
-40 -112 -144 0
-41 -113 -141 0
-42 -114 -142 0
-43 -115 -143 0
-44 -116 -144 0
-45 -117 -141 0
-46 -118 -142 0
-47 -119 -143 0
-48 -120 -144 0
-49 -121 -141 0
-50 -122 -142 0
-51 -123 -143 0
-52 -124 -144 0
-53 -125 -141 0
-54 -126 -142 0
-55 -127 -143 0
-56 -128 -144 0
-57 -129 -141 0
-58 -130 -142 0
-59 -131 -143 0
-60 -132 -144 0
-61 -133 -141 0
-62 -134 -142 0
-63 -135 -143 0
-64 -136 -144 0
-65 -137 -141 0
-66 -138 -142 0
-67 -139 -143 0
-68 -140 -144 0
-69 -141 0
-70 -142 0
-71 -143 0
-72 -144 0
-73 -141 -145 0
-74 -142 -146 0
-75 -143 -147 0
-76 -144 -148 0
-77 -141 -149 0
-78 -142 -150 0
-79 -143 -151 0
-80 -144 -152 0
-81 -141 -153 0
-82 -142 -154 0
-83 -143 -155 0
-84 -144 -156 0
-85 -141 -157 0
-86 -142 -158 0
-87 -143 -159 0
-88 -144 -160 0
-89 -141 -161 0
-90 -142 -162 0
-91 -143 -163 0
-92 -144 -164 0
-93 -141 -165 0
-94 -142 -166 0
-95 -143 -167 0
-96 -144 -168 0
-97 -141 -169 0
-98 -142 -170 0
-99 -143 -171 0
-100 -144 -172 0
-101 -141 -173 0
-102 -142 -174 0
-103 -143 -175 0
-104 -144 -176 0
-105 -141 -177 0
-106 -142 -178 0
-107 -143 -179 0
-108 -144 -180 0
-109 -141 -181 0
-110 -142 -182 0
-111 -143 -183 0
-112 -144 -184 0
-113 -141 -185 0
-114 -142 -186 0
-115 -143 -187 0
-116 -144 -188 0
-117 -141 -189 0
-118 -142 -190 0
-119 -143 -191 0
-120 -144 -192 0
-121 -141 -193 0
-122 -142 -194 0
-123 -143 -195 0
-124 -144 -196 0
-125 -141 -197 0
-126 -142 -198 0
-127 -143 -199 0
-128 -144 -200 0
-129 -141 -201 0
-130 -142 -202 0
-131 -143 -203 0
-132 -144 -204 0
-133 -141 -205 0
-134 -142 -206 0
-135 -143 -207 0
-136 -144 -208 0
-137 -141 -209 0
-138 -142 -210 0
-139 -143 -211 0
-140 -144 -212 0
-141 -213 0
-142 -214 0
-143 -215 0
-144 -216 0
-141 -145 -217 0
-142 -146 -218 0
-143 -147 -219 0
-144 -148 -220 0
-141 -149 -221 0
-142 -150 -222 0
-143 -151 -223 0
-144 -152 -224 0
-1 -77 -149 0
-2 -78 -150 0
-3 -79 -151 0
-4 -80 -152 0
-5 -81 -149 0
-6 -82 -150 0
-7 -83 -151 0
-8 -84 -152 0
-9 -85 -149 0
-10 -86 -150 0
-11 -87 -151 0
-12 -88 -152 0
-13 -89 -149 0
-14 -90 -150 0
-15 -91 -151 0
-16 -92 -152 0
-17 -93 -149 0
-18 -94 -150 0
-19 -95 -151 0
-20 -96 -152 0
-21 -97 -149 0
-22 -98 -150 0
-23 -99 -151 0
-24 -100 -152 0
-25 -101 -149 0
-26 -102 -150 0
-27 -103 -151 0
-28 -104 -152 0
-29 -105 -149 0
-30 -106 -150 0
-31 -107 -151 0
-32 -108 -152 0
-33 -109 -149 0
-34 -110 -150 0
-35 -111 -151 0
-36 -112 -152 0
-37 -113 -149 0
-38 -114 -150 0
-39 -115 -151 0
-40 -116 -152 0
-41 -117 -149 0
-42 -118 -150 0
-43 -119 -151 0
-44 -120 -152 0
-45 -121 -149 0
-46 -122 -150 0
-47 -123 -151 0
-48 -124 -152 0
-49 -125 -149 0
-50 -126 -150 0
-51 -127 -151 0
-52 -128 -152 0
-53 -129 -149 0
-54 -130 -150 0
-55 -131 -151 0
-56 -132 -152 0
-57 -133 -149 0
-58 -134 -150 0
-59 -135 -151 0
-60 -136 -152 0
-61 -137 -149 0
-62 -138 -150 0
-63 -139 -151 0
-64 -140 -152 0
-65 -141 -149 0
-66 -142 -150 0
-67 -143 -151 0
-68 -144 -152 0
-69 -145 -149 0
-70 -146 -150 0
-71 -147 -151 0
-72 -148 -152 0
-73 -149 0
-74 -150 0
-75 -151 0
-76 -152 0
-77 -149 -153 0
-78 -150 -154 0
-79 -151 -155 0
-80 -152 -156 0
-81 -149 -157 0
-82 -150 -158 0
-83 -151 -159 0
-84 -152 -160 0
-85 -149 -161 0
-86 -150 -162 0
-87 -151 -163 0
-88 -152 -164 0
-89 -149 -165 0
-90 -150 -166 0
-91 -151 -167 0
-92 -152 -168 0
-93 -149 -169 0
-94 -150 -170 0
-95 -151 -171 0
-96 -152 -172 0
-97 -149 -173 0
-98 -150 -174 0
-99 -151 -175 0
-100 -152 -176 0
-101 -149 -177 0
-102 -150 -178 0
-103 -151 -179 0
-104 -152 -180 0
-105 -149 -181 0
-106 -150 -182 0
-107 -151 -183 0
-108 -152 -184 0
-109 -149 -185 0
-110 -150 -186 0
-111 -151 -187 0
-112 -152 -188 0
-113 -149 -189 0
-114 -150 -190 0
-115 -151 -191 0
-116 -152 -192 0
-117 -149 -193 0
-118 -150 -194 0
-119 -151 -195 0
-120 -152 -196 0
-121 -149 -197 0
-122 -150 -198 0
-123 -151 -199 0
-124 -152 -200 0
-125 -149 -201 0
-126 -150 -202 0
-127 -151 -203 0
-128 -152 -204 0
-129 -149 -205 0
-130 -150 -206 0
-131 -151 -207 0
-132 -152 -208 0
-133 -149 -209 0
-134 -150 -210 0
-135 -151 -211 0
-136 -152 -212 0
-137 -149 -213 0
-138 -150 -214 0
-139 -151 -215 0
-140 -152 -216 0
-141 -149 -217 0
-142 -150 -218 0
-143 -151 -219 0
-144 -152 -220 0
-145 -149 -221 0
-146 -150 -222 0
-147 -151 -223 0
-148 -152 -224 0
-1 -81 -157 0
-2 -82 -158 0
-3 -83 -159 0
-4 -84 -160 0
-5 -85 -157 0
-6 -86 -158 0
-7 -87 -159 0
-8 -88 -160 0
-9 -89 -157 0
-10 -90 -158 0
-11 -91 -159 0
-12 -92 -160 0
-13 -93 -157 0
-14 -94 -158 0
-15 -95 -159 0
-16 -96 -160 0
-17 -97 -157 0
-18 -98 -158 0
-19 -99 -159 0
-20 -100 -160 0
-21 -101 -157 0
-22 -102 -158 0
-23 -103 -159 0
-24 -104 -160 0
-25 -105 -157 0
-26 -106 -158 0
-27 -107 -159 0
-28 -108 -160 0
-29 -109 -157 0
-30 -110 -158 0
-31 -111 -159 0
-32 -112 -160 0
-33 -113 -157 0
-34 -114 -158 0
-35 -115 -159 0
-36 -116 -160 0
-37 -117 -157 0
-38 -118 -158 0
-39 -119 -159 0
-40 -120 -160 0
-41 -121 -157 0
-42 -122 -158 0
-43 -123 -159 0
-44 -124 -160 0
-45 -125 -157 0
-46 -126 -158 0
-47 -127 -159 0
-48 -128 -160 0
-49 -129 -157 0
-50 -130 -158 0
-51 -131 -159 0
-52 -132 -160 0
-53 -133 -157 0
-54 -134 -158 0
-55 -135 -159 0
-56 -136 -160 0
-57 -137 -157 0
-58 -138 -158 0
-59 -139 -159 0
-60 -140 -160 0
-61 -141 -157 0
-62 -142 -158 0
-63 -143 -159 0
-64 -144 -160 0
-65 -145 -157 0
-66 -146 -158 0
-67 -147 -159 0
-68 -148 -160 0
-69 -149 -157 0
-70 -150 -158 0
-71 -151 -159 0
-72 -152 -160 0
-73 -153 -157 0
-74 -154 -158 0
-75 -155 -159 0
-76 -156 -160 0
-77 -157 0
-78 -158 0
-79 -159 0
-80 -160 0
-81 -157 -161 0
-82 -158 -162 0
-83 -159 -163 0
-84 -160 -164 0
-85 -157 -165 0
-86 -158 -166 0
-87 -159 -167 0
-88 -160 -168 0
-89 -157 -169 0
-90 -158 -170 0
-91 -159 -171 0
-92 -160 -172 0
-93 -157 -173 0
-94 -158 -174 0
-95 -159 -175 0
-96 -160 -176 0
-97 -157 -177 0
-98 -158 -178 0
-99 -159 -179 0
-100 -160 -180 0
-101 -157 -181 0
-102 -158 -182 0
-103 -159 -183 0
-104 -160 -184 0
-105 -157 -185 0
-106 -158 -186 0
-107 -159 -187 0
-108 -160 -188 0
-109 -157 -189 0
-110 -158 -190 0
-111 -159 -191 0
-112 -160 -192 0
-113 -157 -193 0
-114 -158 -194 0
-115 -159 -195 0
-116 -160 -196 0
-117 -157 -197 0
-118 -158 -198 0
-119 -159 -199 0
-120 -160 -200 0
-121 -157 -201 0
-122 -158 -202 0
-123 -159 -203 0
-124 -160 -204 0
-125 -157 -205 0
-126 -158 -206 0
-127 -159 -207 0
-128 -160 -208 0
-129 -157 -209 0
-130 -158 -210 0
-131 -159 -211 0
-132 -160 -212 0
-133 -157 -213 0
-134 -158 -214 0
-135 -159 -215 0
-136 -160 -216 0
-137 -157 -217 0
-138 -158 -218 0
-139 -159 -219 0
-140 -160 -220 0
-141 -157 -221 0
-142 -158 -222 0
-143 -159 -223 0
-144 -160 -224 0
-1 -85 -165 0
-2 -86 -166 0
-3 -87 -167 0
-4 -88 -168 0
-5 -89 -165 0
-6 -90 -166 0
-7 -91 -167 0
-8 -92 -168 0
-9 -93 -165 0
-10 -94 -166 0
-11 -95 -167 0
-12 -96 -168 0
-13 -97 -165 0
-14 -98 -166 0
-15 -99 -167 0
-16 -100 -168 0
-17 -101 -165 0
-18 -102 -166 0
-19 -103 -167 0
-20 -104 -168 0
-21 -105 -165 0
-22 -106 -166 0
-23 -107 -167 0
-24 -108 -168 0
-25 -109 -165 0
-26 -110 -166 0
-27 -111 -167 0
-28 -112 -168 0
-29 -113 -165 0
-30 -114 -166 0
-31 -115 -167 0
-32 -116 -168 0
-33 -117 -165 0
-34 -118 -166 0
-35 -119 -167 0
-36 -120 -168 0
-37 -121 -165 0
-38 -122 -166 0
-39 -123 -167 0
-40 -124 -168 0
-41 -125 -165 0
-42 -126 -166 0
-43 -127 -167 0
-44 -128 -168 0
-45 -129 -165 0
-46 -130 -166 0
-47 -131 -167 0
-48 -132 -168 0
-49 -133 -165 0
-50 -134 -166 0
-51 -135 -167 0
-52 -136 -168 0
-53 -137 -165 0
-54 -138 -166 0
-55 -139 -167 0
-56 -140 -168 0
-57 -141 -165 0
-58 -142 -166 0
-59 -143 -167 0
-60 -144 -168 0
-61 -145 -165 0
-62 -146 -166 0
-63 -147 -167 0
-64 -148 -168 0
-65 -149 -165 0
-66 -150 -166 0
-67 -151 -167 0
-68 -152 -168 0
-69 -153 -165 0
-70 -154 -166 0
-71 -155 -167 0
-72 -156 -168 0
-73 -157 -165 0
-74 -158 -166 0
-75 -159 -167 0
-76 -160 -168 0
-77 -161 -165 0
-78 -162 -166 0
-79 -163 -167 0
-80 -164 -168 0
-81 -165 0
-82 -166 0
-83 -167 0
-84 -168 0
-85 -165 -169 0
-86 -166 -170 0
-87 -167 -171 0
-88 -168 -172 0
-89 -165 -173 0
-90 -166 -174 0
-91 -167 -175 0
-92 -168 -176 0
-93 -165 -177 0
-94 -166 -178 0
-95 -167 -179 0
-96 -168 -180 0
-97 -165 -181 0
-98 -166 -182 0
-99 -167 -183 0
-100 -168 -184 0
-101 -165 -185 0
-102 -166 -186 0
-103 -167 -187 0
-104 -168 -188 0
-105 -165 -189 0
-106 -166 -190 0
-107 -167 -191 0
-108 -168 -192 0
-109 -165 -193 0
-110 -166 -194 0
-111 -167 -195 0
-112 -168 -196 0
-113 -165 -197 0
-114 -166 -198 0
-115 -167 -199 0
-116 -168 -200 0
-117 -165 -201 0
-118 -166 -202 0
-119 -167 -203 0
-120 -168 -204 0
-121 -165 -205 0
-122 -166 -206 0
-123 -167 -207 0
-124 -168 -208 0
-125 -165 -209 0
-126 -166 -210 0
-127 -167 -211 0
-128 -168 -212 0
-129 -165 -213 0
-130 -166 -214 0
-131 -167 -215 0
-132 -168 -216 0
-133 -165 -217 0
-134 -166 -218 0
-135 -167 -219 0
-136 -168 -220 0
-137 -165 -221 0
-138 -166 -222 0
-139 -167 -223 0
-140 -168 -224 0
-1 -89 -173 0
-2 -90 -174 0
-3 -91 -175 0
-4 -92 -176 0
-5 -93 -173 0
-6 -94 -174 0
-7 -95 -175 0
-8 -96 -176 0
-9 -97 -173 0
-10 -98 -174 0
-11 -99 -175 0
-12 -100 -176 0
-13 -101 -173 0
-14 -102 -174 0
-15 -103 -175 0
-16 -104 -176 0
-17 -105 -173 0
-18 -106 -174 0
-19 -107 -175 0
-20 -108 -176 0
-21 -109 -173 0
-22 -110 -174 0
-23 -111 -175 0
-24 -112 -176 0
-25 -113 -173 0
-26 -114 -174 0
-27 -115 -175 0
-28 -116 -176 0
-29 -117 -173 0
-30 -118 -174 0
-31 -119 -175 0
-32 -120 -176 0
-33 -121 -173 0
-34 -122 -174 0
-35 -123 -175 0
-36 -124 -176 0
-37 -125 -173 0
-38 -126 -174 0
-39 -127 -175 0
-40 -128 -176 0
-41 -129 -173 0
-42 -130 -174 0
-43 -131 -175 0
-44 -132 -176 0
-45 -133 -173 0
-46 -134 -174 0
-47 -135 -175 0
-48 -136 -176 0
-49 -137 -173 0
-50 -138 -174 0
-51 -139 -175 0
-52 -140 -176 0
-53 -141 -173 0
-54 -142 -174 0
-55 -143 -175 0
-56 -144 -176 0
-57 -145 -173 0
-58 -146 -174 0
-59 -147 -175 0
-60 -148 -176 0
-61 -149 -173 0
-62 -150 -174 0
-63 -151 -175 0
-64 -152 -176 0
-65 -153 -173 0
-66 -154 -174 0
-67 -155 -175 0
-68 -156 -176 0
-69 -157 -173 0
-70 -158 -174 0
-71 -159 -175 0
-72 -160 -176 0
-73 -161 -173 0
-74 -162 -174 0
-75 -163 -175 0
-76 -164 -176 0
-77 -165 -173 0
-78 -166 -174 0
-79 -167 -175 0
-80 -168 -176 0
-81 -169 -173 0
-82 -170 -174 0
-83 -171 -175 0
-84 -172 -176 0
-85 -173 0
-86 -174 0
-87 -175 0
-88 -176 0
-89 -173 -177 0
-90 -174 -178 0
-91 -175 -179 0
-92 -176 -180 0
-93 -173 -181 0
-94 -174 -182 0
-95 -175 -183 0
-96 -176 -184 0
-97 -173 -185 0
-98 -174 -186 0
-99 -175 -187 0
-100 -176 -188 0
-101 -173 -189 0
-102 -174 -190 0
-103 -175 -191 0
-104 -176 -192 0
-105 -173 -193 0
-106 -174 -194 0
-107 -175 -195 0
-108 -176 -196 0
-109 -173 -197 0
-110 -174 -198 0
-111 -175 -199 0
-112 -176 -200 0
-113 -173 -201 0
-114 -174 -202 0
-115 -175 -203 0
-116 -176 -204 0
-117 -173 -205 0
-118 -174 -206 0
-119 -175 -207 0
-120 -176 -208 0
-121 -173 -209 0
-122 -174 -210 0
-123 -175 -211 0
-124 -176 -212 0
-125 -173 -213 0
-126 -174 -214 0
-127 -175 -215 0
-128 -176 -216 0
-129 -173 -217 0
-130 -174 -218 0
-131 -175 -219 0
-132 -176 -220 0
-133 -173 -221 0
-134 -174 -222 0
-135 -175 -223 0
-136 -176 -224 0
-1 -93 -181 0
-2 -94 -182 0
-3 -95 -183 0
-4 -96 -184 0
-5 -97 -181 0
-6 -98 -182 0
-7 -99 -183 0
-8 -100 -184 0
-9 -101 -181 0
-10 -102 -182 0
-11 -103 -183 0
-12 -104 -184 0
-13 -105 -181 0
-14 -106 -182 0
-15 -107 -183 0
-16 -108 -184 0
-17 -109 -181 0
-18 -110 -182 0
-19 -111 -183 0
-20 -112 -184 0
-21 -113 -181 0
-22 -114 -182 0
-23 -115 -183 0
-24 -116 -184 0
-25 -117 -181 0
-26 -118 -182 0
-27 -119 -183 0
-28 -120 -184 0
-29 -121 -181 0
-30 -122 -182 0
-31 -123 -183 0
-32 -124 -184 0
-33 -125 -181 0
-34 -126 -182 0
-35 -127 -183 0
-36 -128 -184 0
-37 -129 -181 0
-38 -130 -182 0
-39 -131 -183 0
-40 -132 -184 0
-41 -133 -181 0
-42 -134 -182 0
-43 -135 -183 0
-44 -136 -184 0
-45 -137 -181 0
-46 -138 -182 0
-47 -139 -183 0
-48 -140 -184 0
-49 -141 -181 0
-50 -142 -182 0
-51 -143 -183 0
-52 -144 -184 0
-53 -145 -181 0
-54 -146 -182 0
-55 -147 -183 0
-56 -148 -184 0
-57 -149 -181 0
-58 -150 -182 0
-59 -151 -183 0
-60 -152 -184 0
-61 -153 -181 0
-62 -154 -182 0
-63 -155 -183 0
-64 -156 -184 0
-65 -157 -181 0
-66 -158 -182 0
-67 -159 -183 0
-68 -160 -184 0
-69 -161 -181 0
-70 -162 -182 0
-71 -163 -183 0
-72 -164 -184 0
-73 -165 -181 0
-74 -166 -182 0
-75 -167 -183 0
-76 -168 -184 0
-77 -169 -181 0
-78 -170 -182 0
-79 -171 -183 0
-80 -172 -184 0
-81 -173 -181 0
-82 -174 -182 0
-83 -175 -183 0
-84 -176 -184 0
-85 -177 -181 0
-86 -178 -182 0
-87 -179 -183 0
-88 -180 -184 0
-89 -181 0
-90 -182 0
-91 -183 0
-92 -184 0
-93 -181 -185 0
-94 -182 -186 0
-95 -183 -187 0
-96 -184 -188 0
-97 -181 -189 0
-98 -182 -190 0
-99 -183 -191 0
-100 -184 -192 0
-101 -181 -193 0
-102 -182 -194 0
-103 -183 -195 0
-104 -184 -196 0
-105 -181 -197 0
-106 -182 -198 0
-107 -183 -199 0
-108 -184 -200 0
-109 -181 -201 0
-110 -182 -202 0
-111 -183 -203 0
-112 -184 -204 0
-113 -181 -205 0
-114 -182 -206 0
-115 -183 -207 0
-116 -184 -208 0
-117 -181 -209 0
-118 -182 -210 0
-119 -183 -211 0
-120 -184 -212 0
-121 -181 -213 0
-122 -182 -214 0
-123 -183 -215 0
-124 -184 -216 0
-125 -181 -217 0
-126 -182 -218 0
-127 -183 -219 0
-128 -184 -220 0
-129 -181 -221 0
-130 -182 -222 0
-131 -183 -223 0
-132 -184 -224 0
-1 -97 -189 0
-2 -98 -190 0
-3 -99 -191 0
-4 -100 -192 0
-5 -101 -189 0
-6 -102 -190 0
-7 -103 -191 0
-8 -104 -192 0
-9 -105 -189 0
-10 -106 -190 0
-11 -107 -191 0
-12 -108 -192 0
-13 -109 -189 0
-14 -110 -190 0
-15 -111 -191 0
-16 -112 -192 0
-17 -113 -189 0
-18 -114 -190 0
-19 -115 -191 0
-20 -116 -192 0
-21 -117 -189 0
-22 -118 -190 0
-23 -119 -191 0
-24 -120 -192 0
-25 -121 -189 0
-26 -122 -190 0
-27 -123 -191 0
-28 -124 -192 0
-29 -125 -189 0
-30 -126 -190 0
-31 -127 -191 0
-32 -128 -192 0
-33 -129 -189 0
-34 -130 -190 0
-35 -131 -191 0
-36 -132 -192 0
-37 -133 -189 0
-38 -134 -190 0
-39 -135 -191 0
-40 -136 -192 0
-41 -137 -189 0
-42 -138 -190 0
-43 -139 -191 0
-44 -140 -192 0
-45 -141 -189 0
-46 -142 -190 0
-47 -143 -191 0
-48 -144 -192 0
-49 -145 -189 0
-50 -146 -190 0
-51 -147 -191 0
-52 -148 -192 0
-53 -149 -189 0
-54 -150 -190 0
-55 -151 -191 0
-56 -152 -192 0
-57 -153 -189 0
-58 -154 -190 0
-59 -155 -191 0
-60 -156 -192 0
-61 -157 -189 0
-62 -158 -190 0
-63 -159 -191 0
-64 -160 -192 0
-65 -161 -189 0
-66 -162 -190 0
-67 -163 -191 0
-68 -164 -192 0
-69 -165 -189 0
-70 -166 -190 0
-71 -167 -191 0
-72 -168 -192 0
-73 -169 -189 0
-74 -170 -190 0
-75 -171 -191 0
-76 -172 -192 0
-77 -173 -189 0
-78 -174 -190 0
-79 -175 -191 0
-80 -176 -192 0
-81 -177 -189 0
-82 -178 -190 0
-83 -179 -191 0
-84 -180 -192 0
-85 -181 -189 0
-86 -182 -190 0
-87 -183 -191 0
-88 -184 -192 0
-89 -185 -189 0
-90 -186 -190 0
-91 -187 -191 0
-92 -188 -192 0
-93 -189 0
-94 -190 0
-95 -191 0
-96 -192 0
-97 -189 -193 0
-98 -190 -194 0
-99 -191 -195 0
-100 -192 -196 0
-101 -189 -197 0
-102 -190 -198 0
-103 -191 -199 0
-104 -192 -200 0
-105 -189 -201 0
-106 -190 -202 0
-107 -191 -203 0
-108 -192 -204 0
-109 -189 -205 0
-110 -190 -206 0
-111 -191 -207 0
-112 -192 -208 0
-113 -189 -209 0
-114 -190 -210 0
-115 -191 -211 0
-116 -192 -212 0
-117 -189 -213 0
-118 -190 -214 0
-119 -191 -215 0
-120 -192 -216 0
-121 -189 -217 0
-122 -190 -218 0
-123 -191 -219 0
-124 -192 -220 0
-125 -189 -221 0
-126 -190 -222 0
-127 -191 -223 0
-128 -192 -224 0
-1 -101 -197 0
-2 -102 -198 0
-3 -103 -199 0
-4 -104 -200 0
-5 -105 -197 0
-6 -106 -198 0
-7 -107 -199 0
-8 -108 -200 0
-9 -109 -197 0
-10 -110 -198 0
-11 -111 -199 0
-12 -112 -200 0
-13 -113 -197 0
-14 -114 -198 0
-15 -115 -199 0
-16 -116 -200 0
-17 -117 -197 0
-18 -118 -198 0
-19 -119 -199 0
-20 -120 -200 0
-21 -121 -197 0
-22 -122 -198 0
-23 -123 -199 0
-24 -124 -200 0
-25 -125 -197 0
-26 -126 -198 0
-27 -127 -199 0
-28 -128 -200 0
-29 -129 -197 0
-30 -130 -198 0
-31 -131 -199 0
-32 -132 -200 0
-33 -133 -197 0
-34 -134 -198 0
-35 -135 -199 0
-36 -136 -200 0
-37 -137 -197 0
-38 -138 -198 0
-39 -139 -199 0
-40 -140 -200 0
-41 -141 -197 0
-42 -142 -198 0
-43 -143 -199 0
-44 -144 -200 0
-45 -145 -197 0
-46 -146 -198 0
-47 -147 -199 0
-48 -148 -200 0
-49 -149 -197 0
-50 -150 -198 0
-51 -151 -199 0
-52 -152 -200 0
-53 -153 -197 0
-54 -154 -198 0
-55 -155 -199 0
-56 -156 -200 0
-57 -157 -197 0
-58 -158 -198 0
-59 -159 -199 0
-60 -160 -200 0
-61 -161 -197 0
-62 -162 -198 0
-63 -163 -199 0
-64 -164 -200 0
-65 -165 -197 0
-66 -166 -198 0
-67 -167 -199 0
-68 -168 -200 0
-69 -169 -197 0
-70 -170 -198 0
-71 -171 -199 0
-72 -172 -200 0
-73 -173 -197 0
-74 -174 -198 0
-75 -175 -199 0
-76 -176 -200 0
-77 -177 -197 0
-78 -178 -198 0
-79 -179 -199 0
-80 -180 -200 0
-81 -181 -197 0
-82 -182 -198 0
-83 -183 -199 0
-84 -184 -200 0
-85 -185 -197 0
-86 -186 -198 0
-87 -187 -199 0
-88 -188 -200 0
-89 -189 -197 0
-90 -190 -198 0
-91 -191 -199 0
-92 -192 -200 0
-93 -193 -197 0
-94 -194 -198 0
-95 -195 -199 0
-96 -196 -200 0
-97 -197 0
-98 -198 0
-99 -199 0
-100 -200 0
-101 -197 -201 0
-102 -198 -202 0
-103 -199 -203 0
-104 -200 -204 0
-105 -197 -205 0
-106 -198 -206 0
-107 -199 -207 0
-108 -200 -208 0
-109 -197 -209 0
-110 -198 -210 0
-111 -199 -211 0
-112 -200 -212 0
-113 -197 -213 0
-114 -198 -214 0
-115 -199 -215 0
-116 -200 -216 0
-117 -197 -217 0
-118 -198 -218 0
-119 -199 -219 0
-120 -200 -220 0
-121 -197 -221 0
-122 -198 -222 0
-123 -199 -223 0
-124 -200 -224 0
-1 -105 -205 0
-2 -106 -206 0
-3 -107 -207 0
-4 -108 -208 0
-5 -109 -205 0
-6 -110 -206 0
-7 -111 -207 0
-8 -112 -208 0
-9 -113 -205 0
-10 -114 -206 0
-11 -115 -207 0
-12 -116 -208 0
-13 -117 -205 0
-14 -118 -206 0
-15 -119 -207 0
-16 -120 -208 0
-17 -121 -205 0
-18 -122 -206 0
-19 -123 -207 0
-20 -124 -208 0
-21 -125 -205 0
-22 -126 -206 0
-23 -127 -207 0
-24 -128 -208 0
-25 -129 -205 0
-26 -130 -206 0
-27 -131 -207 0
-28 -132 -208 0
-29 -133 -205 0
-30 -134 -206 0
-31 -135 -207 0
-32 -136 -208 0
-33 -137 -205 0
-34 -138 -206 0
-35 -139 -207 0
-36 -140 -208 0
-37 -141 -205 0
-38 -142 -206 0
-39 -143 -207 0
-40 -144 -208 0
-41 -145 -205 0
-42 -146 -206 0
-43 -147 -207 0
-44 -148 -208 0
-45 -149 -205 0
-46 -150 -206 0
-47 -151 -207 0
-48 -152 -208 0
-49 -153 -205 0
-50 -154 -206 0
-51 -155 -207 0
-52 -156 -208 0
-53 -157 -205 0
-54 -158 -206 0
-55 -159 -207 0
-56 -160 -208 0
-57 -161 -205 0
-58 -162 -206 0
-59 -163 -207 0
-60 -164 -208 0
-61 -165 -205 0
-62 -166 -206 0
-63 -167 -207 0
-64 -168 -208 0
-65 -169 -205 0
-66 -170 -206 0
-67 -171 -207 0
-68 -172 -208 0
-69 -173 -205 0
-70 -174 -206 0
-71 -175 -207 0
-72 -176 -208 0
-73 -177 -205 0
-74 -178 -206 0
-75 -179 -207 0
-76 -180 -208 0
-77 -181 -205 0
-78 -182 -206 0
-79 -183 -207 0
-80 -184 -208 0
-81 -185 -205 0
-82 -186 -206 0
-83 -187 -207 0
-84 -188 -208 0
-85 -189 -205 0
-86 -190 -206 0
-87 -191 -207 0
-88 -192 -208 0
-89 -193 -205 0
-90 -194 -206 0
-91 -195 -207 0
-92 -196 -208 0
-93 -197 -205 0
-94 -198 -206 0
-95 -199 -207 0
-96 -200 -208 0
-97 -201 -205 0
-98 -202 -206 0
-99 -203 -207 0
-100 -204 -208 0
-101 -205 0
-102 -206 0
-103 -207 0
-104 -208 0
-105 -205 -209 0
-106 -206 -210 0
-107 -207 -211 0
-108 -208 -212 0
-109 -205 -213 0
-110 -206 -214 0
-111 -207 -215 0
-112 -208 -216 0
-113 -205 -217 0
-114 -206 -218 0
-115 -207 -219 0
-116 -208 -220 0
-117 -205 -221 0
-118 -206 -222 0
-119 -207 -223 0
-120 -208 -224 0
-1 -109 -213 0
-2 -110 -214 0
-3 -111 -215 0
-4 -112 -216 0
-5 -113 -213 0
-6 -114 -214 0
-7 -115 -215 0
-8 -116 -216 0
-9 -117 -213 0
-10 -118 -214 0
-11 -119 -215 0
-12 -120 -216 0
-13 -121 -213 0
-14 -122 -214 0
-15 -123 -215 0
-16 -124 -216 0
-17 -125 -213 0
-18 -126 -214 0
-19 -127 -215 0
-20 -128 -216 0
-21 -129 -213 0
-22 -130 -214 0
-23 -131 -215 0
-24 -132 -216 0
-25 -133 -213 0
-26 -134 -214 0
-27 -135 -215 0
-28 -136 -216 0
-29 -137 -213 0
-30 -138 -214 0
-31 -139 -215 0
-32 -140 -216 0
-33 -141 -213 0
-34 -142 -214 0
-35 -143 -215 0
-36 -144 -216 0
-37 -145 -213 0
-38 -146 -214 0
-39 -147 -215 0
-40 -148 -216 0
-41 -149 -213 0
-42 -150 -214 0
-43 -151 -215 0
-44 -152 -216 0
-45 -153 -213 0
-46 -154 -214 0
-47 -155 -215 0
-48 -156 -216 0
-49 -157 -213 0
-50 -158 -214 0
-51 -159 -215 0
-52 -160 -216 0
-53 -161 -213 0
-54 -162 -214 0
-55 -163 -215 0
-56 -164 -216 0
-57 -165 -213 0
-58 -166 -214 0
-59 -167 -215 0
-60 -168 -216 0
-61 -169 -213 0
-62 -170 -214 0
-63 -171 -215 0
-64 -172 -216 0
-65 -173 -213 0
-66 -174 -214 0
-67 -175 -215 0
-68 -176 -216 0
-69 -177 -213 0
-70 -178 -214 0
-71 -179 -215 0
-72 -180 -216 0
-73 -181 -213 0
-74 -182 -214 0
-75 -183 -215 0
-76 -184 -216 0
-77 -185 -213 0
-78 -186 -214 0
-79 -187 -215 0
-80 -188 -216 0
-81 -189 -213 0
-82 -190 -214 0
-83 -191 -215 0
-84 -192 -216 0
-85 -193 -213 0
-86 -194 -214 0
-87 -195 -215 0
-88 -196 -216 0
-89 -197 -213 0
-90 -198 -214 0
-91 -199 -215 0
-92 -200 -216 0
-93 -201 -213 0
-94 -202 -214 0
-95 -203 -215 0
-96 -204 -216 0
-97 -205 -213 0
-98 -206 -214 0
-99 -207 -215 0
-100 -208 -216 0
-101 -209 -213 0
-102 -210 -214 0
-103 -211 -215 0
-104 -212 -216 0
-105 -213 0
-106 -214 0
-107 -215 0
-108 -216 0
-109 -213 -217 0
-110 -214 -218 0
-111 -215 -219 0
-112 -216 -220 0
-113 -213 -221 0
-114 -214 -222 0
-115 -215 -223 0
-116 -216 -224 0
-1 -113 -221 0
-2 -114 -222 0
-3 -115 -223 0
-4 -116 -224 0
-5 -117 -221 0
-6 -118 -222 0
-7 -119 -223 0
-8 -120 -224 0
-9 -121 -221 0
-10 -122 -222 0
-11 -123 -223 0
-12 -124 -224 0
-13 -125 -221 0
-14 -126 -222 0
-15 -127 -223 0
-16 -128 -224 0
-17 -129 -221 0
-18 -130 -222 0
-19 -131 -223 0
-20 -132 -224 0
-21 -133 -221 0
-22 -134 -222 0
-23 -135 -223 0
-24 -136 -224 0
-25 -137 -221 0
-26 -138 -222 0
-27 -139 -223 0
-28 -140 -224 0
-29 -141 -221 0
-30 -142 -222 0
-31 -143 -223 0
-32 -144 -224 0
-33 -145 -221 0
-34 -146 -222 0
-35 -147 -223 0
-36 -148 -224 0
-37 -149 -221 0
-38 -150 -222 0
-39 -151 -223 0
-40 -152 -224 0
-41 -153 -221 0
-42 -154 -222 0
-43 -155 -223 0
-44 -156 -224 0
-45 -157 -221 0
-46 -158 -222 0
-47 -159 -223 0
-48 -160 -224 0
-49 -161 -221 0
-50 -162 -222 0
-51 -163 -223 0
-52 -164 -224 0
-53 -165 -221 0
-54 -166 -222 0
-55 -167 -223 0
-56 -168 -224 0
-57 -169 -221 0
-58 -170 -222 0
-59 -171 -223 0
-60 -172 -224 0
-61 -173 -221 0
-62 -174 -222 0
-63 -175 -223 0
-64 -176 -224 0
-65 -177 -221 0
-66 -178 -222 0
-67 -179 -223 0
-68 -180 -224 0
-69 -181 -221 0
-70 -182 -222 0
-71 -183 -223 0
-72 -184 -224 0
-73 -185 -221 0
-74 -186 -222 0
-75 -187 -223 0
-76 -188 -224 0
-77 -189 -221 0
-78 -190 -222 0
-79 -191 -223 0
-80 -192 -224 0
-81 -193 -221 0
-82 -194 -222 0
-83 -195 -223 0
-84 -196 -224 0
-85 -197 -221 0
-86 -198 -222 0
-87 -199 -223 0
-88 -200 -224 0
-89 -201 -221 0
-90 -202 -222 0
-91 -203 -223 0
-92 -204 -224 0
-93 -205 -221 0
-94 -206 -222 0
-95 -207 -223 0
-96 -208 -224 0
-97 -209 -221 0
-98 -210 -222 0
-99 -211 -223 0
-100 -212 -224 0
-101 -213 -221 0
-102 -214 -222 0
-103 -215 -223 0
-104 -216 -224 0
-105 -217 -221 0
-106 -218 -222 0
-107 -219 -223 0
-108 -220 -224 0
-109 -221 0
-110 -222 0
-111 -223 0
-112 -224 0
-1 -2 0
-1 -3 0
-1 -4 0
-2 -3 0
-2 -4 0
-3 -4 0
-5 -6 0
-5 -7 0
-5 -8 0
-6 -7 0
-6 -8 0
-7 -8 0
-9 -10 0
-9 -11 0
-9 -12 0
-10 -11 0
-10 -12 0
-11 -12 0
-13 -14 0
-13 -15 0
-13 -16 0
-14 -15 0
-14 -16 0
-15 -16 0
-17 -18 0
-17 -19 0
-17 -20 0
-18 -19 0
-18 -20 0
-19 -20 0
-21 -22 0
-21 -23 0
-21 -24 0
-22 -23 0
-22 -24 0
-23 -24 0
-25 -26 0
-25 -27 0
-25 -28 0
-26 -27 0
-26 -28 0
-27 -28 0
-29 -30 0
-29 -31 0
-29 -32 0
-30 -31 0
-30 -32 0
-31 -32 0
-33 -34 0
-33 -35 0
-33 -36 0
-34 -35 0
-34 -36 0
-35 -36 0
-37 -38 0
-37 -39 0
-37 -40 0
-38 -39 0
-38 -40 0
-39 -40 0
-41 -42 0
-41 -43 0
-41 -44 0
-42 -43 0
-42 -44 0
-43 -44 0
-45 -46 0
-45 -47 0
-45 -48 0
-46 -47 0
-46 -48 0
-47 -48 0
-49 -50 0
-49 -51 0
-49 -52 0
-50 -51 0
-50 -52 0
-51 -52 0
-53 -54 0
-53 -55 0
-53 -56 0
-54 -55 0
-54 -56 0
-55 -56 0
-57 -58 0
-57 -59 0
-57 -60 0
-58 -59 0
-58 -60 0
-59 -60 0
-61 -62 0
-61 -63 0
-61 -64 0
-62 -63 0
-62 -64 0
-63 -64 0
-65 -66 0
-65 -67 0
-65 -68 0
-66 -67 0
-66 -68 0
-67 -68 0
-69 -70 0
-69 -71 0
-69 -72 0
-70 -71 0
-70 -72 0
-71 -72 0
-73 -74 0
-73 -75 0
-73 -76 0
-74 -75 0
-74 -76 0
-75 -76 0
-77 -78 0
-77 -79 0
-77 -80 0
-78 -79 0
-78 -80 0
-79 -80 0
-81 -82 0
-81 -83 0
-81 -84 0
-82 -83 0
-82 -84 0
-83 -84 0
-85 -86 0
-85 -87 0
-85 -88 0
-86 -87 0
-86 -88 0
-87 -88 0
-89 -90 0
-89 -91 0
-89 -92 0
-90 -91 0
-90 -92 0
-91 -92 0
-93 -94 0
-93 -95 0
-93 -96 0
-94 -95 0
-94 -96 0
-95 -96 0
-97 -98 0
-97 -99 0
-97 -100 0
-98 -99 0
-98 -100 0
-99 -100 0
-101 -102 0
-101 -103 0
-101 -104 0
-102 -103 0
-102 -104 0
-103 -104 0
-105 -106 0
-105 -107 0
-105 -108 0
-106 -107 0
-106 -108 0
-107 -108 0
-109 -110 0
-109 -111 0
-109 -112 0
-110 -111 0
-110 -112 0
-111 -112 0
-113 -114 0
-113 -115 0
-113 -116 0
-114 -115 0
-114 -116 0
-115 -116 0
-117 -118 0
-117 -119 0
-117 -120 0
-118 -119 0
-118 -120 0
-119 -120 0
-121 -122 0
-121 -123 0
-121 -124 0
-122 -123 0
-122 -124 0
-123 -124 0
-125 -126 0
-125 -127 0
-125 -128 0
-126 -127 0
-126 -128 0
-127 -128 0
-129 -130 0
-129 -131 0
-129 -132 0
-130 -131 0
-130 -132 0
-131 -132 0
-133 -134 0
-133 -135 0
-133 -136 0
-134 -135 0
-134 -136 0
-135 -136 0
-137 -138 0
-137 -139 0
-137 -140 0
-138 -139 0
-138 -140 0
-139 -140 0
-141 -142 0
-141 -143 0
-141 -144 0
-142 -143 0
-142 -144 0
-143 -144 0
-145 -146 0
-145 -147 0
-145 -148 0
-146 -147 0
-146 -148 0
-147 -148 0
-149 -150 0
-149 -151 0
-149 -152 0
-150 -151 0
-150 -152 0
-151 -152 0
-153 -154 0
-153 -155 0
-153 -156 0
-154 -155 0
-154 -156 0
-155 -156 0
-157 -158 0
-157 -159 0
-157 -160 0
-158 -159 0
-158 -160 0
-159 -160 0
-161 -162 0
-161 -163 0
-161 -164 0
-162 -163 0
-162 -164 0
-163 -164 0
-165 -166 0
-165 -167 0
-165 -168 0
-166 -167 0
-166 -168 0
-167 -168 0
-169 -170 0
-169 -171 0
-169 -172 0
-170 -171 0
-170 -172 0
-171 -172 0
-173 -174 0
-173 -175 0
-173 -176 0
-174 -175 0
-174 -176 0
-175 -176 0
-177 -178 0
-177 -179 0
-177 -180 0
-178 -179 0
-178 -180 0
-179 -180 0
-181 -182 0
-181 -183 0
-181 -184 0
-182 -183 0
-182 -184 0
-183 -184 0
-185 -186 0
-185 -187 0
-185 -188 0
-186 -187 0
-186 -188 0
-187 -188 0
-189 -190 0
-189 -191 0
-189 -192 0
-190 -191 0
-190 -192 0
-191 -192 0
-193 -194 0
-193 -195 0
-193 -196 0
-194 -195 0
-194 -196 0
-195 -196 0
-197 -198 0
-197 -199 0
-197 -200 0
-198 -199 0
-198 -200 0
-199 -200 0
-201 -202 0
-201 -203 0
-201 -204 0
-202 -203 0
-202 -204 0
-203 -204 0
-205 -206 0
-205 -207 0
-205 -208 0
-206 -207 0
-206 -208 0
-207 -208 0
-209 -210 0
-209 -211 0
-209 -212 0
-210 -211 0
-210 -212 0
-211 -212 0
-213 -214 0
-213 -215 0
-213 -216 0
-214 -215 0
-214 -216 0
-215 -216 0
-217 -218 0
-217 -219 0
-217 -220 0
-218 -219 0
-218 -220 0
-219 -220 0
-221 -222 0
-221 -223 0
-221 -224 0
-222 -223 0
-222 -224 0
-223 -224 0
1 0
-6 1 0
-7 0
-8 0
-10 1 5 0
-11 2 6 0
-12 0
-14 1 5 9 0
-15 2 6 10 0
-16 3 7 11 0
-18 1 5 9 13 0
-19 2 6 10 14 0
-20 3 7 11 15 0
-22 1 5 9 13 17 0
-23 2 6 10 14 18 0
-24 3 7 11 15 19 0
-26 1 5 9 13 17 21 0
-27 2 6 10 14 18 22 0
-28 3 7 11 15 19 23 0
-30 1 5 9 13 17 21 25 0
-31 2 6 10 14 18 22 26 0
-32 3 7 11 15 19 23 27 0
-34 1 5 9 13 17 21 25 29 0
-35 2 6 10 14 18 22 26 30 0
-36 3 7 11 15 19 23 27 31 0
-38 1 5 9 13 17 21 25 29 33 0
-39 2 6 10 14 18 22 26 30 34 0
-40 3 7 11 15 19 23 27 31 35 0
-42 1 5 9 13 17 21 25 29 33 37 0
-43 2 6 10 14 18 22 26 30 34 38 0
-44 3 7 11 15 19 23 27 31 35 39 0
-46 1 5 9 13 17 21 25 29 33 37 41 0
-47 2 6 10 14 18 22 26 30 34 38 42 0
-48 3 7 11 15 19 23 27 31 35 39 43 0
-50 1 5 9 13 17 21 25 29 33 37 41 45 0
-51 2 6 10 14 18 22 26 30 34 38 42 46 0
-52 3 7 11 15 19 23 27 31 35 39 43 47 0
-54 1 5 9 13 17 21 25 29 33 37 41 45 49 0
-55 2 6 10 14 18 22 26 30 34 38 42 46 50 0
-56 3 7 11 15 19 23 27 31 35 39 43 47 51 0
-58 1 5 9 13 17 21 25 29 33 37 41 45 49 53 0
-59 2 6 10 14 18 22 26 30 34 38 42 46 50 54 0
-60 3 7 11 15 19 23 27 31 35 39 43 47 51 55 0
-62 1 5 9 13 17 21 25 29 33 37 41 45 49 53 57 0
-63 2 6 10 14 18 22 26 30 34 38 42 46 50 54 58 0
-64 3 7 11 15 19 23 27 31 35 39 43 47 51 55 59 0
-66 1 5 9 13 17 21 25 29 33 37 41 45 49 53 57 61 0
-67 2 6 10 14 18 22 26 30 34 38 42 46 50 54 58 62 0
-68 3 7 11 15 19 23 27 31 35 39 43 47 51 55 59 63 0
-70 1 5 9 13 17 21 25 29 33 37 41 45 49 53 57 61 65 0
-71 2 6 10 14 18 22 26 30 34 38 42 46 50 54 58 62 66 0
-72 3 7 11 15 19 23 27 31 35 39 43 47 51 55 59 63 67 0
-74 1 5 9 13 17 21 25 29 33 37 41 45 49 53 57 61 65 69 0
-75 2 6 10 14 18 22 26 30 34 38 42 46 50 54 58 62 66 70 0
-76 3 7 11 15 19 23 27 31 35 39 43 47 51 55 59 63 67 71 0
-78 1 5 9 13 17 21 25 29 33 37 41 45 49 53 57 61 65 69 73 0
-79 2 6 10 14 18 22 26 30 34 38 42 46 50 54 58 62 66 70 74 0
-80 3 7 11 15 19 23 27 31 35 39 43 47 51 55 59 63 67 71 75 0
-82 1 5 9 13 17 21 25 29 33 37 41 45 49 53 57 61 65 69 73 77 0
-83 2 6 10 14 18 22 26 30 34 38 42 46 50 54 58 62 66 70 74 78 0
-84 3 7 11 15 19 23 27 31 35 39 43 47 51 55 59 63 67 71 75 79 0
-86 1 5 9 13 17 21 25 29 33 37 41 45 49 53 57 61 65 69 73 77 81 0
-87 2 6 10 14 18 22 26 30 34 38 42 46 50 54 58 62 66 70 74 78 82 0
-88 3 7 11 15 19 23 27 31 35 39 43 47 51 55 59 63 67 71 75 79 83 0
-90 1 5 9 13 17 21 25 29 33 37 41 45 49 53 57 61 65 69 73 77 81 85 0
-91 2 6 10 14 18 22 26 30 34 38 42 46 50 54 58 62 66 70 74 78 82 86 0
-92 3 7 11 15 19 23 27 31 35 39 43 47 51 55 59 63 67 71 75 79 83 87 0
-94 1 5 9 13 17 21 25 29 33 37 41 45 49 53 57 61 65 69 73 77 81 85 89 0
-95 2 6 10 14 18 22 26 30 34 38 42 46 50 54 58 62 66 70 74 78 82 86 90 0
-96 3 7 11 15 19 23 27 31 35 39 43 47 51 55 59 63 67 71 75 79 83 87 91 0
-98 1 5 9 13 17 21 25 29 33 37 41 45 49 53 57 61 65 69 73 77 81 85 89 93 0
-99 2 6 10 14 18 22 26 30 34 38 42 46 50 54 58 62 66 70 74 78 82 86 90 94 0
-100 3 7 11 15 19 23 27 31 35 39 43 47 51 55 59 63 67 71 75 79 83 87 91 95 0
-102 1 5 9 13 17 21 25 29 33 37 41 45 49 53 57 61 65 69 73 77 81 85 89 93 97 0
-103 2 6 10 14 18 22 26 30 34 38 42 46 50 54 58 62 66 70 74 78 82 86 90 94 98 0
-104 3 7 11 15 19 23 27 31 35 39 43 47 51 55 59 63 67 71 75 79 83 87 91 95 99 0
-106 1 5 9 13 17 21 25 29 33 37 41 45 49 53 57 61 65 69 73 77 81 85 89 93 97 101 0
-107 2 6 10 14 18 22 26 30 34 38 42 46 50 54 58 62 66 70 74 78 82 86 90 94 98 102 0
-108 3 7 11 15 19 23 27 31 35 39 43 47 51 55 59 63 67 71 75 79 83 87 91 95 99 103 0
-110 1 5 9 13 17 21 25 29 33 37 41 45 49 53 57 61 65 69 73 77 81 85 89 93 97 101 105 0
-111 2 6 10 14 18 22 26 30 34 38 42 46 50 54 58 62 66 70 74 78 82 86 90 94 98 102 106 0
-112 3 7 11 15 19 23 27 31 35 39 43 47 51 55 59 63 67 71 75 79 83 87 91 95 99 103 107 0
-114 1 5 9 13 17 21 25 29 33 37 41 45 49 53 57 61 65 69 73 77 81 85 89 93 97 101 105 109 0
-115 2 6 10 14 18 22 26 30 34 38 42 46 50 54 58 62 66 70 74 78 82 86 90 94 98 102 106 110 0
-116 3 7 11 15 19 23 27 31 35 39 43 47 51 55 59 63 67 71 75 79 83 87 91 95 99 103 107 111 0
-118 1 5 9 13 17 21 25 29 33 37 41 45 49 53 57 61 65 69 73 77 81 85 89 93 97 101 105 109 113 0
-119 2 6 10 14 18 22 26 30 34 38 42 46 50 54 58 62 66 70 74 78 82 86 90 94 98 102 106 110 114 0
-120 3 7 11 15 19 23 27 31 35 39 43 47 51 55 59 63 67 71 75 79 83 87 91 95 99 103 107 111 115 0
-122 1 5 9 13 17 21 25 29 33 37 41 45 49 53 57 61 65 69 73 77 81 85 89 93 97 101 105 109 113 117 0
-123 2 6 10 14 18 22 26 30 34 38 42 46 50 54 58 62 66 70 74 78 82 86 90 94 98 102 106 110 114 118 0
-124 3 7 11 15 19 23 27 31 35 39 43 47 51 55 59 63 67 71 75 79 83 87 91 95 99 103 107 111 115 119 0
-126 1 5 9 13 17 21 25 29 33 37 41 45 49 53 57 61 65 69 73 77 81 85 89 93 97 101 105 109 113 117 121 0
-127 2 6 10 14 18 22 26 30 34 38 42 46 50 54 58 62 66 70 74 78 82 86 90 94 98 102 106 110 114 118 122 0
-128 3 7 11 15 19 23 27 31 35 39 43 47 51 55 59 63 67 71 75 79 83 87 91 95 99 103 107 111 115 119 123 0
-130 1 5 9 13 17 21 25 29 33 37 41 45 49 53 57 61 65 69 73 77 81 85 89 93 97 101 105 109 113 117 121 125 0
-131 2 6 10 14 18 22 26 30 34 38 42 46 50 54 58 62 66 70 74 78 82 86 90 94 98 102 106 110 114 118 122 126 0
-132 3 7 11 15 19 23 27 31 35 39 43 47 51 55 59 63 67 71 75 79 83 87 91 95 99 103 107 111 115 119 123 127 0
-134 1 5 9 13 17 21 25 29 33 37 41 45 49 53 57 61 65 69 73 77 81 85 89 93 97 101 105 109 113 117 121 125 129 0
-135 2 6 10 14 18 22 26 30 34 38 42 46 50 54 58 62 66 70 74 78 82 86 90 94 98 102 106 110 114 118 122 126 130 0
-136 3 7 11 15 19 23 27 31 35 39 43 47 51 55 59 63 67 71 75 79 83 87 91 95 99 103 107 111 115 119 123 127 131 0
-138 1 5 9 13 17 21 25 29 33 37 41 45 49 53 57 61 65 69 73 77 81 85 89 93 97 101 105 109 113 117 121 125 129 133 0
-139 2 6 10 14 18 22 26 30 34 38 42 46 50 54 58 62 66 70 74 78 82 86 90 94 98 102 106 110 114 118 122 126 130 134 0
-140 3 7 11 15 19 23 27 31 35 39 43 47 51 55 59 63 67 71 75 79 83 87 91 95 99 103 107 111 115 119 123 127 131 135 0
-142 1 5 9 13 17 21 25 29 33 37 41 45 49 53 57 61 65 69 73 77 81 85 89 93 97 101 105 109 113 117 121 125 129 133 137 0
-143 2 6 10 14 18 22 26 30 34 38 42 46 50 54 58 62 66 70 74 78 82 86 90 94 98 102 106 110 114 118 122 126 130 134 138 0
-144 3 7 11 15 19 23 27 31 35 39 43 47 51 55 59 63 67 71 75 79 83 87 91 95 99 103 107 111 115 119 123 127 131 135 139 0
-146 1 5 9 13 17 21 25 29 33 37 41 45 49 53 57 61 65 69 73 77 81 85 89 93 97 101 105 109 113 117 121 125 129 133 137 141 0
-147 2 6 10 14 18 22 26 30 34 38 42 46 50 54 58 62 66 70 74 78 82 86 90 94 98 102 106 110 114 118 122 126 130 134 138 142 0
-148 3 7 11 15 19 23 27 31 35 39 43 47 51 55 59 63 67 71 75 79 83 87 91 95 99 103 107 111 115 119 123 127 131 135 139 143 0
-150 1 5 9 13 17 21 25 29 33 37 41 45 49 53 57 61 65 69 73 77 81 85 89 93 97 101 105 109 113 117 121 125 129 133 137 141 145 0
-151 2 6 10 14 18 22 26 30 34 38 42 46 50 54 58 62 66 70 74 78 82 86 90 94 98 102 106 110 114 118 122 126 130 134 138 142 146 0
-152 3 7 11 15 19 23 27 31 35 39 43 47 51 55 59 63 67 71 75 79 83 87 91 95 99 103 107 111 115 119 123 127 131 135 139 143 147 0
-154 1 5 9 13 17 21 25 29 33 37 41 45 49 53 57 61 65 69 73 77 81 85 89 93 97 101 105 109 113 117 121 125 129 133 137 141 145 149 0
-155 2 6 10 14 18 22 26 30 34 38 42 46 50 54 58 62 66 70 74 78 82 86 90 94 98 102 106 110 114 118 122 126 130 134 138 142 146 150 0
-156 3 7 11 15 19 23 27 31 35 39 43 47 51 55 59 63 67 71 75 79 83 87 91 95 99 103 107 111 115 119 123 127 131 135 139 143 147 151 0
-158 1 5 9 13 17 21 25 29 33 37 41 45 49 53 57 61 65 69 73 77 81 85 89 93 97 101 105 109 113 117 121 125 129 133 137 141 145 149 153 0
-159 2 6 10 14 18 22 26 30 34 38 42 46 50 54 58 62 66 70 74 78 82 86 90 94 98 102 106 110 114 118 122 126 130 134 138 142 146 150 154 0
-160 3 7 11 15 19 23 27 31 35 39 43 47 51 55 59 63 67 71 75 79 83 87 91 95 99 103 107 111 115 119 123 127 131 135 139 143 147 151 155 0
-162 1 5 9 13 17 21 25 29 33 37 41 45 49 53 57 61 65 69 73 77 81 85 89 93 97 101 105 109 113 117 121 125 129 133 137 141 145 149 153 157 0
-163 2 6 10 14 18 22 26 30 34 38 42 46 50 54 58 62 66 70 74 78 82 86 90 94 98 102 106 110 114 118 122 126 130 134 138 142 146 150 154 158 0
-164 3 7 11 15 19 23 27 31 35 39 43 47 51 55 59 63 67 71 75 79 83 87 91 95 99 103 107 111 115 119 123 127 131 135 139 143 147 151 155 159 0
-166 1 5 9 13 17 21 25 29 33 37 41 45 49 53 57 61 65 69 73 77 81 85 89 93 97 101 105 109 113 117 121 125 129 133 137 141 145 149 153 157 161 0
-167 2 6 10 14 18 22 26 30 34 38 42 46 50 54 58 62 66 70 74 78 82 86 90 94 98 102 106 110 114 118 122 126 130 134 138 142 146 150 154 158 162 0
-168 3 7 11 15 19 23 27 31 35 39 43 47 51 55 59 63 67 71 75 79 83 87 91 95 99 103 107 111 115 119 123 127 131 135 139 143 147 151 155 159 163 0
-170 1 5 9 13 17 21 25 29 33 37 41 45 49 53 57 61 65 69 73 77 81 85 89 93 97 101 105 109 113 117 121 125 129 133 137 141 145 149 153 157 161 165 0
-171 2 6 10 14 18 22 26 30 34 38 42 46 50 54 58 62 66 70 74 78 82 86 90 94 98 102 106 110 114 118 122 126 130 134 138 142 146 150 154 158 162 166 0
-172 3 7 11 15 19 23 27 31 35 39 43 47 51 55 59 63 67 71 75 79 83 87 91 95 99 103 107 111 115 119 123 127 131 135 139 143 147 151 155 159 163 167 0
-174 1 5 9 13 17 21 25 29 33 37 41 45 49 53 57 61 65 69 73 77 81 85 89 93 97 101 105 109 113 117 121 125 129 133 137 141 145 149 153 157 161 165 169 0
-175 2 6 10 14 18 22 26 30 34 38 42 46 50 54 58 62 66 70 74 78 82 86 90 94 98 102 106 110 114 118 122 126 130 134 138 142 146 150 154 158 162 166 170 0
-176 3 7 11 15 19 23 27 31 35 39 43 47 51 55 59 63 67 71 75 79 83 87 91 95 99 103 107 111 115 119 123 127 131 135 139 143 147 151 155 159 163 167 171 0
-178 1 5 9 13 17 21 25 29 33 37 41 45 49 53 57 61 65 69 73 77 81 85 89 93 97 101 105 109 113 117 121 125 129 133 137 141 145 149 153 157 161 165 169 173 0
-179 2 6 10 14 18 22 26 30 34 38 42 46 50 54 58 62 66 70 74 78 82 86 90 94 98 102 106 110 114 118 122 126 130 134 138 142 146 150 154 158 162 166 170 174 0
-180 3 7 11 15 19 23 27 31 35 39 43 47 51 55 59 63 67 71 75 79 83 87 91 95 99 103 107 111 115 119 123 127 131 135 139 143 147 151 155 159 163 167 171 175 0
-182 1 5 9 13 17 21 25 29 33 37 41 45 49 53 57 61 65 69 73 77 81 85 89 93 97 101 105 109 113 117 121 125 129 133 137 141 145 149 153 157 161 165 169 173 177 0
-183 2 6 10 14 18 22 26 30 34 38 42 46 50 54 58 62 66 70 74 78 82 86 90 94 98 102 106 110 114 118 122 126 130 134 138 142 146 150 154 158 162 166 170 174 178 0
-184 3 7 11 15 19 23 27 31 35 39 43 47 51 55 59 63 67 71 75 79 83 87 91 95 99 103 107 111 115 119 123 127 131 135 139 143 147 151 155 159 163 167 171 175 179 0
-186 1 5 9 13 17 21 25 29 33 37 41 45 49 53 57 61 65 69 73 77 81 85 89 93 97 101 105 109 113 117 121 125 129 133 137 141 145 149 153 157 161 165 169 173 177 181 0
-187 2 6 10 14 18 22 26 30 34 38 42 46 50 54 58 62 66 70 74 78 82 86 90 94 98 102 106 110 114 118 122 126 130 134 138 142 146 150 154 158 162 166 170 174 178 182 0
-188 3 7 11 15 19 23 27 31 35 39 43 47 51 55 59 63 67 71 75 79 83 87 91 95 99 103 107 111 115 119 123 127 131 135 139 143 147 151 155 159 163 167 171 175 179 183 0
-190 1 5 9 13 17 21 25 29 33 37 41 45 49 53 57 61 65 69 73 77 81 85 89 93 97 101 105 109 113 117 121 125 129 133 137 141 145 149 153 157 161 165 169 173 177 181 185 0
-191 2 6 10 14 18 22 26 30 34 38 42 46 50 54 58 62 66 70 74 78 82 86 90 94 98 102 106 110 114 118 122 126 130 134 138 142 146 150 154 158 162 166 170 174 178 182 186 0
-192 3 7 11 15 19 23 27 31 35 39 43 47 51 55 59 63 67 71 75 79 83 87 91 95 99 103 107 111 115 119 123 127 131 135 139 143 147 151 155 159 163 167 171 175 179 183 187 0
-194 1 5 9 13 17 21 25 29 33 37 41 45 49 53 57 61 65 69 73 77 81 85 89 93 97 101 105 109 113 117 121 125 129 133 137 141 145 149 153 157 161 165 169 173 177 181 185 189 0
-195 2 6 10 14 18 22 26 30 34 38 42 46 50 54 58 62 66 70 74 78 82 86 90 94 98 102 106 110 114 118 122 126 130 134 138 142 146 150 154 158 162 166 170 174 178 182 186 190 0
-196 3 7 11 15 19 23 27 31 35 39 43 47 51 55 59 63 67 71 75 79 83 87 91 95 99 103 107 111 115 119 123 127 131 135 139 143 147 151 155 159 163 167 171 175 179 183 187 191 0
-198 1 5 9 13 17 21 25 29 33 37 41 45 49 53 57 61 65 69 73 77 81 85 89 93 97 101 105 109 113 117 121 125 129 133 137 141 145 149 153 157 161 165 169 173 177 181 185 189 193 0
-199 2 6 10 14 18 22 26 30 34 38 42 46 50 54 58 62 66 70 74 78 82 86 90 94 98 102 106 110 114 118 122 126 130 134 138 142 146 150 154 158 162 166 170 174 178 182 186 190 194 0
-200 3 7 11 15 19 23 27 31 35 39 43 47 51 55 59 63 67 71 75 79 83 87 91 95 99 103 107 111 115 119 123 127 131 135 139 143 147 151 155 159 163 167 171 175 179 183 187 191 195 0
-202 1 5 9 13 17 21 25 29 33 37 41 45 49 53 57 61 65 69 73 77 81 85 89 93 97 101 105 109 113 117 121 125 129 133 137 141 145 149 153 157 161 165 169 173 177 181 185 189 193 197 0
-203 2 6 10 14 18 22 26 30 34 38 42 46 50 54 58 62 66 70 74 78 82 86 90 94 98 102 106 110 114 118 122 126 130 134 138 142 146 150 154 158 162 166 170 174 178 182 186 190 194 198 0
-204 3 7 11 15 19 23 27 31 35 39 43 47 51 55 59 63 67 71 75 79 83 87 91 95 99 103 107 111 115 119 123 127 131 135 139 143 147 151 155 159 163 167 171 175 179 183 187 191 195 199 0
-206 1 5 9 13 17 21 25 29 33 37 41 45 49 53 57 61 65 69 73 77 81 85 89 93 97 101 105 109 113 117 121 125 129 133 137 141 145 149 153 157 161 165 169 173 177 181 185 189 193 197 201 0
-207 2 6 10 14 18 22 26 30 34 38 42 46 50 54 58 62 66 70 74 78 82 86 90 94 98 102 106 110 114 118 122 126 130 134 138 142 146 150 154 158 162 166 170 174 178 182 186 190 194 198 202 0
-208 3 7 11 15 19 23 27 31 35 39 43 47 51 55 59 63 67 71 75 79 83 87 91 95 99 103 107 111 115 119 123 127 131 135 139 143 147 151 155 159 163 167 171 175 179 183 187 191 195 199 203 0
-210 1 5 9 13 17 21 25 29 33 37 41 45 49 53 57 61 65 69 73 77 81 85 89 93 97 101 105 109 113 117 121 125 129 133 137 141 145 149 153 157 161 165 169 173 177 181 185 189 193 197 201 205 0
-211 2 6 10 14 18 22 26 30 34 38 42 46 50 54 58 62 66 70 74 78 82 86 90 94 98 102 106 110 114 118 122 126 130 134 138 142 146 150 154 158 162 166 170 174 178 182 186 190 194 198 202 206 0
-212 3 7 11 15 19 23 27 31 35 39 43 47 51 55 59 63 67 71 75 79 83 87 91 95 99 103 107 111 115 119 123 127 131 135 139 143 147 151 155 159 163 167 171 175 179 183 187 191 195 199 203 207 0
-214 1 5 9 13 17 21 25 29 33 37 41 45 49 53 57 61 65 69 73 77 81 85 89 93 97 101 105 109 113 117 121 125 129 133 137 141 145 149 153 157 161 165 169 173 177 181 185 189 193 197 201 205 209 0
-215 2 6 10 14 18 22 26 30 34 38 42 46 50 54 58 62 66 70 74 78 82 86 90 94 98 102 106 110 114 118 122 126 130 134 138 142 146 150 154 158 162 166 170 174 178 182 186 190 194 198 202 206 210 0
-216 3 7 11 15 19 23 27 31 35 39 43 47 51 55 59 63 67 71 75 79 83 87 91 95 99 103 107 111 115 119 123 127 131 135 139 143 147 151 155 159 163 167 171 175 179 183 187 191 195 199 203 207 211 0
-218 1 5 9 13 17 21 25 29 33 37 41 45 49 53 57 61 65 69 73 77 81 85 89 93 97 101 105 109 113 117 121 125 129 133 137 141 145 149 153 157 161 165 169 173 177 181 185 189 193 197 201 205 209 213 0
-219 2 6 10 14 18 22 26 30 34 38 42 46 50 54 58 62 66 70 74 78 82 86 90 94 98 102 106 110 114 118 122 126 130 134 138 142 146 150 154 158 162 166 170 174 178 182 186 190 194 198 202 206 210 214 0
-220 3 7 11 15 19 23 27 31 35 39 43 47 51 55 59 63 67 71 75 79 83 87 91 95 99 103 107 111 115 119 123 127 131 135 139 143 147 151 155 159 163 167 171 175 179 183 187 191 195 199 203 207 211 215 0
-222 1 5 9 13 17 21 25 29 33 37 41 45 49 53 57 61 65 69 73 77 81 85 89 93 97 101 105 109 113 117 121 125 129 133 137 141 145 149 153 157 161 165 169 173 177 181 185 189 193 197 201 205 209 213 217 0
-223 2 6 10 14 18 22 26 30 34 38 42 46 50 54 58 62 66 70 74 78 82 86 90 94 98 102 106 110 114 118 122 126 130 134 138 142 146 150 154 158 162 166 170 174 178 182 186 190 194 198 202 206 210 214 218 0
-224 3 7 11 15 19 23 27 31 35 39 43 47 51 55 59 63 67 71 75 79 83 87 91 95 99 103 107 111 115 119 123 127 131 135 139 143 147 151 155 159 163 167 171 175 179 183 187 191 195 199 203 207 211 215 219 0
