p cnf 183 2135
1 2 3 0
4 5 6 0
7 8 9 0
10 11 12 0
13 14 15 0
16 17 18 0
19 20 21 0
22 23 24 0
25 26 27 0
28 29 30 0
31 32 33 0
34 35 36 0
37 38 39 0
40 41 42 0
43 44 45 0
46 47 48 0
49 50 51 0
52 53 54 0
55 56 57 0
58 59 60 0
61 62 63 0
64 65 66 0
67 68 69 0
70 71 72 0
73 74 75 0
76 77 78 0
79 80 81 0
82 83 84 0
85 86 87 0
88 89 90 0
91 92 93 0
94 95 96 0
97 98 99 0
100 101 102 0
103 104 105 0
106 107 108 0
109 110 111 0
112 113 114 0
115 116 117 0
118 119 120 0
121 122 123 0
124 125 126 0
127 128 129 0
130 131 132 0
133 134 135 0
136 137 138 0
139 140 141 0
142 143 144 0
145 146 147 0
148 149 150 0
151 152 153 0
154 155 156 0
157 158 159 0
160 161 162 0
163 164 165 0
166 167 168 0
169 170 171 0
172 173 174 0
175 176 177 0
178 179 180 0
181 182 183 0
-1 -4 -10 0
-2 -5 -11 0
-3 -6 -12 0
-4 -13 0
-5 -14 0
-6 -15 0
-4 -7 -16 0
-5 -8 -17 0
-6 -9 -18 0
-4 -10 -19 0
-5 -11 -20 0
-6 -12 -21 0
-4 -13 -22 0
-5 -14 -23 0
-6 -15 -24 0
-4 -16 -25 0
-5 -17 -26 0
-6 -18 -27 0
-4 -19 -28 0
-5 -20 -29 0
-6 -21 -30 0
-4 -22 -31 0
-5 -23 -32 0
-6 -24 -33 0
-4 -25 -34 0
-5 -26 -35 0
-6 -27 -36 0
-4 -28 -37 0
-5 -29 -38 0
-6 -30 -39 0
-4 -31 -40 0
-5 -32 -41 0
-6 -33 -42 0
-4 -34 -43 0
-5 -35 -44 0
-6 -36 -45 0
-4 -37 -46 0
-5 -38 -47 0
-6 -39 -48 0
-4 -40 -49 0
-5 -41 -50 0
-6 -42 -51 0
-4 -43 -52 0
-5 -44 -53 0
-6 -45 -54 0
-4 -46 -55 0
-5 -47 -56 0
-6 -48 -57 0
-4 -49 -58 0
-5 -50 -59 0
-6 -51 -60 0
-4 -52 -61 0
-5 -53 -62 0
-6 -54 -63 0
-4 -55 -64 0
-5 -56 -65 0
-6 -57 -66 0
-4 -58 -67 0
-5 -59 -68 0
-6 -60 -69 0
-4 -61 -70 0
-5 -62 -71 0
-6 -63 -72 0
-4 -64 -73 0
-5 -65 -74 0
-6 -66 -75 0
-4 -67 -76 0
-5 -68 -77 0
-6 -69 -78 0
-4 -70 -79 0
-5 -71 -80 0
-6 -72 -81 0
-4 -73 -82 0
-5 -74 -83 0
-6 -75 -84 0
-4 -76 -85 0
-5 -77 -86 0
-6 -78 -87 0
-4 -79 -88 0
-5 -80 -89 0
-6 -81 -90 0
-4 -82 -91 0
-5 -83 -92 0
-6 -84 -93 0
-4 -85 -94 0
-5 -86 -95 0
-6 -87 -96 0
-4 -88 -97 0
-5 -89 -98 0
-6 -90 -99 0
-4 -91 -100 0
-5 -92 -101 0
-6 -93 -102 0
-4 -94 -103 0
-5 -95 -104 0
-6 -96 -105 0
-4 -97 -106 0
-5 -98 -107 0
-6 -99 -108 0
-4 -100 -109 0
-5 -101 -110 0
-6 -102 -111 0
-4 -103 -112 0
-5 -104 -113 0
-6 -105 -114 0
-4 -106 -115 0
-5 -107 -116 0
-6 -108 -117 0
-4 -109 -118 0
-5 -110 -119 0
-6 -111 -120 0
-4 -112 -121 0
-5 -113 -122 0
-6 -114 -123 0
-4 -115 -124 0
-5 -116 -125 0
-6 -117 -126 0
-4 -118 -127 0
-5 -119 -128 0
-6 -120 -129 0
-4 -121 -130 0
-5 -122 -131 0
-6 -123 -132 0
-4 -124 -133 0
-5 -125 -134 0
-6 -126 -135 0
-4 -127 -136 0
-5 -128 -137 0
-6 -129 -138 0
-4 -130 -139 0
-5 -131 -140 0
-6 -132 -141 0
-4 -133 -142 0
-5 -134 -143 0
-6 -135 -144 0
-4 -136 -145 0
-5 -137 -146 0
-6 -138 -147 0
-4 -139 -148 0
-5 -140 -149 0
-6 -141 -150 0
-4 -142 -151 0
-5 -143 -152 0
-6 -144 -153 0
-4 -145 -154 0
-5 -146 -155 0
-6 -147 -156 0
-4 -148 -157 0
-5 -149 -158 0
-6 -150 -159 0
-4 -151 -160 0
-5 -152 -161 0
-6 -153 -162 0
-4 -154 -163 0
-5 -155 -164 0
-6 -156 -165 0
-4 -157 -166 0
-5 -158 -167 0
-6 -159 -168 0
-4 -160 -169 0
-5 -161 -170 0
-6 -162 -171 0
-4 -163 -172 0
-5 -164 -173 0
-6 -165 -174 0
-4 -166 -175 0
-5 -167 -176 0
-6 -168 -177 0
-4 -169 -178 0
-5 -170 -179 0
-6 -171 -180 0
-4 -172 -181 0
-5 -173 -182 0
-6 -174 -183 0
-1 -10 -19 0
-2 -11 -20 0
-3 -12 -21 0
-4 -10 -22 0
-5 -11 -23 0
-6 -12 -24 0
-7 -10 -25 0
-8 -11 -26 0
-9 -12 -27 0
-10 -28 0
-11 -29 0
-12 -30 0
-10 -13 -31 0
-11 -14 -32 0
-12 -15 -33 0
-10 -16 -34 0
-11 -17 -35 0
-12 -18 -36 0
-10 -19 -37 0
-11 -20 -38 0
-12 -21 -39 0
-10 -22 -40 0
-11 -23 -41 0
-12 -24 -42 0
-10 -25 -43 0
-11 -26 -44 0
-12 -27 -45 0
-10 -28 -46 0
-11 -29 -47 0
-12 -30 -48 0
-10 -31 -49 0
-11 -32 -50 0
-12 -33 -51 0
-10 -34 -52 0
-11 -35 -53 0
-12 -36 -54 0
-10 -37 -55 0
-11 -38 -56 0
-12 -39 -57 0
-10 -40 -58 0
-11 -41 -59 0
-12 -42 -60 0
-10 -43 -61 0
-11 -44 -62 0
-12 -45 -63 0
-10 -46 -64 0
-11 -47 -65 0
-12 -48 -66 0
-10 -49 -67 0
-11 -50 -68 0
-12 -51 -69 0
-10 -52 -70 0
-11 -53 -71 0
-12 -54 -72 0
-10 -55 -73 0
-11 -56 -74 0
-12 -57 -75 0
-10 -58 -76 0
-11 -59 -77 0
-12 -60 -78 0
-10 -61 -79 0
-11 -62 -80 0
-12 -63 -81 0
-10 -64 -82 0
-11 -65 -83 0
-12 -66 -84 0
-10 -67 -85 0
-11 -68 -86 0
-12 -69 -87 0
-10 -70 -88 0
-11 -71 -89 0
-12 -72 -90 0
-10 -73 -91 0
-11 -74 -92 0
-12 -75 -93 0
-10 -76 -94 0
-11 -77 -95 0
-12 -78 -96 0
-10 -79 -97 0
-11 -80 -98 0
-12 -81 -99 0
-10 -82 -100 0
-11 -83 -101 0
-12 -84 -102 0
-10 -85 -103 0
-11 -86 -104 0
-12 -87 -105 0
-10 -88 -106 0
-11 -89 -107 0
-12 -90 -108 0
-10 -91 -109 0
-11 -92 -110 0
-12 -93 -111 0
-10 -94 -112 0
-11 -95 -113 0
-12 -96 -114 0
-10 -97 -115 0
-11 -98 -116 0
-12 -99 -117 0
-10 -100 -118 0
-11 -101 -119 0
-12 -102 -120 0
-10 -103 -121 0
-11 -104 -122 0
-12 -105 -123 0
-10 -106 -124 0
-11 -107 -125 0
-12 -108 -126 0
-10 -109 -127 0
-11 -110 -128 0
-12 -111 -129 0
-10 -112 -130 0
-11 -113 -131 0
-12 -114 -132 0
-10 -115 -133 0
-11 -116 -134 0
-12 -117 -135 0
-10 -118 -136 0
-11 -119 -137 0
-12 -120 -138 0
-10 -121 -139 0
-11 -122 -140 0
-12 -123 -141 0
-10 -124 -142 0
-11 -125 -143 0
-12 -126 -144 0
-10 -127 -145 0
-11 -128 -146 0
-12 -129 -147 0
-10 -130 -148 0
-11 -131 -149 0
-12 -132 -150 0
-10 -133 -151 0
-11 -134 -152 0
-12 -135 -153 0
-10 -136 -154 0
-11 -137 -155 0
-12 -138 -156 0
-10 -139 -157 0
-11 -140 -158 0
-12 -141 -159 0
-10 -142 -160 0
-11 -143 -161 0
-12 -144 -162 0
-10 -145 -163 0
-11 -146 -164 0
-12 -147 -165 0
-10 -148 -166 0
-11 -149 -167 0
-12 -150 -168 0
-10 -151 -169 0
-11 -152 -170 0
-12 -153 -171 0
-10 -154 -172 0
-11 -155 -173 0
-12 -156 -174 0
-10 -157 -175 0
-11 -158 -176 0
-12 -159 -177 0
-10 -160 -178 0
-11 -161 -179 0
-12 -162 -180 0
-10 -163 -181 0
-11 -164 -182 0
-12 -165 -183 0
-1 -16 -28 0
-2 -17 -29 0
-3 -18 -30 0
-4 -16 -31 0
-5 -17 -32 0
-6 -18 -33 0
-7 -16 -34 0
-8 -17 -35 0
-9 -18 -36 0
-10 -16 -37 0
-11 -17 -38 0
-12 -18 -39 0
-13 -16 -40 0
-14 -17 -41 0
-15 -18 -42 0
-16 -43 0
-17 -44 0
-18 -45 0
-16 -19 -46 0
-17 -20 -47 0
-18 -21 -48 0
-16 -22 -49 0
-17 -23 -50 0
-18 -24 -51 0
-16 -25 -52 0
-17 -26 -53 0
-18 -27 -54 0
-16 -28 -55 0
-17 -29 -56 0
-18 -30 -57 0
-16 -31 -58 0
-17 -32 -59 0
-18 -33 -60 0
-16 -34 -61 0
-17 -35 -62 0
-18 -36 -63 0
-16 -37 -64 0
-17 -38 -65 0
-18 -39 -66 0
-16 -40 -67 0
-17 -41 -68 0
-18 -42 -69 0
-16 -43 -70 0
-17 -44 -71 0
-18 -45 -72 0
-16 -46 -73 0
-17 -47 -74 0
-18 -48 -75 0
-16 -49 -76 0
-17 -50 -77 0
-18 -51 -78 0
-16 -52 -79 0
-17 -53 -80 0
-18 -54 -81 0
-16 -55 -82 0
-17 -56 -83 0
-18 -57 -84 0
-16 -58 -85 0
-17 -59 -86 0
-18 -60 -87 0
-16 -61 -88 0
-17 -62 -89 0
-18 -63 -90 0
-16 -64 -91 0
-17 -65 -92 0
-18 -66 -93 0
-16 -67 -94 0
-17 -68 -95 0
-18 -69 -96 0
-16 -70 -97 0
-17 -71 -98 0
-18 -72 -99 0
-16 -73 -100 0
-17 -74 -101 0
-18 -75 -102 0
-16 -76 -103 0
-17 -77 -104 0
-18 -78 -105 0
-16 -79 -106 0
-17 -80 -107 0
-18 -81 -108 0
-16 -82 -109 0
-17 -83 -110 0
-18 -84 -111 0
-16 -85 -112 0
-17 -86 -113 0
-18 -87 -114 0
-16 -88 -115 0
-17 -89 -116 0
-18 -90 -117 0
-16 -91 -118 0
-17 -92 -119 0
-18 -93 -120 0
-16 -94 -121 0
-17 -95 -122 0
-18 -96 -123 0
-16 -97 -124 0
-17 -98 -125 0
-18 -99 -126 0
-16 -100 -127 0
-17 -101 -128 0
-18 -102 -129 0
-16 -103 -130 0
-17 -104 -131 0
-18 -105 -132 0
-16 -106 -133 0
-17 -107 -134 0
-18 -108 -135 0
-16 -109 -136 0
-17 -110 -137 0
-18 -111 -138 0
-16 -112 -139 0
-17 -113 -140 0
-18 -114 -141 0
-16 -115 -142 0
-17 -116 -143 0
-18 -117 -144 0
-16 -118 -145 0
-17 -119 -146 0
-18 -120 -147 0
-16 -121 -148 0
-17 -122 -149 0
-18 -123 -150 0
-16 -124 -151 0
-17 -125 -152 0
-18 -126 -153 0
-16 -127 -154 0
-17 -128 -155 0
-18 -129 -156 0
-16 -130 -157 0
-17 -131 -158 0
-18 -132 -159 0
-16 -133 -160 0
-17 -134 -161 0
-18 -135 -162 0
-16 -136 -163 0
-17 -137 -164 0
-18 -138 -165 0
-16 -139 -166 0
-17 -140 -167 0
-18 -141 -168 0
-16 -142 -169 0
-17 -143 -170 0
-18 -144 -171 0
-16 -145 -172 0
-17 -146 -173 0
-18 -147 -174 0
-16 -148 -175 0
-17 -149 -176 0
-18 -150 -177 0
-16 -151 -178 0
-17 -152 -179 0
-18 -153 -180 0
-16 -154 -181 0
-17 -155 -182 0
-18 -156 -183 0
-1 -22 -37 0
-2 -23 -38 0
-3 -24 -39 0
-4 -22 -40 0
-5 -23 -41 0
-6 -24 -42 0
-7 -22 -43 0
-8 -23 -44 0
-9 -24 -45 0
-10 -22 -46 0
-11 -23 -47 0
-12 -24 -48 0
-13 -22 -49 0
-14 -23 -50 0
-15 -24 -51 0
-16 -22 -52 0
-17 -23 -53 0
-18 -24 -54 0
-19 -22 -55 0
-20 -23 -56 0
-21 -24 -57 0
-22 -58 0
-23 -59 0
-24 -60 0
-22 -25 -61 0
-23 -26 -62 0
-24 -27 -63 0
-22 -28 -64 0
-23 -29 -65 0
-24 -30 -66 0
-22 -31 -67 0
-23 -32 -68 0
-24 -33 -69 0
-22 -34 -70 0
-23 -35 -71 0
-24 -36 -72 0
-22 -37 -73 0
-23 -38 -74 0
-24 -39 -75 0
-22 -40 -76 0
-23 -41 -77 0
-24 -42 -78 0
-22 -43 -79 0
-23 -44 -80 0
-24 -45 -81 0
-22 -46 -82 0
-23 -47 -83 0
-24 -48 -84 0
-22 -49 -85 0
-23 -50 -86 0
-24 -51 -87 0
-22 -52 -88 0
-23 -53 -89 0
-24 -54 -90 0
-22 -55 -91 0
-23 -56 -92 0
-24 -57 -93 0
-22 -58 -94 0
-23 -59 -95 0
-24 -60 -96 0
-22 -61 -97 0
-23 -62 -98 0
-24 -63 -99 0
-22 -64 -100 0
-23 -65 -101 0
-24 -66 -102 0
-22 -67 -103 0
-23 -68 -104 0
-24 -69 -105 0
-22 -70 -106 0
-23 -71 -107 0
-24 -72 -108 0
-22 -73 -109 0
-23 -74 -110 0
-24 -75 -111 0
-22 -76 -112 0
-23 -77 -113 0
-24 -78 -114 0
-22 -79 -115 0
-23 -80 -116 0
-24 -81 -117 0
-22 -82 -118 0
-23 -83 -119 0
-24 -84 -120 0
-22 -85 -121 0
-23 -86 -122 0
-24 -87 -123 0
-22 -88 -124 0
-23 -89 -125 0
-24 -90 -126 0
-22 -91 -127 0
-23 -92 -128 0
-24 -93 -129 0
-22 -94 -130 0
-23 -95 -131 0
-24 -96 -132 0
-22 -97 -133 0
-23 -98 -134 0
-24 -99 -135 0
-22 -100 -136 0
-23 -101 -137 0
-24 -102 -138 0
-22 -103 -139 0
-23 -104 -140 0
-24 -105 -141 0
-22 -106 -142 0
-23 -107 -143 0
-24 -108 -144 0
-22 -109 -145 0
-23 -110 -146 0
-24 -111 -147 0
-22 -112 -148 0
-23 -113 -149 0
-24 -114 -150 0
-22 -115 -151 0
-23 -116 -152 0
-24 -117 -153 0
-22 -118 -154 0
-23 -119 -155 0
-24 -120 -156 0
-22 -121 -157 0
-23 -122 -158 0
-24 -123 -159 0
-22 -124 -160 0
-23 -125 -161 0
-24 -126 -162 0
-22 -127 -163 0
-23 -128 -164 0
-24 -129 -165 0
-22 -130 -166 0
-23 -131 -167 0
-24 -132 -168 0
-22 -133 -169 0
-23 -134 -170 0
-24 -135 -171 0
-22 -136 -172 0
-23 -137 -173 0
-24 -138 -174 0
-22 -139 -175 0
-23 -140 -176 0
-24 -141 -177 0
-22 -142 -178 0
-23 -143 -179 0
-24 -144 -180 0
-22 -145 -181 0
-23 -146 -182 0
-24 -147 -183 0
-1 -28 -46 0
-2 -29 -47 0
-3 -30 -48 0
-4 -28 -49 0
-5 -29 -50 0
-6 -30 -51 0
-7 -28 -52 0
-8 -29 -53 0
-9 -30 -54 0
-10 -28 -55 0
-11 -29 -56 0
-12 -30 -57 0
-13 -28 -58 0
-14 -29 -59 0
-15 -30 -60 0
-16 -28 -61 0
-17 -29 -62 0
-18 -30 -63 0
-19 -28 -64 0
-20 -29 -65 0
-21 -30 -66 0
-22 -28 -67 0
-23 -29 -68 0
-24 -30 -69 0
-25 -28 -70 0
-26 -29 -71 0
-27 -30 -72 0
-28 -73 0
-29 -74 0
-30 -75 0
-28 -31 -76 0
-29 -32 -77 0
-30 -33 -78 0
-28 -34 -79 0
-29 -35 -80 0
-30 -36 -81 0
-28 -37 -82 0
-29 -38 -83 0
-30 -39 -84 0
-28 -40 -85 0
-29 -41 -86 0
-30 -42 -87 0
-28 -43 -88 0
-29 -44 -89 0
-30 -45 -90 0
-28 -46 -91 0
-29 -47 -92 0
-30 -48 -93 0
-28 -49 -94 0
-29 -50 -95 0
-30 -51 -96 0
-28 -52 -97 0
-29 -53 -98 0
-30 -54 -99 0
-28 -55 -100 0
-29 -56 -101 0
-30 -57 -102 0
-28 -58 -103 0
-29 -59 -104 0
-30 -60 -105 0
-28 -61 -106 0
-29 -62 -107 0
-30 -63 -108 0
-28 -64 -109 0
-29 -65 -110 0
-30 -66 -111 0
-28 -67 -112 0
-29 -68 -113 0
-30 -69 -114 0
-28 -70 -115 0
-29 -71 -116 0
-30 -72 -117 0
-28 -73 -118 0
-29 -74 -119 0
-30 -75 -120 0
-28 -76 -121 0
-29 -77 -122 0
-30 -78 -123 0
-28 -79 -124 0
-29 -80 -125 0
-30 -81 -126 0
-28 -82 -127 0
-29 -83 -128 0
-30 -84 -129 0
-28 -85 -130 0
-29 -86 -131 0
-30 -87 -132 0
-28 -88 -133 0
-29 -89 -134 0
-30 -90 -135 0
-28 -91 -136 0
-29 -92 -137 0
-30 -93 -138 0
-28 -94 -139 0
-29 -95 -140 0
-30 -96 -141 0
-28 -97 -142 0
-29 -98 -143 0
-30 -99 -144 0
-28 -100 -145 0
-29 -101 -146 0
-30 -102 -147 0
-28 -103 -148 0
-29 -104 -149 0
-30 -105 -150 0
-28 -106 -151 0
-29 -107 -152 0
-30 -108 -153 0
-28 -109 -154 0
-29 -110 -155 0
-30 -111 -156 0
-28 -112 -157 0
-29 -113 -158 0
-30 -114 -159 0
-28 -115 -160 0
-29 -116 -161 0
-30 -117 -162 0
-28 -118 -163 0
-29 -119 -164 0
-30 -120 -165 0
-28 -121 -166 0
-29 -122 -167 0
-30 -123 -168 0
-28 -124 -169 0
-29 -125 -170 0
-30 -126 -171 0
-28 -127 -172 0
-29 -128 -173 0
-30 -129 -174 0
-28 -130 -175 0
-29 -131 -176 0
-30 -132 -177 0
-28 -133 -178 0
-29 -134 -179 0
-30 -135 -180 0
-28 -136 -181 0
-29 -137 -182 0
-30 -138 -183 0
-1 -34 -55 0
-2 -35 -56 0
-3 -36 -57 0
-4 -34 -58 0
-5 -35 -59 0
-6 -36 -60 0
-7 -34 -61 0
-8 -35 -62 0
-9 -36 -63 0
-10 -34 -64 0
-11 -35 -65 0
-12 -36 -66 0
-13 -34 -67 0
-14 -35 -68 0
-15 -36 -69 0
-16 -34 -70 0
-17 -35 -71 0
-18 -36 -72 0
-19 -34 -73 0
-20 -35 -74 0
-21 -36 -75 0
-22 -34 -76 0
-23 -35 -77 0
-24 -36 -78 0
-25 -34 -79 0
-26 -35 -80 0
-27 -36 -81 0
-28 -34 -82 0
-29 -35 -83 0
-30 -36 -84 0
-31 -34 -85 0
-32 -35 -86 0
-33 -36 -87 0
-34 -88 0
-35 -89 0
-36 -90 0
-34 -37 -91 0
-35 -38 -92 0
-36 -39 -93 0
-34 -40 -94 0
-35 -41 -95 0
-36 -42 -96 0
-34 -43 -97 0
-35 -44 -98 0
-36 -45 -99 0
-34 -46 -100 0
-35 -47 -101 0
-36 -48 -102 0
-34 -49 -103 0
-35 -50 -104 0
-36 -51 -105 0
-34 -52 -106 0
-35 -53 -107 0
-36 -54 -108 0
-34 -55 -109 0
-35 -56 -110 0
-36 -57 -111 0
-34 -58 -112 0
-35 -59 -113 0
-36 -60 -114 0
-34 -61 -115 0
-35 -62 -116 0
-36 -63 -117 0
-34 -64 -118 0
-35 -65 -119 0
-36 -66 -120 0
-34 -67 -121 0
-35 -68 -122 0
-36 -69 -123 0
-34 -70 -124 0
-35 -71 -125 0
-36 -72 -126 0
-34 -73 -127 0
-35 -74 -128 0
-36 -75 -129 0
-34 -76 -130 0
-35 -77 -131 0
-36 -78 -132 0
-34 -79 -133 0
-35 -80 -134 0
-36 -81 -135 0
-34 -82 -136 0
-35 -83 -137 0
-36 -84 -138 0
-34 -85 -139 0
-35 -86 -140 0
-36 -87 -141 0
-34 -88 -142 0
-35 -89 -143 0
-36 -90 -144 0
-34 -91 -145 0
-35 -92 -146 0
-36 -93 -147 0
-34 -94 -148 0
-35 -95 -149 0
-36 -96 -150 0
-34 -97 -151 0
-35 -98 -152 0
-36 -99 -153 0
-34 -100 -154 0
-35 -101 -155 0
-36 -102 -156 0
-34 -103 -157 0
-35 -104 -158 0
-36 -105 -159 0
-34 -106 -160 0
-35 -107 -161 0
-36 -108 -162 0
-34 -109 -163 0
-35 -110 -164 0
-36 -111 -165 0
-34 -112 -166 0
-35 -113 -167 0
-36 -114 -168 0
-34 -115 -169 0
-35 -116 -170 0
-36 -117 -171 0
-34 -118 -172 0
-35 -119 -173 0
-36 -120 -174 0
-34 -121 -175 0
-35 -122 -176 0
-36 -123 -177 0
-34 -124 -178 0
-35 -125 -179 0
-36 -126 -180 0
-34 -127 -181 0
-35 -128 -182 0
-36 -129 -183 0
-1 -40 -64 0
-2 -41 -65 0
-3 -42 -66 0
-4 -40 -67 0
-5 -41 -68 0
-6 -42 -69 0
-7 -40 -70 0
-8 -41 -71 0
-9 -42 -72 0
-10 -40 -73 0
-11 -41 -74 0
-12 -42 -75 0
-13 -40 -76 0
-14 -41 -77 0
-15 -42 -78 0
-16 -40 -79 0
-17 -41 -80 0
-18 -42 -81 0
-19 -40 -82 0
-20 -41 -83 0
-21 -42 -84 0
-22 -40 -85 0
-23 -41 -86 0
-24 -42 -87 0
-25 -40 -88 0
-26 -41 -89 0
-27 -42 -90 0
-28 -40 -91 0
-29 -41 -92 0
-30 -42 -93 0
-31 -40 -94 0
-32 -41 -95 0
-33 -42 -96 0
-34 -40 -97 0
-35 -41 -98 0
-36 -42 -99 0
-37 -40 -100 0
-38 -41 -101 0
-39 -42 -102 0
-40 -103 0
-41 -104 0
-42 -105 0
-40 -43 -106 0
-41 -44 -107 0
-42 -45 -108 0
-40 -46 -109 0
-41 -47 -110 0
-42 -48 -111 0
-40 -49 -112 0
-41 -50 -113 0
-42 -51 -114 0
-40 -52 -115 0
-41 -53 -116 0
-42 -54 -117 0
-40 -55 -118 0
-41 -56 -119 0
-42 -57 -120 0
-40 -58 -121 0
-41 -59 -122 0
-42 -60 -123 0
-40 -61 -124 0
-41 -62 -125 0
-42 -63 -126 0
-40 -64 -127 0
-41 -65 -128 0
-42 -66 -129 0
-40 -67 -130 0
-41 -68 -131 0
-42 -69 -132 0
-40 -70 -133 0
-41 -71 -134 0
-42 -72 -135 0
-40 -73 -136 0
-41 -74 -137 0
-42 -75 -138 0
-40 -76 -139 0
-41 -77 -140 0
-42 -78 -141 0
-40 -79 -142 0
-41 -80 -143 0
-42 -81 -144 0
-40 -82 -145 0
-41 -83 -146 0
-42 -84 -147 0
-40 -85 -148 0
-41 -86 -149 0
-42 -87 -150 0
-40 -88 -151 0
-41 -89 -152 0
-42 -90 -153 0
-40 -91 -154 0
-41 -92 -155 0
-42 -93 -156 0
-40 -94 -157 0
-41 -95 -158 0
-42 -96 -159 0
-40 -97 -160 0
-41 -98 -161 0
-42 -99 -162 0
-40 -100 -163 0
-41 -101 -164 0
-42 -102 -165 0
-40 -103 -166 0
-41 -104 -167 0
-42 -105 -168 0
-40 -106 -169 0
-41 -107 -170 0
-42 -108 -171 0
-40 -109 -172 0
-41 -110 -173 0
-42 -111 -174 0
-40 -112 -175 0
-41 -113 -176 0
-42 -114 -177 0
-40 -115 -178 0
-41 -116 -179 0
-42 -117 -180 0
-40 -118 -181 0
-41 -119 -182 0
-42 -120 -183 0
-1 -46 -73 0
-2 -47 -74 0
-3 -48 -75 0
-4 -46 -76 0
-5 -47 -77 0
-6 -48 -78 0
-7 -46 -79 0
-8 -47 -80 0
-9 -48 -81 0
-10 -46 -82 0
-11 -47 -83 0
-12 -48 -84 0
-13 -46 -85 0
-14 -47 -86 0
-15 -48 -87 0
-16 -46 -88 0
-17 -47 -89 0
-18 -48 -90 0
-19 -46 -91 0
-20 -47 -92 0
-21 -48 -93 0
-22 -46 -94 0
-23 -47 -95 0
-24 -48 -96 0
-25 -46 -97 0
-26 -47 -98 0
-27 -48 -99 0
-28 -46 -100 0
-29 -47 -101 0
-30 -48 -102 0
-31 -46 -103 0
-32 -47 -104 0
-33 -48 -105 0
-34 -46 -106 0
-35 -47 -107 0
-36 -48 -108 0
-37 -46 -109 0
-38 -47 -110 0
-39 -48 -111 0
-40 -46 -112 0
-41 -47 -113 0
-42 -48 -114 0
-43 -46 -115 0
-44 -47 -116 0
-45 -48 -117 0
-46 -118 0
-47 -119 0
-48 -120 0
-46 -49 -121 0
-47 -50 -122 0
-48 -51 -123 0
-46 -52 -124 0
-47 -53 -125 0
-48 -54 -126 0
-46 -55 -127 0
-47 -56 -128 0
-48 -57 -129 0
-46 -58 -130 0
-47 -59 -131 0
-48 -60 -132 0
-46 -61 -133 0
-47 -62 -134 0
-48 -63 -135 0
-46 -64 -136 0
-47 -65 -137 0
-48 -66 -138 0
-46 -67 -139 0
-47 -68 -140 0
-48 -69 -141 0
-46 -70 -142 0
-47 -71 -143 0
-48 -72 -144 0
-46 -73 -145 0
-47 -74 -146 0
-48 -75 -147 0
-46 -76 -148 0
-47 -77 -149 0
-48 -78 -150 0
-46 -79 -151 0
-47 -80 -152 0
-48 -81 -153 0
-46 -82 -154 0
-47 -83 -155 0
-48 -84 -156 0
-46 -85 -157 0
-47 -86 -158 0
-48 -87 -159 0
-46 -88 -160 0
-47 -89 -161 0
-48 -90 -162 0
-46 -91 -163 0
-47 -92 -164 0
-48 -93 -165 0
-46 -94 -166 0
-47 -95 -167 0
-48 -96 -168 0
-46 -97 -169 0
-47 -98 -170 0
-48 -99 -171 0
-46 -100 -172 0
-47 -101 -173 0
-48 -102 -174 0
-46 -103 -175 0
-47 -104 -176 0
-48 -105 -177 0
-46 -106 -178 0
-47 -107 -179 0
-48 -108 -180 0
-46 -109 -181 0
-47 -110 -182 0
-48 -111 -183 0
-1 -52 -82 0
-2 -53 -83 0
-3 -54 -84 0
-4 -52 -85 0
-5 -53 -86 0
-6 -54 -87 0
-7 -52 -88 0
-8 -53 -89 0
-9 -54 -90 0
-10 -52 -91 0
-11 -53 -92 0
-12 -54 -93 0
-13 -52 -94 0
-14 -53 -95 0
-15 -54 -96 0
-16 -52 -97 0
-17 -53 -98 0
-18 -54 -99 0
-19 -52 -100 0
-20 -53 -101 0
-21 -54 -102 0
-22 -52 -103 0
-23 -53 -104 0
-24 -54 -105 0
-25 -52 -106 0
-26 -53 -107 0
-27 -54 -108 0
-28 -52 -109 0
-29 -53 -110 0
-30 -54 -111 0
-31 -52 -112 0
-32 -53 -113 0
-33 -54 -114 0
-34 -52 -115 0
-35 -53 -116 0
-36 -54 -117 0
-37 -52 -118 0
-38 -53 -119 0
-39 -54 -120 0
-40 -52 -121 0
-41 -53 -122 0
-42 -54 -123 0
-43 -52 -124 0
-44 -53 -125 0
-45 -54 -126 0
-46 -52 -127 0
-47 -53 -128 0
-48 -54 -129 0
-49 -52 -130 0
-50 -53 -131 0
-51 -54 -132 0
-52 -133 0
-53 -134 0
-54 -135 0
-52 -55 -136 0
-53 -56 -137 0
-54 -57 -138 0
-52 -58 -139 0
-53 -59 -140 0
-54 -60 -141 0
-52 -61 -142 0
-53 -62 -143 0
-54 -63 -144 0
-52 -64 -145 0
-53 -65 -146 0
-54 -66 -147 0
-52 -67 -148 0
-53 -68 -149 0
-54 -69 -150 0
-52 -70 -151 0
-53 -71 -152 0
-54 -72 -153 0
-52 -73 -154 0
-53 -74 -155 0
-54 -75 -156 0
-52 -76 -157 0
-53 -77 -158 0
-54 -78 -159 0
-52 -79 -160 0
-53 -80 -161 0
-54 -81 -162 0
-52 -82 -163 0
-53 -83 -164 0
-54 -84 -165 0
-52 -85 -166 0
-53 -86 -167 0
-54 -87 -168 0
-52 -88 -169 0
-53 -89 -170 0
-54 -90 -171 0
-52 -91 -172 0
-53 -92 -173 0
-54 -93 -174 0
-52 -94 -175 0
-53 -95 -176 0
-54 -96 -177 0
-52 -97 -178 0
-53 -98 -179 0
-54 -99 -180 0
-52 -100 -181 0
-53 -101 -182 0
-54 -102 -183 0
-1 -58 -91 0
-2 -59 -92 0
-3 -60 -93 0
-4 -58 -94 0
-5 -59 -95 0
-6 -60 -96 0
-7 -58 -97 0
-8 -59 -98 0
-9 -60 -99 0
-10 -58 -100 0
-11 -59 -101 0
-12 -60 -102 0
-13 -58 -103 0
-14 -59 -104 0
-15 -60 -105 0
-16 -58 -106 0
-17 -59 -107 0
-18 -60 -108 0
-19 -58 -109 0
-20 -59 -110 0
-21 -60 -111 0
-22 -58 -112 0
-23 -59 -113 0
-24 -60 -114 0
-25 -58 -115 0
-26 -59 -116 0
-27 -60 -117 0
-28 -58 -118 0
-29 -59 -119 0
-30 -60 -120 0
-31 -58 -121 0
-32 -59 -122 0
-33 -60 -123 0
-34 -58 -124 0
-35 -59 -125 0
-36 -60 -126 0
-37 -58 -127 0
-38 -59 -128 0
-39 -60 -129 0
-40 -58 -130 0
-41 -59 -131 0
-42 -60 -132 0
-43 -58 -133 0
-44 -59 -134 0
-45 -60 -135 0
-46 -58 -136 0
-47 -59 -137 0
-48 -60 -138 0
-49 -58 -139 0
-50 -59 -140 0
-51 -60 -141 0
-52 -58 -142 0
-53 -59 -143 0
-54 -60 -144 0
-55 -58 -145 0
-56 -59 -146 0
-57 -60 -147 0
-58 -148 0
-59 -149 0
-60 -150 0
-58 -61 -151 0
-59 -62 -152 0
-60 -63 -153 0
-58 -64 -154 0
-59 -65 -155 0
-60 -66 -156 0
-58 -67 -157 0
-59 -68 -158 0
-60 -69 -159 0
-58 -70 -160 0
-59 -71 -161 0
-60 -72 -162 0
-58 -73 -163 0
-59 -74 -164 0
-60 -75 -165 0
-58 -76 -166 0
-59 -77 -167 0
-60 -78 -168 0
-58 -79 -169 0
-59 -80 -170 0
-60 -81 -171 0
-58 -82 -172 0
-59 -83 -173 0
-60 -84 -174 0
-58 -85 -175 0
-59 -86 -176 0
-60 -87 -177 0
-58 -88 -178 0
-59 -89 -179 0
-60 -90 -180 0
-58 -91 -181 0
-59 -92 -182 0
-60 -93 -183 0
-1 -64 -100 0
-2 -65 -101 0
-3 -66 -102 0
-4 -64 -103 0
-5 -65 -104 0
-6 -66 -105 0
-7 -64 -106 0
-8 -65 -107 0
-9 -66 -108 0
-10 -64 -109 0
-11 -65 -110 0
-12 -66 -111 0
-13 -64 -112 0
-14 -65 -113 0
-15 -66 -114 0
-16 -64 -115 0
-17 -65 -116 0
-18 -66 -117 0
-19 -64 -118 0
-20 -65 -119 0
-21 -66 -120 0
-22 -64 -121 0
-23 -65 -122 0
-24 -66 -123 0
-25 -64 -124 0
-26 -65 -125 0
-27 -66 -126 0
-28 -64 -127 0
-29 -65 -128 0
-30 -66 -129 0
-31 -64 -130 0
-32 -65 -131 0
-33 -66 -132 0
-34 -64 -133 0
-35 -65 -134 0
-36 -66 -135 0
-37 -64 -136 0
-38 -65 -137 0
-39 -66 -138 0
-40 -64 -139 0
-41 -65 -140 0
-42 -66 -141 0
-43 -64 -142 0
-44 -65 -143 0
-45 -66 -144 0
-46 -64 -145 0
-47 -65 -146 0
-48 -66 -147 0
-49 -64 -148 0
-50 -65 -149 0
-51 -66 -150 0
-52 -64 -151 0
-53 -65 -152 0
-54 -66 -153 0
-55 -64 -154 0
-56 -65 -155 0
-57 -66 -156 0
-58 -64 -157 0
-59 -65 -158 0
-60 -66 -159 0
-61 -64 -160 0
-62 -65 -161 0
-63 -66 -162 0
-64 -163 0
-65 -164 0
-66 -165 0
-64 -67 -166 0
-65 -68 -167 0
-66 -69 -168 0
-64 -70 -169 0
-65 -71 -170 0
-66 -72 -171 0
-64 -73 -172 0
-65 -74 -173 0
-66 -75 -174 0
-64 -76 -175 0
-65 -77 -176 0
-66 -78 -177 0
-64 -79 -178 0
-65 -80 -179 0
-66 -81 -180 0
-64 -82 -181 0
-65 -83 -182 0
-66 -84 -183 0
-1 -70 -109 0
-2 -71 -110 0
-3 -72 -111 0
-4 -70 -112 0
-5 -71 -113 0
-6 -72 -114 0
-7 -70 -115 0
-8 -71 -116 0
-9 -72 -117 0
-10 -70 -118 0
-11 -71 -119 0
-12 -72 -120 0
-13 -70 -121 0
-14 -71 -122 0
-15 -72 -123 0
-16 -70 -124 0
-17 -71 -125 0
-18 -72 -126 0
-19 -70 -127 0
-20 -71 -128 0
-21 -72 -129 0
-22 -70 -130 0
-23 -71 -131 0
-24 -72 -132 0
-25 -70 -133 0
-26 -71 -134 0
-27 -72 -135 0
-28 -70 -136 0
-29 -71 -137 0
-30 -72 -138 0
-31 -70 -139 0
-32 -71 -140 0
-33 -72 -141 0
-34 -70 -142 0
-35 -71 -143 0
-36 -72 -144 0
-37 -70 -145 0
-38 -71 -146 0
-39 -72 -147 0
-40 -70 -148 0
-41 -71 -149 0
-42 -72 -150 0
-43 -70 -151 0
-44 -71 -152 0
-45 -72 -153 0
-46 -70 -154 0
-47 -71 -155 0
-48 -72 -156 0
-49 -70 -157 0
-50 -71 -158 0
-51 -72 -159 0
-52 -70 -160 0
-53 -71 -161 0
-54 -72 -162 0
-55 -70 -163 0
-56 -71 -164 0
-57 -72 -165 0
-58 -70 -166 0
-59 -71 -167 0
-60 -72 -168 0
-61 -70 -169 0
-62 -71 -170 0
-63 -72 -171 0
-64 -70 -172 0
-65 -71 -173 0
-66 -72 -174 0
-67 -70 -175 0
-68 -71 -176 0
-69 -72 -177 0
-70 -178 0
-71 -179 0
-72 -180 0
-70 -73 -181 0
-71 -74 -182 0
-72 -75 -183 0
-1 -76 -118 0
-2 -77 -119 0
-3 -78 -120 0
-4 -76 -121 0
-5 -77 -122 0
-6 -78 -123 0
-7 -76 -124 0
-8 -77 -125 0
-9 -78 -126 0
-10 -76 -127 0
-11 -77 -128 0
-12 -78 -129 0
-13 -76 -130 0
-14 -77 -131 0
-15 -78 -132 0
-16 -76 -133 0
-17 -77 -134 0
-18 -78 -135 0
-19 -76 -136 0
-20 -77 -137 0
-21 -78 -138 0
-22 -76 -139 0
-23 -77 -140 0
-24 -78 -141 0
-25 -76 -142 0
-26 -77 -143 0
-27 -78 -144 0
-28 -76 -145 0
-29 -77 -146 0
-30 -78 -147 0
-31 -76 -148 0
-32 -77 -149 0
-33 -78 -150 0
-34 -76 -151 0
-35 -77 -152 0
-36 -78 -153 0
-37 -76 -154 0
-38 -77 -155 0
-39 -78 -156 0
-40 -76 -157 0
-41 -77 -158 0
-42 -78 -159 0
-43 -76 -160 0
-44 -77 -161 0
-45 -78 -162 0
-46 -76 -163 0
-47 -77 -164 0
-48 -78 -165 0
-49 -76 -166 0
-50 -77 -167 0
-51 -78 -168 0
-52 -76 -169 0
-53 -77 -170 0
-54 -78 -171 0
-55 -76 -172 0
-56 -77 -173 0
-57 -78 -174 0
-58 -76 -175 0
-59 -77 -176 0
-60 -78 -177 0
-61 -76 -178 0
-62 -77 -179 0
-63 -78 -180 0
-64 -76 -181 0
-65 -77 -182 0
-66 -78 -183 0
-1 -82 -127 0
-2 -83 -128 0
-3 -84 -129 0
-4 -82 -130 0
-5 -83 -131 0
-6 -84 -132 0
-7 -82 -133 0
-8 -83 -134 0
-9 -84 -135 0
-10 -82 -136 0
-11 -83 -137 0
-12 -84 -138 0
-13 -82 -139 0
-14 -83 -140 0
-15 -84 -141 0
-16 -82 -142 0
-17 -83 -143 0
-18 -84 -144 0
-19 -82 -145 0
-20 -83 -146 0
-21 -84 -147 0
-22 -82 -148 0
-23 -83 -149 0
-24 -84 -150 0
-25 -82 -151 0
-26 -83 -152 0
-27 -84 -153 0
-28 -82 -154 0
-29 -83 -155 0
-30 -84 -156 0
-31 -82 -157 0
-32 -83 -158 0
-33 -84 -159 0
-34 -82 -160 0
-35 -83 -161 0
-36 -84 -162 0
-37 -82 -163 0
-38 -83 -164 0
-39 -84 -165 0
-40 -82 -166 0
-41 -83 -167 0
-42 -84 -168 0
-43 -82 -169 0
-44 -83 -170 0
-45 -84 -171 0
-46 -82 -172 0
-47 -83 -173 0
-48 -84 -174 0
-49 -82 -175 0
-50 -83 -176 0
-51 -84 -177 0
-52 -82 -178 0
-53 -83 -179 0
-54 -84 -180 0
-55 -82 -181 0
-56 -83 -182 0
-57 -84 -183 0
-1 -88 -136 0
-2 -89 -137 0
-3 -90 -138 0
-4 -88 -139 0
-5 -89 -140 0
-6 -90 -141 0
-7 -88 -142 0
-8 -89 -143 0
-9 -90 -144 0
-10 -88 -145 0
-11 -89 -146 0
-12 -90 -147 0
-13 -88 -148 0
-14 -89 -149 0
-15 -90 -150 0
-16 -88 -151 0
-17 -89 -152 0
-18 -90 -153 0
-19 -88 -154 0
-20 -89 -155 0
-21 -90 -156 0
-22 -88 -157 0
-23 -89 -158 0
-24 -90 -159 0
-25 -88 -160 0
-26 -89 -161 0
-27 -90 -162 0
-28 -88 -163 0
-29 -89 -164 0
-30 -90 -165 0
-31 -88 -166 0
-32 -89 -167 0
-33 -90 -168 0
-34 -88 -169 0
-35 -89 -170 0
-36 -90 -171 0
-37 -88 -172 0
-38 -89 -173 0
-39 -90 -174 0
-40 -88 -175 0
-41 -89 -176 0
-42 -90 -177 0
-43 -88 -178 0
-44 -89 -179 0
-45 -90 -180 0
-46 -88 -181 0
-47 -89 -182 0
-48 -90 -183 0
-1 -94 -145 0
-2 -95 -146 0
-3 -96 -147 0
-4 -94 -148 0
-5 -95 -149 0
-6 -96 -150 0
-7 -94 -151 0
-8 -95 -152 0
-9 -96 -153 0
-10 -94 -154 0
-11 -95 -155 0
-12 -96 -156 0
-13 -94 -157 0
-14 -95 -158 0
-15 -96 -159 0
-16 -94 -160 0
-17 -95 -161 0
-18 -96 -162 0
-19 -94 -163 0
-20 -95 -164 0
-21 -96 -165 0
-22 -94 -166 0
-23 -95 -167 0
-24 -96 -168 0
-25 -94 -169 0
-26 -95 -170 0
-27 -96 -171 0
-28 -94 -172 0
-29 -95 -173 0
-30 -96 -174 0
-31 -94 -175 0
-32 -95 -176 0
-33 -96 -177 0
-34 -94 -178 0
-35 -95 -179 0
-36 -96 -180 0
-37 -94 -181 0
-38 -95 -182 0
-39 -96 -183 0
-1 -100 -154 0
-2 -101 -155 0
-3 -102 -156 0
-4 -100 -157 0
-5 -101 -158 0
-6 -102 -159 0
-7 -100 -160 0
-8 -101 -161 0
-9 -102 -162 0
-10 -100 -163 0
-11 -101 -164 0
-12 -102 -165 0
-13 -100 -166 0
-14 -101 -167 0
-15 -102 -168 0
-16 -100 -169 0
-17 -101 -170 0
-18 -102 -171 0
-19 -100 -172 0
-20 -101 -173 0
-21 -102 -174 0
-22 -100 -175 0
-23 -101 -176 0
-24 -102 -177 0
-25 -100 -178 0
-26 -101 -179 0
-27 -102 -180 0
-28 -100 -181 0
-29 -101 -182 0
-30 -102 -183 0
-1 -106 -163 0
-2 -107 -164 0
-3 -108 -165 0
-4 -106 -166 0
-5 -107 -167 0
-6 -108 -168 0
-7 -106 -169 0
-8 -107 -170 0
-9 -108 -171 0
-10 -106 -172 0
-11 -107 -173 0
-12 -108 -174 0
-13 -106 -175 0
-14 -107 -176 0
-15 -108 -177 0
-16 -106 -178 0
-17 -107 -179 0
-18 -108 -180 0
-19 -106 -181 0
-20 -107 -182 0
-21 -108 -183 0
-1 -112 -172 0
-2 -113 -173 0
-3 -114 -174 0
-4 -112 -175 0
-5 -113 -176 0
-6 -114 -177 0
-7 -112 -178 0
-8 -113 -179 0
-9 -114 -180 0
-10 -112 -181 0
-11 -113 -182 0
-12 -114 -183 0
-1 -118 -181 0
-2 -119 -182 0
-3 -120 -183 0
-1 -2 0
-1 -3 0
-2 -3 0
-4 -5 0
-4 -6 0
-5 -6 0
-7 -8 0
-7 -9 0
-8 -9 0
-10 -11 0
-10 -12 0
-11 -12 0
-13 -14 0
-13 -15 0
-14 -15 0
-16 -17 0
-16 -18 0
-17 -18 0
-19 -20 0
-19 -21 0
-20 -21 0
-22 -23 0
-22 -24 0
-23 -24 0
-25 -26 0
-25 -27 0
-26 -27 0
-28 -29 0
-28 -30 0
-29 -30 0
-31 -32 0
-31 -33 0
-32 -33 0
-34 -35 0
-34 -36 0
-35 -36 0
-37 -38 0
-37 -39 0
-38 -39 0
-40 -41 0
-40 -42 0
-41 -42 0
-43 -44 0
-43 -45 0
-44 -45 0
-46 -47 0
-46 -48 0
-47 -48 0
-49 -50 0
-49 -51 0
-50 -51 0
-52 -53 0
-52 -54 0
-53 -54 0
-55 -56 0
-55 -57 0
-56 -57 0
-58 -59 0
-58 -60 0
-59 -60 0
-61 -62 0
-61 -63 0
-62 -63 0
-64 -65 0
-64 -66 0
-65 -66 0
-67 -68 0
-67 -69 0
-68 -69 0
-70 -71 0
-70 -72 0
-71 -72 0
-73 -74 0
-73 -75 0
-74 -75 0
-76 -77 0
-76 -78 0
-77 -78 0
-79 -80 0
-79 -81 0
-80 -81 0
-82 -83 0
-82 -84 0
-83 -84 0
-85 -86 0
-85 -87 0
-86 -87 0
-88 -89 0
-88 -90 0
-89 -90 0
-91 -92 0
-91 -93 0
-92 -93 0
-94 -95 0
-94 -96 0
-95 -96 0
-97 -98 0
-97 -99 0
-98 -99 0
-100 -101 0
-100 -102 0
-101 -102 0
-103 -104 0
-103 -105 0
-104 -105 0
-106 -107 0
-106 -108 0
-107 -108 0
-109 -110 0
-109 -111 0
-110 -111 0
-112 -113 0
-112 -114 0
-113 -114 0
-115 -116 0
-115 -117 0
-116 -117 0
-118 -119 0
-118 -120 0
-119 -120 0
-121 -122 0
-121 -123 0
-122 -123 0
-124 -125 0
-124 -126 0
-125 -126 0
-127 -128 0
-127 -129 0
-128 -129 0
-130 -131 0
-130 -132 0
-131 -132 0
-133 -134 0
-133 -135 0
-134 -135 0
-136 -137 0
-136 -138 0
-137 -138 0
-139 -140 0
-139 -141 0
-140 -141 0
-142 -143 0
-142 -144 0
-143 -144 0
-145 -146 0
-145 -147 0
-146 -147 0
-148 -149 0
-148 -150 0
-149 -150 0
-151 -152 0
-151 -153 0
-152 -153 0
-154 -155 0
-154 -156 0
-155 -156 0
-157 -158 0
-157 -159 0
-158 -159 0
-160 -161 0
-160 -162 0
-161 -162 0
-163 -164 0
-163 -165 0
-164 -165 0
-166 -167 0
-166 -168 0
-167 -168 0
-169 -170 0
-169 -171 0
-170 -171 0
-172 -173 0
-172 -174 0
-173 -174 0
-175 -176 0
-175 -177 0
-176 -177 0
-178 -179 0
-178 -180 0
-179 -180 0
-181 -182 0
-181 -183 0
-182 -183 0
1 0
-5 1 0
-6 0
-8 1 4 0
-9 2 5 0
-11 1 4 7 0
-12 2 5 8 0
-14 1 4 7 10 0
-15 2 5 8 11 0
-17 1 4 7 10 13 0
-18 2 5 8 11 14 0
-20 1 4 7 10 13 16 0
-21 2 5 8 11 14 17 0
-23 1 4 7 10 13 16 19 0
-24 2 5 8 11 14 17 20 0
-26 1 4 7 10 13 16 19 22 0
-27 2 5 8 11 14 17 20 23 0
-29 1 4 7 10 13 16 19 22 25 0
-30 2 5 8 11 14 17 20 23 26 0
-32 1 4 7 10 13 16 19 22 25 28 0
-33 2 5 8 11 14 17 20 23 26 29 0
-35 1 4 7 10 13 16 19 22 25 28 31 0
-36 2 5 8 11 14 17 20 23 26 29 32 0
-38 1 4 7 10 13 16 19 22 25 28 31 34 0
-39 2 5 8 11 14 17 20 23 26 29 32 35 0
-41 1 4 7 10 13 16 19 22 25 28 31 34 37 0
-42 2 5 8 11 14 17 20 23 26 29 32 35 38 0
-44 1 4 7 10 13 16 19 22 25 28 31 34 37 40 0
-45 2 5 8 11 14 17 20 23 26 29 32 35 38 41 0
-47 1 4 7 10 13 16 19 22 25 28 31 34 37 40 43 0
-48 2 5 8 11 14 17 20 23 26 29 32 35 38 41 44 0
-50 1 4 7 10 13 16 19 22 25 28 31 34 37 40 43 46 0
-51 2 5 8 11 14 17 20 23 26 29 32 35 38 41 44 47 0
-53 1 4 7 10 13 16 19 22 25 28 31 34 37 40 43 46 49 0
-54 2 5 8 11 14 17 20 23 26 29 32 35 38 41 44 47 50 0
-56 1 4 7 10 13 16 19 22 25 28 31 34 37 40 43 46 49 52 0
-57 2 5 8 11 14 17 20 23 26 29 32 35 38 41 44 47 50 53 0
-59 1 4 7 10 13 16 19 22 25 28 31 34 37 40 43 46 49 52 55 0
-60 2 5 8 11 14 17 20 23 26 29 32 35 38 41 44 47 50 53 56 0
-62 1 4 7 10 13 16 19 22 25 28 31 34 37 40 43 46 49 52 55 58 0
-63 2 5 8 11 14 17 20 23 26 29 32 35 38 41 44 47 50 53 56 59 0
-65 1 4 7 10 13 16 19 22 25 28 31 34 37 40 43 46 49 52 55 58 61 0
-66 2 5 8 11 14 17 20 23 26 29 32 35 38 41 44 47 50 53 56 59 62 0
-68 1 4 7 10 13 16 19 22 25 28 31 34 37 40 43 46 49 52 55 58 61 64 0
-69 2 5 8 11 14 17 20 23 26 29 32 35 38 41 44 47 50 53 56 59 62 65 0
-71 1 4 7 10 13 16 19 22 25 28 31 34 37 40 43 46 49 52 55 58 61 64 67 0
-72 2 5 8 11 14 17 20 23 26 29 32 35 38 41 44 47 50 53 56 59 62 65 68 0
-74 1 4 7 10 13 16 19 22 25 28 31 34 37 40 43 46 49 52 55 58 61 64 67 70 0
-75 2 5 8 11 14 17 20 23 26 29 32 35 38 41 44 47 50 53 56 59 62 65 68 71 0
-77 1 4 7 10 13 16 19 22 25 28 31 34 37 40 43 46 49 52 55 58 61 64 67 70 73 0
-78 2 5 8 11 14 17 20 23 26 29 32 35 38 41 44 47 50 53 56 59 62 65 68 71 74 0
-80 1 4 7 10 13 16 19 22 25 28 31 34 37 40 43 46 49 52 55 58 61 64 67 70 73 76 0
-81 2 5 8 11 14 17 20 23 26 29 32 35 38 41 44 47 50 53 56 59 62 65 68 71 74 77 0
-83 1 4 7 10 13 16 19 22 25 28 31 34 37 40 43 46 49 52 55 58 61 64 67 70 73 76 79 0
-84 2 5 8 11 14 17 20 23 26 29 32 35 38 41 44 47 50 53 56 59 62 65 68 71 74 77 80 0
-86 1 4 7 10 13 16 19 22 25 28 31 34 37 40 43 46 49 52 55 58 61 64 67 70 73 76 79 82 0
-87 2 5 8 11 14 17 20 23 26 29 32 35 38 41 44 47 50 53 56 59 62 65 68 71 74 77 80 83 0
-89 1 4 7 10 13 16 19 22 25 28 31 34 37 40 43 46 49 52 55 58 61 64 67 70 73 76 79 82 85 0
-90 2 5 8 11 14 17 20 23 26 29 32 35 38 41 44 47 50 53 56 59 62 65 68 71 74 77 80 83 86 0
-92 1 4 7 10 13 16 19 22 25 28 31 34 37 40 43 46 49 52 55 58 61 64 67 70 73 76 79 82 85 88 0
-93 2 5 8 11 14 17 20 23 26 29 32 35 38 41 44 47 50 53 56 59 62 65 68 71 74 77 80 83 86 89 0
-95 1 4 7 10 13 16 19 22 25 28 31 34 37 40 43 46 49 52 55 58 61 64 67 70 73 76 79 82 85 88 91 0
-96 2 5 8 11 14 17 20 23 26 29 32 35 38 41 44 47 50 53 56 59 62 65 68 71 74 77 80 83 86 89 92 0
-98 1 4 7 10 13 16 19 22 25 28 31 34 37 40 43 46 49 52 55 58 61 64 67 70 73 76 79 82 85 88 91 94 0
-99 2 5 8 11 14 17 20 23 26 29 32 35 38 41 44 47 50 53 56 59 62 65 68 71 74 77 80 83 86 89 92 95 0
-101 1 4 7 10 13 16 19 22 25 28 31 34 37 40 43 46 49 52 55 58 61 64 67 70 73 76 79 82 85 88 91 94 97 0
-102 2 5 8 11 14 17 20 23 26 29 32 35 38 41 44 47 50 53 56 59 62 65 68 71 74 77 80 83 86 89 92 95 98 0
-104 1 4 7 10 13 16 19 22 25 28 31 34 37 40 43 46 49 52 55 58 61 64 67 70 73 76 79 82 85 88 91 94 97 100 0
-105 2 5 8 11 14 17 20 23 26 29 32 35 38 41 44 47 50 53 56 59 62 65 68 71 74 77 80 83 86 89 92 95 98 101 0
-107 1 4 7 10 13 16 19 22 25 28 31 34 37 40 43 46 49 52 55 58 61 64 67 70 73 76 79 82 85 88 91 94 97 100 103 0
-108 2 5 8 11 14 17 20 23 26 29 32 35 38 41 44 47 50 53 56 59 62 65 68 71 74 77 80 83 86 89 92 95 98 101 104 0
-110 1 4 7 10 13 16 19 22 25 28 31 34 37 40 43 46 49 52 55 58 61 64 67 70 73 76 79 82 85 88 91 94 97 100 103 106 0
-111 2 5 8 11 14 17 20 23 26 29 32 35 38 41 44 47 50 53 56 59 62 65 68 71 74 77 80 83 86 89 92 95 98 101 104 107 0
-113 1 4 7 10 13 16 19 22 25 28 31 34 37 40 43 46 49 52 55 58 61 64 67 70 73 76 79 82 85 88 91 94 97 100 103 106 109 0
-114 2 5 8 11 14 17 20 23 26 29 32 35 38 41 44 47 50 53 56 59 62 65 68 71 74 77 80 83 86 89 92 95 98 101 104 107 110 0
-116 1 4 7 10 13 16 19 22 25 28 31 34 37 40 43 46 49 52 55 58 61 64 67 70 73 76 79 82 85 88 91 94 97 100 103 106 109 112 0
-117 2 5 8 11 14 17 20 23 26 29 32 35 38 41 44 47 50 53 56 59 62 65 68 71 74 77 80 83 86 89 92 95 98 101 104 107 110 113 0
-119 1 4 7 10 13 16 19 22 25 28 31 34 37 40 43 46 49 52 55 58 61 64 67 70 73 76 79 82 85 88 91 94 97 100 103 106 109 112 115 0
-120 2 5 8 11 14 17 20 23 26 29 32 35 38 41 44 47 50 53 56 59 62 65 68 71 74 77 80 83 86 89 92 95 98 101 104 107 110 113 116 0
-122 1 4 7 10 13 16 19 22 25 28 31 34 37 40 43 46 49 52 55 58 61 64 67 70 73 76 79 82 85 88 91 94 97 100 103 106 109 112 115 118 0
-123 2 5 8 11 14 17 20 23 26 29 32 35 38 41 44 47 50 53 56 59 62 65 68 71 74 77 80 83 86 89 92 95 98 101 104 107 110 113 116 119 0
-125 1 4 7 10 13 16 19 22 25 28 31 34 37 40 43 46 49 52 55 58 61 64 67 70 73 76 79 82 85 88 91 94 97 100 103 106 109 112 115 118 121 0
-126 2 5 8 11 14 17 20 23 26 29 32 35 38 41 44 47 50 53 56 59 62 65 68 71 74 77 80 83 86 89 92 95 98 101 104 107 110 113 116 119 122 0
-128 1 4 7 10 13 16 19 22 25 28 31 34 37 40 43 46 49 52 55 58 61 64 67 70 73 76 79 82 85 88 91 94 97 100 103 106 109 112 115 118 121 124 0
-129 2 5 8 11 14 17 20 23 26 29 32 35 38 41 44 47 50 53 56 59 62 65 68 71 74 77 80 83 86 89 92 95 98 101 104 107 110 113 116 119 122 125 0
-131 1 4 7 10 13 16 19 22 25 28 31 34 37 40 43 46 49 52 55 58 61 64 67 70 73 76 79 82 85 88 91 94 97 100 103 106 109 112 115 118 121 124 127 0
-132 2 5 8 11 14 17 20 23 26 29 32 35 38 41 44 47 50 53 56 59 62 65 68 71 74 77 80 83 86 89 92 95 98 101 104 107 110 113 116 119 122 125 128 0
-134 1 4 7 10 13 16 19 22 25 28 31 34 37 40 43 46 49 52 55 58 61 64 67 70 73 76 79 82 85 88 91 94 97 100 103 106 109 112 115 118 121 124 127 130 0
-135 2 5 8 11 14 17 20 23 26 29 32 35 38 41 44 47 50 53 56 59 62 65 68 71 74 77 80 83 86 89 92 95 98 101 104 107 110 113 116 119 122 125 128 131 0
-137 1 4 7 10 13 16 19 22 25 28 31 34 37 40 43 46 49 52 55 58 61 64 67 70 73 76 79 82 85 88 91 94 97 100 103 106 109 112 115 118 121 124 127 130 133 0
-138 2 5 8 11 14 17 20 23 26 29 32 35 38 41 44 47 50 53 56 59 62 65 68 71 74 77 80 83 86 89 92 95 98 101 104 107 110 113 116 119 122 125 128 131 134 0
-140 1 4 7 10 13 16 19 22 25 28 31 34 37 40 43 46 49 52 55 58 61 64 67 70 73 76 79 82 85 88 91 94 97 100 103 106 109 112 115 118 121 124 127 130 133 136 0
-141 2 5 8 11 14 17 20 23 26 29 32 35 38 41 44 47 50 53 56 59 62 65 68 71 74 77 80 83 86 89 92 95 98 101 104 107 110 113 116 119 122 125 128 131 134 137 0
-143 1 4 7 10 13 16 19 22 25 28 31 34 37 40 43 46 49 52 55 58 61 64 67 70 73 76 79 82 85 88 91 94 97 100 103 106 109 112 115 118 121 124 127 130 133 136 139 0
-144 2 5 8 11 14 17 20 23 26 29 32 35 38 41 44 47 50 53 56 59 62 65 68 71 74 77 80 83 86 89 92 95 98 101 104 107 110 113 116 119 122 125 128 131 134 137 140 0
-146 1 4 7 10 13 16 19 22 25 28 31 34 37 40 43 46 49 52 55 58 61 64 67 70 73 76 79 82 85 88 91 94 97 100 103 106 109 112 115 118 121 124 127 130 133 136 139 142 0
-147 2 5 8 11 14 17 20 23 26 29 32 35 38 41 44 47 50 53 56 59 62 65 68 71 74 77 80 83 86 89 92 95 98 101 104 107 110 113 116 119 122 125 128 131 134 137 140 143 0
-149 1 4 7 10 13 16 19 22 25 28 31 34 37 40 43 46 49 52 55 58 61 64 67 70 73 76 79 82 85 88 91 94 97 100 103 106 109 112 115 118 121 124 127 130 133 136 139 142 145 0
-150 2 5 8 11 14 17 20 23 26 29 32 35 38 41 44 47 50 53 56 59 62 65 68 71 74 77 80 83 86 89 92 95 98 101 104 107 110 113 116 119 122 125 128 131 134 137 140 143 146 0
-152 1 4 7 10 13 16 19 22 25 28 31 34 37 40 43 46 49 52 55 58 61 64 67 70 73 76 79 82 85 88 91 94 97 100 103 106 109 112 115 118 121 124 127 130 133 136 139 142 145 148 0
-153 2 5 8 11 14 17 20 23 26 29 32 35 38 41 44 47 50 53 56 59 62 65 68 71 74 77 80 83 86 89 92 95 98 101 104 107 110 113 116 119 122 125 128 131 134 137 140 143 146 149 0
-155 1 4 7 10 13 16 19 22 25 28 31 34 37 40 43 46 49 52 55 58 61 64 67 70 73 76 79 82 85 88 91 94 97 100 103 106 109 112 115 118 121 124 127 130 133 136 139 142 145 148 151 0
-156 2 5 8 11 14 17 20 23 26 29 32 35 38 41 44 47 50 53 56 59 62 65 68 71 74 77 80 83 86 89 92 95 98 101 104 107 110 113 116 119 122 125 128 131 134 137 140 143 146 149 152 0
-158 1 4 7 10 13 16 19 22 25 28 31 34 37 40 43 46 49 52 55 58 61 64 67 70 73 76 79 82 85 88 91 94 97 100 103 106 109 112 115 118 121 124 127 130 133 136 139 142 145 148 151 154 0
-159 2 5 8 11 14 17 20 23 26 29 32 35 38 41 44 47 50 53 56 59 62 65 68 71 74 77 80 83 86 89 92 95 98 101 104 107 110 113 116 119 122 125 128 131 134 137 140 143 146 149 152 155 0
-161 1 4 7 10 13 16 19 22 25 28 31 34 37 40 43 46 49 52 55 58 61 64 67 70 73 76 79 82 85 88 91 94 97 100 103 106 109 112 115 118 121 124 127 130 133 136 139 142 145 148 151 154 157 0
-162 2 5 8 11 14 17 20 23 26 29 32 35 38 41 44 47 50 53 56 59 62 65 68 71 74 77 80 83 86 89 92 95 98 101 104 107 110 113 116 119 122 125 128 131 134 137 140 143 146 149 152 155 158 0
-164 1 4 7 10 13 16 19 22 25 28 31 34 37 40 43 46 49 52 55 58 61 64 67 70 73 76 79 82 85 88 91 94 97 100 103 106 109 112 115 118 121 124 127 130 133 136 139 142 145 148 151 154 157 160 0
-165 2 5 8 11 14 17 20 23 26 29 32 35 38 41 44 47 50 53 56 59 62 65 68 71 74 77 80 83 86 89 92 95 98 101 104 107 110 113 116 119 122 125 128 131 134 137 140 143 146 149 152 155 158 161 0
-167 1 4 7 10 13 16 19 22 25 28 31 34 37 40 43 46 49 52 55 58 61 64 67 70 73 76 79 82 85 88 91 94 97 100 103 106 109 112 115 118 121 124 127 130 133 136 139 142 145 148 151 154 157 160 163 0
-168 2 5 8 11 14 17 20 23 26 29 32 35 38 41 44 47 50 53 56 59 62 65 68 71 74 77 80 83 86 89 92 95 98 101 104 107 110 113 116 119 122 125 128 131 134 137 140 143 146 149 152 155 158 161 164 0
-170 1 4 7 10 13 16 19 22 25 28 31 34 37 40 43 46 49 52 55 58 61 64 67 70 73 76 79 82 85 88 91 94 97 100 103 106 109 112 115 118 121 124 127 130 133 136 139 142 145 148 151 154 157 160 163 166 0
-171 2 5 8 11 14 17 20 23 26 29 32 35 38 41 44 47 50 53 56 59 62 65 68 71 74 77 80 83 86 89 92 95 98 101 104 107 110 113 116 119 122 125 128 131 134 137 140 143 146 149 152 155 158 161 164 167 0
-173 1 4 7 10 13 16 19 22 25 28 31 34 37 40 43 46 49 52 55 58 61 64 67 70 73 76 79 82 85 88 91 94 97 100 103 106 109 112 115 118 121 124 127 130 133 136 139 142 145 148 151 154 157 160 163 166 169 0
-174 2 5 8 11 14 17 20 23 26 29 32 35 38 41 44 47 50 53 56 59 62 65 68 71 74 77 80 83 86 89 92 95 98 101 104 107 110 113 116 119 122 125 128 131 134 137 140 143 146 149 152 155 158 161 164 167 170 0
-176 1 4 7 10 13 16 19 22 25 28 31 34 37 40 43 46 49 52 55 58 61 64 67 70 73 76 79 82 85 88 91 94 97 100 103 106 109 112 115 118 121 124 127 130 133 136 139 142 145 148 151 154 157 160 163 166 169 172 0
-177 2 5 8 11 14 17 20 23 26 29 32 35 38 41 44 47 50 53 56 59 62 65 68 71 74 77 80 83 86 89 92 95 98 101 104 107 110 113 116 119 122 125 128 131 134 137 140 143 146 149 152 155 158 161 164 167 170 173 0
-179 1 4 7 10 13 16 19 22 25 28 31 34 37 40 43 46 49 52 55 58 61 64 67 70 73 76 79 82 85 88 91 94 97 100 103 106 109 112 115 118 121 124 127 130 133 136 139 142 145 148 151 154 157 160 163 166 169 172 175 0
-180 2 5 8 11 14 17 20 23 26 29 32 35 38 41 44 47 50 53 56 59 62 65 68 71 74 77 80 83 86 89 92 95 98 101 104 107 110 113 116 119 122 125 128 131 134 137 140 143 146 149 152 155 158 161 164 167 170 173 176 0
-182 1 4 7 10 13 16 19 22 25 28 31 34 37 40 43 46 49 52 55 58 61 64 67 70 73 76 79 82 85 88 91 94 97 100 103 106 109 112 115 118 121 124 127 130 133 136 139 142 145 148 151 154 157 160 163 166 169 172 175 178 0
-183 2 5 8 11 14 17 20 23 26 29 32 35 38 41 44 47 50 53 56 59 62 65 68 71 74 77 80 83 86 89 92 95 98 101 104 107 110 113 116 119 122 125 128 131 134 137 140 143 146 149 152 155 158 161 164 167 170 173 176 179 0
