p cnf 93 785
1 2 3 0
4 5 6 0
7 8 9 0
10 11 12 0
13 14 15 0
16 17 18 0
19 20 21 0
22 23 24 0
25 26 27 0
28 29 30 0
31 32 33 0
34 35 36 0
37 38 39 0
40 41 42 0
43 44 45 0
46 47 48 0
49 50 51 0
52 53 54 0
55 56 57 0
58 59 60 0
61 62 63 0
64 65 66 0
67 68 69 0
70 71 72 0
73 74 75 0
76 77 78 0
79 80 81 0
82 83 84 0
85 86 87 0
88 89 90 0
91 92 93 0
-1 -7 0
-2 -8 0
-3 -9 0
-4 -7 -10 0
-5 -8 -11 0
-6 -9 -12 0
-7 -13 0
-8 -14 0
-9 -15 0
-7 -10 -16 0
-8 -11 -17 0
-9 -12 -18 0
-7 -13 -19 0
-8 -14 -20 0
-9 -15 -21 0
-7 -16 -22 0
-8 -17 -23 0
-9 -18 -24 0
-7 -19 -25 0
-8 -20 -26 0
-9 -21 -27 0
-7 -22 -28 0
-8 -23 -29 0
-9 -24 -30 0
-7 -25 -31 0
-8 -26 -32 0
-9 -27 -33 0
-7 -28 -34 0
-8 -29 -35 0
-9 -30 -36 0
-7 -31 -37 0
-8 -32 -38 0
-9 -33 -39 0
-7 -34 -40 0
-8 -35 -41 0
-9 -36 -42 0
-7 -37 -43 0
-8 -38 -44 0
-9 -39 -45 0
-7 -40 -46 0
-8 -41 -47 0
-9 -42 -48 0
-7 -43 -49 0
-8 -44 -50 0
-9 -45 -51 0
-7 -46 -52 0
-8 -47 -53 0
-9 -48 -54 0
-7 -49 -55 0
-8 -50 -56 0
-9 -51 -57 0
-7 -52 -58 0
-8 -53 -59 0
-9 -54 -60 0
-7 -55 -61 0
-8 -56 -62 0
-9 -57 -63 0
-7 -58 -64 0
-8 -59 -65 0
-9 -60 -66 0
-7 -61 -67 0
-8 -62 -68 0
-9 -63 -69 0
-7 -64 -70 0
-8 -65 -71 0
-9 -66 -72 0
-7 -67 -73 0
-8 -68 -74 0
-9 -69 -75 0
-7 -70 -76 0
-8 -71 -77 0
-9 -72 -78 0
-7 -73 -79 0
-8 -74 -80 0
-9 -75 -81 0
-7 -76 -82 0
-8 -77 -83 0
-9 -78 -84 0
-7 -79 -85 0
-8 -80 -86 0
-9 -81 -87 0
-7 -82 -88 0
-8 -83 -89 0
-9 -84 -90 0
-7 -85 -91 0
-8 -86 -92 0
-9 -87 -93 0
-1 -13 -16 0
-2 -14 -17 0
-3 -15 -18 0
-4 -16 0
-5 -17 0
-6 -18 0
-7 -16 -19 0
-8 -17 -20 0
-9 -18 -21 0
-10 -16 -22 0
-11 -17 -23 0
-12 -18 -24 0
-13 -16 -25 0
-14 -17 -26 0
-15 -18 -27 0
-16 -28 0
-17 -29 0
-18 -30 0
-16 -19 -31 0
-17 -20 -32 0
-18 -21 -33 0
-16 -22 -34 0
-17 -23 -35 0
-18 -24 -36 0
-16 -25 -37 0
-17 -26 -38 0
-18 -27 -39 0
-16 -28 -40 0
-17 -29 -41 0
-18 -30 -42 0
-16 -31 -43 0
-17 -32 -44 0
-18 -33 -45 0
-16 -34 -46 0
-17 -35 -47 0
-18 -36 -48 0
-16 -37 -49 0
-17 -38 -50 0
-18 -39 -51 0
-16 -40 -52 0
-17 -41 -53 0
-18 -42 -54 0
-16 -43 -55 0
-17 -44 -56 0
-18 -45 -57 0
-16 -46 -58 0
-17 -47 -59 0
-18 -48 -60 0
-16 -49 -61 0
-17 -50 -62 0
-18 -51 -63 0
-16 -52 -64 0
-17 -53 -65 0
-18 -54 -66 0
-16 -55 -67 0
-17 -56 -68 0
-18 -57 -69 0
-16 -58 -70 0
-17 -59 -71 0
-18 -60 -72 0
-16 -61 -73 0
-17 -62 -74 0
-18 -63 -75 0
-16 -64 -76 0
-17 -65 -77 0
-18 -66 -78 0
-16 -67 -79 0
-17 -68 -80 0
-18 -69 -81 0
-16 -70 -82 0
-17 -71 -83 0
-18 -72 -84 0
-16 -73 -85 0
-17 -74 -86 0
-18 -75 -87 0
-16 -76 -88 0
-17 -77 -89 0
-18 -78 -90 0
-16 -79 -91 0
-17 -80 -92 0
-18 -81 -93 0
-1 -19 -25 0
-2 -20 -26 0
-3 -21 -27 0
-4 -22 -25 0
-5 -23 -26 0
-6 -24 -27 0
-7 -25 0
-8 -26 0
-9 -27 0
-10 -25 -28 0
-11 -26 -29 0
-12 -27 -30 0
-13 -25 -31 0
-14 -26 -32 0
-15 -27 -33 0
-16 -25 -34 0
-17 -26 -35 0
-18 -27 -36 0
-19 -25 -37 0
-20 -26 -38 0
-21 -27 -39 0
-22 -25 -40 0
-23 -26 -41 0
-24 -27 -42 0
-25 -43 0
-26 -44 0
-27 -45 0
-25 -28 -46 0
-26 -29 -47 0
-27 -30 -48 0
-25 -31 -49 0
-26 -32 -50 0
-27 -33 -51 0
-25 -34 -52 0
-26 -35 -53 0
-27 -36 -54 0
-25 -37 -55 0
-26 -38 -56 0
-27 -39 -57 0
-25 -40 -58 0
-26 -41 -59 0
-27 -42 -60 0
-25 -43 -61 0
-26 -44 -62 0
-27 -45 -63 0
-25 -46 -64 0
-26 -47 -65 0
-27 -48 -66 0
-25 -49 -67 0
-26 -50 -68 0
-27 -51 -69 0
-25 -52 -70 0
-26 -53 -71 0
-27 -54 -72 0
-25 -55 -73 0
-26 -56 -74 0
-27 -57 -75 0
-25 -58 -76 0
-26 -59 -77 0
-27 -60 -78 0
-25 -61 -79 0
-26 -62 -80 0
-27 -63 -81 0
-25 -64 -82 0
-26 -65 -83 0
-27 -66 -84 0
-25 -67 -85 0
-26 -68 -86 0
-27 -69 -87 0
-25 -70 -88 0
-26 -71 -89 0
-27 -72 -90 0
-25 -73 -91 0
-26 -74 -92 0
-27 -75 -93 0
-1 -25 -34 0
-2 -26 -35 0
-3 -27 -36 0
-4 -28 -34 0
-5 -29 -35 0
-6 -30 -36 0
-7 -31 -34 0
-8 -32 -35 0
-9 -33 -36 0
-10 -34 0
-11 -35 0
-12 -36 0
-13 -34 -37 0
-14 -35 -38 0
-15 -36 -39 0
-16 -34 -40 0
-17 -35 -41 0
-18 -36 -42 0
-19 -34 -43 0
-20 -35 -44 0
-21 -36 -45 0
-22 -34 -46 0
-23 -35 -47 0
-24 -36 -48 0
-25 -34 -49 0
-26 -35 -50 0
-27 -36 -51 0
-28 -34 -52 0
-29 -35 -53 0
-30 -36 -54 0
-31 -34 -55 0
-32 -35 -56 0
-33 -36 -57 0
-34 -58 0
-35 -59 0
-36 -60 0
-34 -37 -61 0
-35 -38 -62 0
-36 -39 -63 0
-34 -40 -64 0
-35 -41 -65 0
-36 -42 -66 0
-34 -43 -67 0
-35 -44 -68 0
-36 -45 -69 0
-34 -46 -70 0
-35 -47 -71 0
-36 -48 -72 0
-34 -49 -73 0
-35 -50 -74 0
-36 -51 -75 0
-34 -52 -76 0
-35 -53 -77 0
-36 -54 -78 0
-34 -55 -79 0
-35 -56 -80 0
-36 -57 -81 0
-34 -58 -82 0
-35 -59 -83 0
-36 -60 -84 0
-34 -61 -85 0
-35 -62 -86 0
-36 -63 -87 0
-34 -64 -88 0
-35 -65 -89 0
-36 -66 -90 0
-34 -67 -91 0
-35 -68 -92 0
-36 -69 -93 0
-1 -31 -43 0
-2 -32 -44 0
-3 -33 -45 0
-4 -34 -43 0
-5 -35 -44 0
-6 -36 -45 0
-7 -37 -43 0
-8 -38 -44 0
-9 -39 -45 0
-10 -40 -43 0
-11 -41 -44 0
-12 -42 -45 0
-13 -43 0
-14 -44 0
-15 -45 0
-16 -43 -46 0
-17 -44 -47 0
-18 -45 -48 0
-19 -43 -49 0
-20 -44 -50 0
-21 -45 -51 0
-22 -43 -52 0
-23 -44 -53 0
-24 -45 -54 0
-25 -43 -55 0
-26 -44 -56 0
-27 -45 -57 0
-28 -43 -58 0
-29 -44 -59 0
-30 -45 -60 0
-31 -43 -61 0
-32 -44 -62 0
-33 -45 -63 0
-34 -43 -64 0
-35 -44 -65 0
-36 -45 -66 0
-37 -43 -67 0
-38 -44 -68 0
-39 -45 -69 0
-40 -43 -70 0
-41 -44 -71 0
-42 -45 -72 0
-43 -73 0
-44 -74 0
-45 -75 0
-43 -46 -76 0
-44 -47 -77 0
-45 -48 -78 0
-43 -49 -79 0
-44 -50 -80 0
-45 -51 -81 0
-43 -52 -82 0
-44 -53 -83 0
-45 -54 -84 0
-43 -55 -85 0
-44 -56 -86 0
-45 -57 -87 0
-43 -58 -88 0
-44 -59 -89 0
-45 -60 -90 0
-43 -61 -91 0
-44 -62 -92 0
-45 -63 -93 0
-1 -37 -52 0
-2 -38 -53 0
-3 -39 -54 0
-4 -40 -52 0
-5 -41 -53 0
-6 -42 -54 0
-7 -43 -52 0
-8 -44 -53 0
-9 -45 -54 0
-10 -46 -52 0
-11 -47 -53 0
-12 -48 -54 0
-13 -49 -52 0
-14 -50 -53 0
-15 -51 -54 0
-16 -52 0
-17 -53 0
-18 -54 0
-19 -52 -55 0
-20 -53 -56 0
-21 -54 -57 0
-22 -52 -58 0
-23 -53 -59 0
-24 -54 -60 0
-25 -52 -61 0
-26 -53 -62 0
-27 -54 -63 0
-28 -52 -64 0
-29 -53 -65 0
-30 -54 -66 0
-31 -52 -67 0
-32 -53 -68 0
-33 -54 -69 0
-34 -52 -70 0
-35 -53 -71 0
-36 -54 -72 0
-37 -52 -73 0
-38 -53 -74 0
-39 -54 -75 0
-40 -52 -76 0
-41 -53 -77 0
-42 -54 -78 0
-43 -52 -79 0
-44 -53 -80 0
-45 -54 -81 0
-46 -52 -82 0
-47 -53 -83 0
-48 -54 -84 0
-49 -52 -85 0
-50 -53 -86 0
-51 -54 -87 0
-52 -88 0
-53 -89 0
-54 -90 0
-52 -55 -91 0
-53 -56 -92 0
-54 -57 -93 0
-1 -43 -61 0
-2 -44 -62 0
-3 -45 -63 0
-4 -46 -61 0
-5 -47 -62 0
-6 -48 -63 0
-7 -49 -61 0
-8 -50 -62 0
-9 -51 -63 0
-10 -52 -61 0
-11 -53 -62 0
-12 -54 -63 0
-13 -55 -61 0
-14 -56 -62 0
-15 -57 -63 0
-16 -58 -61 0
-17 -59 -62 0
-18 -60 -63 0
-19 -61 0
-20 -62 0
-21 -63 0
-22 -61 -64 0
-23 -62 -65 0
-24 -63 -66 0
-25 -61 -67 0
-26 -62 -68 0
-27 -63 -69 0
-28 -61 -70 0
-29 -62 -71 0
-30 -63 -72 0
-31 -61 -73 0
-32 -62 -74 0
-33 -63 -75 0
-34 -61 -76 0
-35 -62 -77 0
-36 -63 -78 0
-37 -61 -79 0
-38 -62 -80 0
-39 -63 -81 0
-40 -61 -82 0
-41 -62 -83 0
-42 -63 -84 0
-43 -61 -85 0
-44 -62 -86 0
-45 -63 -87 0
-46 -61 -88 0
-47 -62 -89 0
-48 -63 -90 0
-49 -61 -91 0
-50 -62 -92 0
-51 -63 -93 0
-1 -49 -70 0
-2 -50 -71 0
-3 -51 -72 0
-4 -52 -70 0
-5 -53 -71 0
-6 -54 -72 0
-7 -55 -70 0
-8 -56 -71 0
-9 -57 -72 0
-10 -58 -70 0
-11 -59 -71 0
-12 -60 -72 0
-13 -61 -70 0
-14 -62 -71 0
-15 -63 -72 0
-16 -64 -70 0
-17 -65 -71 0
-18 -66 -72 0
-19 -67 -70 0
-20 -68 -71 0
-21 -69 -72 0
-22 -70 0
-23 -71 0
-24 -72 0
-25 -70 -73 0
-26 -71 -74 0
-27 -72 -75 0
-28 -70 -76 0
-29 -71 -77 0
-30 -72 -78 0
-31 -70 -79 0
-32 -71 -80 0
-33 -72 -81 0
-34 -70 -82 0
-35 -71 -83 0
-36 -72 -84 0
-37 -70 -85 0
-38 -71 -86 0
-39 -72 -87 0
-40 -70 -88 0
-41 -71 -89 0
-42 -72 -90 0
-43 -70 -91 0
-44 -71 -92 0
-45 -72 -93 0
-1 -55 -79 0
-2 -56 -80 0
-3 -57 -81 0
-4 -58 -79 0
-5 -59 -80 0
-6 -60 -81 0
-7 -61 -79 0
-8 -62 -80 0
-9 -63 -81 0
-10 -64 -79 0
-11 -65 -80 0
-12 -66 -81 0
-13 -67 -79 0
-14 -68 -80 0
-15 -69 -81 0
-16 -70 -79 0
-17 -71 -80 0
-18 -72 -81 0
-19 -73 -79 0
-20 -74 -80 0
-21 -75 -81 0
-22 -76 -79 0
-23 -77 -80 0
-24 -78 -81 0
-25 -79 0
-26 -80 0
-27 -81 0
-28 -79 -82 0
-29 -80 -83 0
-30 -81 -84 0
-31 -79 -85 0
-32 -80 -86 0
-33 -81 -87 0
-34 -79 -88 0
-35 -80 -89 0
-36 -81 -90 0
-37 -79 -91 0
-38 -80 -92 0
-39 -81 -93 0
-1 -61 -88 0
-2 -62 -89 0
-3 -63 -90 0
-4 -64 -88 0
-5 -65 -89 0
-6 -66 -90 0
-7 -67 -88 0
-8 -68 -89 0
-9 -69 -90 0
-10 -70 -88 0
-11 -71 -89 0
-12 -72 -90 0
-13 -73 -88 0
-14 -74 -89 0
-15 -75 -90 0
-16 -76 -88 0
-17 -77 -89 0
-18 -78 -90 0
-19 -79 -88 0
-20 -80 -89 0
-21 -81 -90 0
-22 -82 -88 0
-23 -83 -89 0
-24 -84 -90 0
-25 -85 -88 0
-26 -86 -89 0
-27 -87 -90 0
-28 -88 0
-29 -89 0
-30 -90 0
-31 -88 -91 0
-32 -89 -92 0
-33 -90 -93 0
-1 -2 0
-1 -3 0
-2 -3 0
-4 -5 0
-4 -6 0
-5 -6 0
-7 -8 0
-7 -9 0
-8 -9 0
-10 -11 0
-10 -12 0
-11 -12 0
-13 -14 0
-13 -15 0
-14 -15 0
-16 -17 0
-16 -18 0
-17 -18 0
-19 -20 0
-19 -21 0
-20 -21 0
-22 -23 0
-22 -24 0
-23 -24 0
-25 -26 0
-25 -27 0
-26 -27 0
-28 -29 0
-28 -30 0
-29 -30 0
-31 -32 0
-31 -33 0
-32 -33 0
-34 -35 0
-34 -36 0
-35 -36 0
-37 -38 0
-37 -39 0
-38 -39 0
-40 -41 0
-40 -42 0
-41 -42 0
-43 -44 0
-43 -45 0
-44 -45 0
-46 -47 0
-46 -48 0
-47 -48 0
-49 -50 0
-49 -51 0
-50 -51 0
-52 -53 0
-52 -54 0
-53 -54 0
-55 -56 0
-55 -57 0
-56 -57 0
-58 -59 0
-58 -60 0
-59 -60 0
-61 -62 0
-61 -63 0
-62 -63 0
-64 -65 0
-64 -66 0
-65 -66 0
-67 -68 0
-67 -69 0
-68 -69 0
-70 -71 0
-70 -72 0
-71 -72 0
-73 -74 0
-73 -75 0
-74 -75 0
-76 -77 0
-76 -78 0
-77 -78 0
-79 -80 0
-79 -81 0
-80 -81 0
-82 -83 0
-82 -84 0
-83 -84 0
-85 -86 0
-85 -87 0
-86 -87 0
-88 -89 0
-88 -90 0
-89 -90 0
-91 -92 0
-91 -93 0
-92 -93 0
1 0
-5 1 0
-6 0
-8 1 4 0
-9 2 5 0
-11 1 4 7 0
-12 2 5 8 0
-14 1 4 7 10 0
-15 2 5 8 11 0
-17 1 4 7 10 13 0
-18 2 5 8 11 14 0
-20 1 4 7 10 13 16 0
-21 2 5 8 11 14 17 0
-23 1 4 7 10 13 16 19 0
-24 2 5 8 11 14 17 20 0
-26 1 4 7 10 13 16 19 22 0
-27 2 5 8 11 14 17 20 23 0
-29 1 4 7 10 13 16 19 22 25 0
-30 2 5 8 11 14 17 20 23 26 0
-32 1 4 7 10 13 16 19 22 25 28 0
-33 2 5 8 11 14 17 20 23 26 29 0
-35 1 4 7 10 13 16 19 22 25 28 31 0
-36 2 5 8 11 14 17 20 23 26 29 32 0
-38 1 4 7 10 13 16 19 22 25 28 31 34 0
-39 2 5 8 11 14 17 20 23 26 29 32 35 0
-41 1 4 7 10 13 16 19 22 25 28 31 34 37 0
-42 2 5 8 11 14 17 20 23 26 29 32 35 38 0
-44 1 4 7 10 13 16 19 22 25 28 31 34 37 40 0
-45 2 5 8 11 14 17 20 23 26 29 32 35 38 41 0
-47 1 4 7 10 13 16 19 22 25 28 31 34 37 40 43 0
-48 2 5 8 11 14 17 20 23 26 29 32 35 38 41 44 0
-50 1 4 7 10 13 16 19 22 25 28 31 34 37 40 43 46 0
-51 2 5 8 11 14 17 20 23 26 29 32 35 38 41 44 47 0
-53 1 4 7 10 13 16 19 22 25 28 31 34 37 40 43 46 49 0
-54 2 5 8 11 14 17 20 23 26 29 32 35 38 41 44 47 50 0
-56 1 4 7 10 13 16 19 22 25 28 31 34 37 40 43 46 49 52 0
-57 2 5 8 11 14 17 20 23 26 29 32 35 38 41 44 47 50 53 0
-59 1 4 7 10 13 16 19 22 25 28 31 34 37 40 43 46 49 52 55 0
-60 2 5 8 11 14 17 20 23 26 29 32 35 38 41 44 47 50 53 56 0
-62 1 4 7 10 13 16 19 22 25 28 31 34 37 40 43 46 49 52 55 58 0
-63 2 5 8 11 14 17 20 23 26 29 32 35 38 41 44 47 50 53 56 59 0
-65 1 4 7 10 13 16 19 22 25 28 31 34 37 40 43 46 49 52 55 58 61 0
-66 2 5 8 11 14 17 20 23 26 29 32 35 38 41 44 47 50 53 56 59 62 0
-68 1 4 7 10 13 16 19 22 25 28 31 34 37 40 43 46 49 52 55 58 61 64 0
-69 2 5 8 11 14 17 20 23 26 29 32 35 38 41 44 47 50 53 56 59 62 65 0
-71 1 4 7 10 13 16 19 22 25 28 31 34 37 40 43 46 49 52 55 58 61 64 67 0
-72 2 5 8 11 14 17 20 23 26 29 32 35 38 41 44 47 50 53 56 59 62 65 68 0
-74 1 4 7 10 13 16 19 22 25 28 31 34 37 40 43 46 49 52 55 58 61 64 67 70 0
-75 2 5 8 11 14 17 20 23 26 29 32 35 38 41 44 47 50 53 56 59 62 65 68 71 0
-77 1 4 7 10 13 16 19 22 25 28 31 34 37 40 43 46 49 52 55 58 61 64 67 70 73 0
-78 2 5 8 11 14 17 20 23 26 29 32 35 38 41 44 47 50 53 56 59 62 65 68 71 74 0
-80 1 4 7 10 13 16 19 22 25 28 31 34 37 40 43 46 49 52 55 58 61 64 67 70 73 76 0
-81 2 5 8 11 14 17 20 23 26 29 32 35 38 41 44 47 50 53 56 59 62 65 68 71 74 77 0
-83 1 4 7 10 13 16 19 22 25 28 31 34 37 40 43 46 49 52 55 58 61 64 67 70 73 76 79 0
-84 2 5 8 11 14 17 20 23 26 29 32 35 38 41 44 47 50 53 56 59 62 65 68 71 74 77 80 0
-86 1 4 7 10 13 16 19 22 25 28 31 34 37 40 43 46 49 52 55 58 61 64 67 70 73 76 79 82 0
-87 2 5 8 11 14 17 20 23 26 29 32 35 38 41 44 47 50 53 56 59 62 65 68 71 74 77 80 83 0
-89 1 4 7 10 13 16 19 22 25 28 31 34 37 40 43 46 49 52 55 58 61 64 67 70 73 76 79 82 85 0
-90 2 5 8 11 14 17 20 23 26 29 32 35 38 41 44 47 50 53 56 59 62 65 68 71 74 77 80 83 86 0
-92 1 4 7 10 13 16 19 22 25 28 31 34 37 40 43 46 49 52 55 58 61 64 67 70 73 76 79 82 85 88 0
-93 2 5 8 11 14 17 20 23 26 29 32 35 38 41 44 47 50 53 56 59 62 65 68 71 74 77 80 83 86 89 0
