p cnf 44 204
1 2 0
3 4 0
5 6 0
7 8 0
9 10 0
11 12 0
13 14 0
15 16 0
17 18 0
19 20 0
21 22 0
23 24 0
25 26 0
27 28 0
29 30 0
31 32 0
33 34 0
35 36 0
37 38 0
39 40 0
41 42 0
43 44 0
-1 -3 -5 0
-3 -5 -7 0
-5 -7 -9 0
-7 -9 -11 0
-9 -11 -13 0
-11 -13 -15 0
-13 -15 -17 0
-15 -17 -19 0
-17 -19 -21 0
-19 -21 -23 0
-21 -23 -25 0
-23 -25 -27 0
-25 -27 -29 0
-27 -29 -31 0
-29 -31 -33 0
-31 -33 -35 0
-33 -35 -37 0
-35 -37 -39 0
-37 -39 -41 0
-39 -41 -43 0
-1 -5 -9 0
-3 -7 -11 0
-5 -9 -13 0
-7 -11 -15 0
-9 -13 -17 0
-11 -15 -19 0
-13 -17 -21 0
-15 -19 -23 0
-17 -21 -25 0
-19 -23 -27 0
-21 -25 -29 0
-23 -27 -31 0
-25 -29 -33 0
-27 -31 -35 0
-29 -33 -37 0
-31 -35 -39 0
-33 -37 -41 0
-35 -39 -43 0
-1 -7 -13 0
-3 -9 -15 0
-5 -11 -17 0
-7 -13 -19 0
-9 -15 -21 0
-11 -17 -23 0
-13 -19 -25 0
-15 -21 -27 0
-17 -23 -29 0
-19 -25 -31 0
-21 -27 -33 0
-23 -29 -35 0
-25 -31 -37 0
-27 -33 -39 0
-29 -35 -41 0
-31 -37 -43 0
-1 -9 -17 0
-3 -11 -19 0
-5 -13 -21 0
-7 -15 -23 0
-9 -17 -25 0
-11 -19 -27 0
-13 -21 -29 0
-15 -23 -31 0
-17 -25 -33 0
-19 -27 -35 0
-21 -29 -37 0
-23 -31 -39 0
-25 -33 -41 0
-27 -35 -43 0
-1 -11 -21 0
-3 -13 -23 0
-5 -15 -25 0
-7 -17 -27 0
-9 -19 -29 0
-11 -21 -31 0
-13 -23 -33 0
-15 -25 -35 0
-17 -27 -37 0
-19 -29 -39 0
-21 -31 -41 0
-23 -33 -43 0
-1 -13 -25 0
-3 -15 -27 0
-5 -17 -29 0
-7 -19 -31 0
-9 -21 -33 0
-11 -23 -35 0
-13 -25 -37 0
-15 -27 -39 0
-17 -29 -41 0
-19 -31 -43 0
-1 -15 -29 0
-3 -17 -31 0
-5 -19 -33 0
-7 -21 -35 0
-9 -23 -37 0
-11 -25 -39 0
-13 -27 -41 0
-15 -29 -43 0
-1 -17 -33 0
-3 -19 -35 0
-5 -21 -37 0
-7 -23 -39 0
-9 -25 -41 0
-11 -27 -43 0
-1 -19 -37 0
-3 -21 -39 0
-5 -23 -41 0
-7 -25 -43 0
-1 -21 -41 0
-3 -23 -43 0
-2 -4 -6 -8 -10 0
-4 -6 -8 -10 -12 0
-6 -8 -10 -12 -14 0
-8 -10 -12 -14 -16 0
-10 -12 -14 -16 -18 0
-12 -14 -16 -18 -20 0
-14 -16 -18 -20 -22 0
-16 -18 -20 -22 -24 0
-18 -20 -22 -24 -26 0
-20 -22 -24 -26 -28 0
-22 -24 -26 -28 -30 0
-24 -26 -28 -30 -32 0
-26 -28 -30 -32 -34 0
-28 -30 -32 -34 -36 0
-30 -32 -34 -36 -38 0
-32 -34 -36 -38 -40 0
-34 -36 -38 -40 -42 0
-36 -38 -40 -42 -44 0
-2 -6 -10 -14 -18 0
-4 -8 -12 -16 -20 0
-6 -10 -14 -18 -22 0
-8 -12 -16 -20 -24 0
-10 -14 -18 -22 -26 0
-12 -16 -20 -24 -28 0
-14 -18 -22 -26 -30 0
-16 -20 -24 -28 -32 0
-18 -22 -26 -30 -34 0
-20 -24 -28 -32 -36 0
-22 -26 -30 -34 -38 0
-24 -28 -32 -36 -40 0
-26 -30 -34 -38 -42 0
-28 -32 -36 -40 -44 0
-2 -8 -14 -20 -26 0
-4 -10 -16 -22 -28 0
-6 -12 -18 -24 -30 0
-8 -14 -20 -26 -32 0
-10 -16 -22 -28 -34 0
-12 -18 -24 -30 -36 0
-14 -20 -26 -32 -38 0
-16 -22 -28 -34 -40 0
-18 -24 -30 -36 -42 0
-20 -26 -32 -38 -44 0
-2 -10 -18 -26 -34 0
-4 -12 -20 -28 -36 0
-6 -14 -22 -30 -38 0
-8 -16 -24 -32 -40 0
-10 -18 -26 -34 -42 0
-12 -20 -28 -36 -44 0
-2 -12 -22 -32 -42 0
-4 -14 -24 -34 -44 0
-1 -2 0
-3 -4 0
-5 -6 0
-7 -8 0
-9 -10 0
-11 -12 0
-13 -14 0
-15 -16 0
-17 -18 0
-19 -20 0
-21 -22 0
-23 -24 0
-25 -26 0
-27 -28 0
-29 -30 0
-31 -32 0
-33 -34 0
-35 -36 0
-37 -38 0
-39 -40 0
-41 -42 0
-43 -44 0
