p cnf 64 391
1 2 0
3 4 0
5 6 0
7 8 0
9 10 0
11 12 0
13 14 0
15 16 0
17 18 0
19 20 0
21 22 0
23 24 0
25 26 0
27 28 0
29 30 0
31 32 0
33 34 0
35 36 0
37 38 0
39 40 0
41 42 0
43 44 0
45 46 0
47 48 0
49 50 0
51 52 0
53 54 0
55 56 0
57 58 0
59 60 0
61 62 0
63 64 0
-1 -3 -5 0
-3 -5 -7 0
-5 -7 -9 0
-7 -9 -11 0
-9 -11 -13 0
-11 -13 -15 0
-13 -15 -17 0
-15 -17 -19 0
-17 -19 -21 0
-19 -21 -23 0
-21 -23 -25 0
-23 -25 -27 0
-25 -27 -29 0
-27 -29 -31 0
-29 -31 -33 0
-31 -33 -35 0
-33 -35 -37 0
-35 -37 -39 0
-37 -39 -41 0
-39 -41 -43 0
-41 -43 -45 0
-43 -45 -47 0
-45 -47 -49 0
-47 -49 -51 0
-49 -51 -53 0
-51 -53 -55 0
-53 -55 -57 0
-55 -57 -59 0
-57 -59 -61 0
-59 -61 -63 0
-1 -5 -9 0
-3 -7 -11 0
-5 -9 -13 0
-7 -11 -15 0
-9 -13 -17 0
-11 -15 -19 0
-13 -17 -21 0
-15 -19 -23 0
-17 -21 -25 0
-19 -23 -27 0
-21 -25 -29 0
-23 -27 -31 0
-25 -29 -33 0
-27 -31 -35 0
-29 -33 -37 0
-31 -35 -39 0
-33 -37 -41 0
-35 -39 -43 0
-37 -41 -45 0
-39 -43 -47 0
-41 -45 -49 0
-43 -47 -51 0
-45 -49 -53 0
-47 -51 -55 0
-49 -53 -57 0
-51 -55 -59 0
-53 -57 -61 0
-55 -59 -63 0
-1 -7 -13 0
-3 -9 -15 0
-5 -11 -17 0
-7 -13 -19 0
-9 -15 -21 0
-11 -17 -23 0
-13 -19 -25 0
-15 -21 -27 0
-17 -23 -29 0
-19 -25 -31 0
-21 -27 -33 0
-23 -29 -35 0
-25 -31 -37 0
-27 -33 -39 0
-29 -35 -41 0
-31 -37 -43 0
-33 -39 -45 0
-35 -41 -47 0
-37 -43 -49 0
-39 -45 -51 0
-41 -47 -53 0
-43 -49 -55 0
-45 -51 -57 0
-47 -53 -59 0
-49 -55 -61 0
-51 -57 -63 0
-1 -9 -17 0
-3 -11 -19 0
-5 -13 -21 0
-7 -15 -23 0
-9 -17 -25 0
-11 -19 -27 0
-13 -21 -29 0
-15 -23 -31 0
-17 -25 -33 0
-19 -27 -35 0
-21 -29 -37 0
-23 -31 -39 0
-25 -33 -41 0
-27 -35 -43 0
-29 -37 -45 0
-31 -39 -47 0
-33 -41 -49 0
-35 -43 -51 0
-37 -45 -53 0
-39 -47 -55 0
-41 -49 -57 0
-43 -51 -59 0
-45 -53 -61 0
-47 -55 -63 0
-1 -11 -21 0
-3 -13 -23 0
-5 -15 -25 0
-7 -17 -27 0
-9 -19 -29 0
-11 -21 -31 0
-13 -23 -33 0
-15 -25 -35 0
-17 -27 -37 0
-19 -29 -39 0
-21 -31 -41 0
-23 -33 -43 0
-25 -35 -45 0
-27 -37 -47 0
-29 -39 -49 0
-31 -41 -51 0
-33 -43 -53 0
-35 -45 -55 0
-37 -47 -57 0
-39 -49 -59 0
-41 -51 -61 0
-43 -53 -63 0
-1 -13 -25 0
-3 -15 -27 0
-5 -17 -29 0
-7 -19 -31 0
-9 -21 -33 0
-11 -23 -35 0
-13 -25 -37 0
-15 -27 -39 0
-17 -29 -41 0
-19 -31 -43 0
-21 -33 -45 0
-23 -35 -47 0
-25 -37 -49 0
-27 -39 -51 0
-29 -41 -53 0
-31 -43 -55 0
-33 -45 -57 0
-35 -47 -59 0
-37 -49 -61 0
-39 -51 -63 0
-1 -15 -29 0
-3 -17 -31 0
-5 -19 -33 0
-7 -21 -35 0
-9 -23 -37 0
-11 -25 -39 0
-13 -27 -41 0
-15 -29 -43 0
-17 -31 -45 0
-19 -33 -47 0
-21 -35 -49 0
-23 -37 -51 0
-25 -39 -53 0
-27 -41 -55 0
-29 -43 -57 0
-31 -45 -59 0
-33 -47 -61 0
-35 -49 -63 0
-1 -17 -33 0
-3 -19 -35 0
-5 -21 -37 0
-7 -23 -39 0
-9 -25 -41 0
-11 -27 -43 0
-13 -29 -45 0
-15 -31 -47 0
-17 -33 -49 0
-19 -35 -51 0
-21 -37 -53 0
-23 -39 -55 0
-25 -41 -57 0
-27 -43 -59 0
-29 -45 -61 0
-31 -47 -63 0
-1 -19 -37 0
-3 -21 -39 0
-5 -23 -41 0
-7 -25 -43 0
-9 -27 -45 0
-11 -29 -47 0
-13 -31 -49 0
-15 -33 -51 0
-17 -35 -53 0
-19 -37 -55 0
-21 -39 -57 0
-23 -41 -59 0
-25 -43 -61 0
-27 -45 -63 0
-1 -21 -41 0
-3 -23 -43 0
-5 -25 -45 0
-7 -27 -47 0
-9 -29 -49 0
-11 -31 -51 0
-13 -33 -53 0
-15 -35 -55 0
-17 -37 -57 0
-19 -39 -59 0
-21 -41 -61 0
-23 -43 -63 0
-1 -23 -45 0
-3 -25 -47 0
-5 -27 -49 0
-7 -29 -51 0
-9 -31 -53 0
-11 -33 -55 0
-13 -35 -57 0
-15 -37 -59 0
-17 -39 -61 0
-19 -41 -63 0
-1 -25 -49 0
-3 -27 -51 0
-5 -29 -53 0
-7 -31 -55 0
-9 -33 -57 0
-11 -35 -59 0
-13 -37 -61 0
-15 -39 -63 0
-1 -27 -53 0
-3 -29 -55 0
-5 -31 -57 0
-7 -33 -59 0
-9 -35 -61 0
-11 -37 -63 0
-1 -29 -57 0
-3 -31 -59 0
-5 -33 -61 0
-7 -35 -63 0
-1 -31 -61 0
-3 -33 -63 0
-2 -4 -6 -8 -10 -12 0
-4 -6 -8 -10 -12 -14 0
-6 -8 -10 -12 -14 -16 0
-8 -10 -12 -14 -16 -18 0
-10 -12 -14 -16 -18 -20 0
-12 -14 -16 -18 -20 -22 0
-14 -16 -18 -20 -22 -24 0
-16 -18 -20 -22 -24 -26 0
-18 -20 -22 -24 -26 -28 0
-20 -22 -24 -26 -28 -30 0
-22 -24 -26 -28 -30 -32 0
-24 -26 -28 -30 -32 -34 0
-26 -28 -30 -32 -34 -36 0
-28 -30 -32 -34 -36 -38 0
-30 -32 -34 -36 -38 -40 0
-32 -34 -36 -38 -40 -42 0
-34 -36 -38 -40 -42 -44 0
-36 -38 -40 -42 -44 -46 0
-38 -40 -42 -44 -46 -48 0
-40 -42 -44 -46 -48 -50 0
-42 -44 -46 -48 -50 -52 0
-44 -46 -48 -50 -52 -54 0
-46 -48 -50 -52 -54 -56 0
-48 -50 -52 -54 -56 -58 0
-50 -52 -54 -56 -58 -60 0
-52 -54 -56 -58 -60 -62 0
-54 -56 -58 -60 -62 -64 0
-2 -6 -10 -14 -18 -22 0
-4 -8 -12 -16 -20 -24 0
-6 -10 -14 -18 -22 -26 0
-8 -12 -16 -20 -24 -28 0
-10 -14 -18 -22 -26 -30 0
-12 -16 -20 -24 -28 -32 0
-14 -18 -22 -26 -30 -34 0
-16 -20 -24 -28 -32 -36 0
-18 -22 -26 -30 -34 -38 0
-20 -24 -28 -32 -36 -40 0
-22 -26 -30 -34 -38 -42 0
-24 -28 -32 -36 -40 -44 0
-26 -30 -34 -38 -42 -46 0
-28 -32 -36 -40 -44 -48 0
-30 -34 -38 -42 -46 -50 0
-32 -36 -40 -44 -48 -52 0
-34 -38 -42 -46 -50 -54 0
-36 -40 -44 -48 -52 -56 0
-38 -42 -46 -50 -54 -58 0
-40 -44 -48 -52 -56 -60 0
-42 -46 -50 -54 -58 -62 0
-44 -48 -52 -56 -60 -64 0
-2 -8 -14 -20 -26 -32 0
-4 -10 -16 -22 -28 -34 0
-6 -12 -18 -24 -30 -36 0
-8 -14 -20 -26 -32 -38 0
-10 -16 -22 -28 -34 -40 0
-12 -18 -24 -30 -36 -42 0
-14 -20 -26 -32 -38 -44 0
-16 -22 -28 -34 -40 -46 0
-18 -24 -30 -36 -42 -48 0
-20 -26 -32 -38 -44 -50 0
-22 -28 -34 -40 -46 -52 0
-24 -30 -36 -42 -48 -54 0
-26 -32 -38 -44 -50 -56 0
-28 -34 -40 -46 -52 -58 0
-30 -36 -42 -48 -54 -60 0
-32 -38 -44 -50 -56 -62 0
-34 -40 -46 -52 -58 -64 0
-2 -10 -18 -26 -34 -42 0
-4 -12 -20 -28 -36 -44 0
-6 -14 -22 -30 -38 -46 0
-8 -16 -24 -32 -40 -48 0
-10 -18 -26 -34 -42 -50 0
-12 -20 -28 -36 -44 -52 0
-14 -22 -30 -38 -46 -54 0
-16 -24 -32 -40 -48 -56 0
-18 -26 -34 -42 -50 -58 0
-20 -28 -36 -44 -52 -60 0
-22 -30 -38 -46 -54 -62 0
-24 -32 -40 -48 -56 -64 0
-2 -12 -22 -32 -42 -52 0
-4 -14 -24 -34 -44 -54 0
-6 -16 -26 -36 -46 -56 0
-8 -18 -28 -38 -48 -58 0
-10 -20 -30 -40 -50 -60 0
-12 -22 -32 -42 -52 -62 0
-14 -24 -34 -44 -54 -64 0
-2 -14 -26 -38 -50 -62 0
-4 -16 -28 -40 -52 -64 0
-1 -2 0
-3 -4 0
-5 -6 0
-7 -8 0
-9 -10 0
-11 -12 0
-13 -14 0
-15 -16 0
-17 -18 0
-19 -20 0
-21 -22 0
-23 -24 0
-25 -26 0
-27 -28 0
-29 -30 0
-31 -32 0
-33 -34 0
-35 -36 0
-37 -38 0
-39 -40 0
-41 -42 0
-43 -44 0
-45 -46 0
-47 -48 0
-49 -50 0
-51 -52 0
-53 -54 0
-55 -56 0
-57 -58 0
-59 -60 0
-61 -62 0
-63 -64 0
