p cnf 129 1580
1 2 3 0
4 5 6 0
7 8 9 0
10 11 12 0
13 14 15 0
16 17 18 0
19 20 21 0
22 23 24 0
25 26 27 0
28 29 30 0
31 32 33 0
34 35 36 0
37 38 39 0
40 41 42 0
43 44 45 0
46 47 48 0
49 50 51 0
52 53 54 0
55 56 57 0
58 59 60 0
61 62 63 0
64 65 66 0
67 68 69 0
70 71 72 0
73 74 75 0
76 77 78 0
79 80 81 0
82 83 84 0
85 86 87 0
88 89 90 0
91 92 93 0
94 95 96 0
97 98 99 0
100 101 102 0
103 104 105 0
106 107 108 0
109 110 111 0
112 113 114 0
115 116 117 0
118 119 120 0
121 122 123 0
124 125 126 0
127 128 129 0
-1 -7 0
-2 -8 0
-3 -9 0
-1 -4 -10 0
-2 -5 -11 0
-3 -6 -12 0
-1 -7 -13 0
-2 -8 -14 0
-3 -9 -15 0
-1 -10 -16 0
-2 -11 -17 0
-3 -12 -18 0
-1 -13 -19 0
-2 -14 -20 0
-3 -15 -21 0
-1 -16 -22 0
-2 -17 -23 0
-3 -18 -24 0
-1 -19 -25 0
-2 -20 -26 0
-3 -21 -27 0
-1 -22 -28 0
-2 -23 -29 0
-3 -24 -30 0
-1 -25 -31 0
-2 -26 -32 0
-3 -27 -33 0
-1 -28 -34 0
-2 -29 -35 0
-3 -30 -36 0
-1 -31 -37 0
-2 -32 -38 0
-3 -33 -39 0
-1 -34 -40 0
-2 -35 -41 0
-3 -36 -42 0
-1 -37 -43 0
-2 -38 -44 0
-3 -39 -45 0
-1 -40 -46 0
-2 -41 -47 0
-3 -42 -48 0
-1 -43 -49 0
-2 -44 -50 0
-3 -45 -51 0
-1 -46 -52 0
-2 -47 -53 0
-3 -48 -54 0
-1 -49 -55 0
-2 -50 -56 0
-3 -51 -57 0
-1 -52 -58 0
-2 -53 -59 0
-3 -54 -60 0
-1 -55 -61 0
-2 -56 -62 0
-3 -57 -63 0
-1 -58 -64 0
-2 -59 -65 0
-3 -60 -66 0
-1 -61 -67 0
-2 -62 -68 0
-3 -63 -69 0
-1 -64 -70 0
-2 -65 -71 0
-3 -66 -72 0
-1 -67 -73 0
-2 -68 -74 0
-3 -69 -75 0
-1 -70 -76 0
-2 -71 -77 0
-3 -72 -78 0
-1 -73 -79 0
-2 -74 -80 0
-3 -75 -81 0
-1 -76 -82 0
-2 -77 -83 0
-3 -78 -84 0
-1 -79 -85 0
-2 -80 -86 0
-3 -81 -87 0
-1 -82 -88 0
-2 -83 -89 0
-3 -84 -90 0
-1 -85 -91 0
-2 -86 -92 0
-3 -87 -93 0
-1 -88 -94 0
-2 -89 -95 0
-3 -90 -96 0
-1 -91 -97 0
-2 -92 -98 0
-3 -93 -99 0
-1 -94 -100 0
-2 -95 -101 0
-3 -96 -102 0
-1 -97 -103 0
-2 -98 -104 0
-3 -99 -105 0
-1 -100 -106 0
-2 -101 -107 0
-3 -102 -108 0
-1 -103 -109 0
-2 -104 -110 0
-3 -105 -111 0
-1 -106 -112 0
-2 -107 -113 0
-3 -108 -114 0
-1 -109 -115 0
-2 -110 -116 0
-3 -111 -117 0
-1 -112 -118 0
-2 -113 -119 0
-3 -114 -120 0
-1 -115 -121 0
-2 -116 -122 0
-3 -117 -123 0
-1 -118 -124 0
-2 -119 -125 0
-3 -120 -126 0
-1 -121 -127 0
-2 -122 -128 0
-3 -123 -129 0
-1 -4 -13 0
-2 -5 -14 0
-3 -6 -15 0
-4 -16 0
-5 -17 0
-6 -18 0
-4 -7 -19 0
-5 -8 -20 0
-6 -9 -21 0
-4 -10 -22 0
-5 -11 -23 0
-6 -12 -24 0
-4 -13 -25 0
-5 -14 -26 0
-6 -15 -27 0
-4 -16 -28 0
-5 -17 -29 0
-6 -18 -30 0
-4 -19 -31 0
-5 -20 -32 0
-6 -21 -33 0
-4 -22 -34 0
-5 -23 -35 0
-6 -24 -36 0
-4 -25 -37 0
-5 -26 -38 0
-6 -27 -39 0
-4 -28 -40 0
-5 -29 -41 0
-6 -30 -42 0
-4 -31 -43 0
-5 -32 -44 0
-6 -33 -45 0
-4 -34 -46 0
-5 -35 -47 0
-6 -36 -48 0
-4 -37 -49 0
-5 -38 -50 0
-6 -39 -51 0
-4 -40 -52 0
-5 -41 -53 0
-6 -42 -54 0
-4 -43 -55 0
-5 -44 -56 0
-6 -45 -57 0
-4 -46 -58 0
-5 -47 -59 0
-6 -48 -60 0
-4 -49 -61 0
-5 -50 -62 0
-6 -51 -63 0
-4 -52 -64 0
-5 -53 -65 0
-6 -54 -66 0
-4 -55 -67 0
-5 -56 -68 0
-6 -57 -69 0
-4 -58 -70 0
-5 -59 -71 0
-6 -60 -72 0
-4 -61 -73 0
-5 -62 -74 0
-6 -63 -75 0
-4 -64 -76 0
-5 -65 -77 0
-6 -66 -78 0
-4 -67 -79 0
-5 -68 -80 0
-6 -69 -81 0
-4 -70 -82 0
-5 -71 -83 0
-6 -72 -84 0
-4 -73 -85 0
-5 -74 -86 0
-6 -75 -87 0
-4 -76 -88 0
-5 -77 -89 0
-6 -78 -90 0
-4 -79 -91 0
-5 -80 -92 0
-6 -81 -93 0
-4 -82 -94 0
-5 -83 -95 0
-6 -84 -96 0
-4 -85 -97 0
-5 -86 -98 0
-6 -87 -99 0
-4 -88 -100 0
-5 -89 -101 0
-6 -90 -102 0
-4 -91 -103 0
-5 -92 -104 0
-6 -93 -105 0
-4 -94 -106 0
-5 -95 -107 0
-6 -96 -108 0
-4 -97 -109 0
-5 -98 -110 0
-6 -99 -111 0
-4 -100 -112 0
-5 -101 -113 0
-6 -102 -114 0
-4 -103 -115 0
-5 -104 -116 0
-6 -105 -117 0
-4 -106 -118 0
-5 -107 -119 0
-6 -108 -120 0
-4 -109 -121 0
-5 -110 -122 0
-6 -111 -123 0
-4 -112 -124 0
-5 -113 -125 0
-6 -114 -126 0
-4 -115 -127 0
-5 -116 -128 0
-6 -117 -129 0
-1 -7 -19 0
-2 -8 -20 0
-3 -9 -21 0
-4 -7 -22 0
-5 -8 -23 0
-6 -9 -24 0
-7 -25 0
-8 -26 0
-9 -27 0
-7 -10 -28 0
-8 -11 -29 0
-9 -12 -30 0
-7 -13 -31 0
-8 -14 -32 0
-9 -15 -33 0
-7 -16 -34 0
-8 -17 -35 0
-9 -18 -36 0
-7 -19 -37 0
-8 -20 -38 0
-9 -21 -39 0
-7 -22 -40 0
-8 -23 -41 0
-9 -24 -42 0
-7 -25 -43 0
-8 -26 -44 0
-9 -27 -45 0
-7 -28 -46 0
-8 -29 -47 0
-9 -30 -48 0
-7 -31 -49 0
-8 -32 -50 0
-9 -33 -51 0
-7 -34 -52 0
-8 -35 -53 0
-9 -36 -54 0
-7 -37 -55 0
-8 -38 -56 0
-9 -39 -57 0
-7 -40 -58 0
-8 -41 -59 0
-9 -42 -60 0
-7 -43 -61 0
-8 -44 -62 0
-9 -45 -63 0
-7 -46 -64 0
-8 -47 -65 0
-9 -48 -66 0
-7 -49 -67 0
-8 -50 -68 0
-9 -51 -69 0
-7 -52 -70 0
-8 -53 -71 0
-9 -54 -72 0
-7 -55 -73 0
-8 -56 -74 0
-9 -57 -75 0
-7 -58 -76 0
-8 -59 -77 0
-9 -60 -78 0
-7 -61 -79 0
-8 -62 -80 0
-9 -63 -81 0
-7 -64 -82 0
-8 -65 -83 0
-9 -66 -84 0
-7 -67 -85 0
-8 -68 -86 0
-9 -69 -87 0
-7 -70 -88 0
-8 -71 -89 0
-9 -72 -90 0
-7 -73 -91 0
-8 -74 -92 0
-9 -75 -93 0
-7 -76 -94 0
-8 -77 -95 0
-9 -78 -96 0
-7 -79 -97 0
-8 -80 -98 0
-9 -81 -99 0
-7 -82 -100 0
-8 -83 -101 0
-9 -84 -102 0
-7 -85 -103 0
-8 -86 -104 0
-9 -87 -105 0
-7 -88 -106 0
-8 -89 -107 0
-9 -90 -108 0
-7 -91 -109 0
-8 -92 -110 0
-9 -93 -111 0
-7 -94 -112 0
-8 -95 -113 0
-9 -96 -114 0
-7 -97 -115 0
-8 -98 -116 0
-9 -99 -117 0
-7 -100 -118 0
-8 -101 -119 0
-9 -102 -120 0
-7 -103 -121 0
-8 -104 -122 0
-9 -105 -123 0
-7 -106 -124 0
-8 -107 -125 0
-9 -108 -126 0
-7 -109 -127 0
-8 -110 -128 0
-9 -111 -129 0
-1 -10 -25 0
-2 -11 -26 0
-3 -12 -27 0
-4 -10 -28 0
-5 -11 -29 0
-6 -12 -30 0
-7 -10 -31 0
-8 -11 -32 0
-9 -12 -33 0
-10 -34 0
-11 -35 0
-12 -36 0
-10 -13 -37 0
-11 -14 -38 0
-12 -15 -39 0
-10 -16 -40 0
-11 -17 -41 0
-12 -18 -42 0
-10 -19 -43 0
-11 -20 -44 0
-12 -21 -45 0
-10 -22 -46 0
-11 -23 -47 0
-12 -24 -48 0
-10 -25 -49 0
-11 -26 -50 0
-12 -27 -51 0
-10 -28 -52 0
-11 -29 -53 0
-12 -30 -54 0
-10 -31 -55 0
-11 -32 -56 0
-12 -33 -57 0
-10 -34 -58 0
-11 -35 -59 0
-12 -36 -60 0
-10 -37 -61 0
-11 -38 -62 0
-12 -39 -63 0
-10 -40 -64 0
-11 -41 -65 0
-12 -42 -66 0
-10 -43 -67 0
-11 -44 -68 0
-12 -45 -69 0
-10 -46 -70 0
-11 -47 -71 0
-12 -48 -72 0
-10 -49 -73 0
-11 -50 -74 0
-12 -51 -75 0
-10 -52 -76 0
-11 -53 -77 0
-12 -54 -78 0
-10 -55 -79 0
-11 -56 -80 0
-12 -57 -81 0
-10 -58 -82 0
-11 -59 -83 0
-12 -60 -84 0
-10 -61 -85 0
-11 -62 -86 0
-12 -63 -87 0
-10 -64 -88 0
-11 -65 -89 0
-12 -66 -90 0
-10 -67 -91 0
-11 -68 -92 0
-12 -69 -93 0
-10 -70 -94 0
-11 -71 -95 0
-12 -72 -96 0
-10 -73 -97 0
-11 -74 -98 0
-12 -75 -99 0
-10 -76 -100 0
-11 -77 -101 0
-12 -78 -102 0
-10 -79 -103 0
-11 -80 -104 0
-12 -81 -105 0
-10 -82 -106 0
-11 -83 -107 0
-12 -84 -108 0
-10 -85 -109 0
-11 -86 -110 0
-12 -87 -111 0
-10 -88 -112 0
-11 -89 -113 0
-12 -90 -114 0
-10 -91 -115 0
-11 -92 -116 0
-12 -93 -117 0
-10 -94 -118 0
-11 -95 -119 0
-12 -96 -120 0
-10 -97 -121 0
-11 -98 -122 0
-12 -99 -123 0
-10 -100 -124 0
-11 -101 -125 0
-12 -102 -126 0
-10 -103 -127 0
-11 -104 -128 0
-12 -105 -129 0
-1 -13 -31 0
-2 -14 -32 0
-3 -15 -33 0
-4 -13 -34 0
-5 -14 -35 0
-6 -15 -36 0
-7 -13 -37 0
-8 -14 -38 0
-9 -15 -39 0
-10 -13 -40 0
-11 -14 -41 0
-12 -15 -42 0
-13 -43 0
-14 -44 0
-15 -45 0
-13 -16 -46 0
-14 -17 -47 0
-15 -18 -48 0
-13 -19 -49 0
-14 -20 -50 0
-15 -21 -51 0
-13 -22 -52 0
-14 -23 -53 0
-15 -24 -54 0
-13 -25 -55 0
-14 -26 -56 0
-15 -27 -57 0
-13 -28 -58 0
-14 -29 -59 0
-15 -30 -60 0
-13 -31 -61 0
-14 -32 -62 0
-15 -33 -63 0
-13 -34 -64 0
-14 -35 -65 0
-15 -36 -66 0
-13 -37 -67 0
-14 -38 -68 0
-15 -39 -69 0
-13 -40 -70 0
-14 -41 -71 0
-15 -42 -72 0
-13 -43 -73 0
-14 -44 -74 0
-15 -45 -75 0
-13 -46 -76 0
-14 -47 -77 0
-15 -48 -78 0
-13 -49 -79 0
-14 -50 -80 0
-15 -51 -81 0
-13 -52 -82 0
-14 -53 -83 0
-15 -54 -84 0
-13 -55 -85 0
-14 -56 -86 0
-15 -57 -87 0
-13 -58 -88 0
-14 -59 -89 0
-15 -60 -90 0
-13 -61 -91 0
-14 -62 -92 0
-15 -63 -93 0
-13 -64 -94 0
-14 -65 -95 0
-15 -66 -96 0
-13 -67 -97 0
-14 -68 -98 0
-15 -69 -99 0
-13 -70 -100 0
-14 -71 -101 0
-15 -72 -102 0
-13 -73 -103 0
-14 -74 -104 0
-15 -75 -105 0
-13 -76 -106 0
-14 -77 -107 0
-15 -78 -108 0
-13 -79 -109 0
-14 -80 -110 0
-15 -81 -111 0
-13 -82 -112 0
-14 -83 -113 0
-15 -84 -114 0
-13 -85 -115 0
-14 -86 -116 0
-15 -87 -117 0
-13 -88 -118 0
-14 -89 -119 0
-15 -90 -120 0
-13 -91 -121 0
-14 -92 -122 0
-15 -93 -123 0
-13 -94 -124 0
-14 -95 -125 0
-15 -96 -126 0
-13 -97 -127 0
-14 -98 -128 0
-15 -99 -129 0
-1 -16 -37 0
-2 -17 -38 0
-3 -18 -39 0
-4 -16 -40 0
-5 -17 -41 0
-6 -18 -42 0
-7 -16 -43 0
-8 -17 -44 0
-9 -18 -45 0
-10 -16 -46 0
-11 -17 -47 0
-12 -18 -48 0
-13 -16 -49 0
-14 -17 -50 0
-15 -18 -51 0
-16 -52 0
-17 -53 0
-18 -54 0
-16 -19 -55 0
-17 -20 -56 0
-18 -21 -57 0
-16 -22 -58 0
-17 -23 -59 0
-18 -24 -60 0
-16 -25 -61 0
-17 -26 -62 0
-18 -27 -63 0
-16 -28 -64 0
-17 -29 -65 0
-18 -30 -66 0
-16 -31 -67 0
-17 -32 -68 0
-18 -33 -69 0
-16 -34 -70 0
-17 -35 -71 0
-18 -36 -72 0
-16 -37 -73 0
-17 -38 -74 0
-18 -39 -75 0
-16 -40 -76 0
-17 -41 -77 0
-18 -42 -78 0
-16 -43 -79 0
-17 -44 -80 0
-18 -45 -81 0
-16 -46 -82 0
-17 -47 -83 0
-18 -48 -84 0
-16 -49 -85 0
-17 -50 -86 0
-18 -51 -87 0
-16 -52 -88 0
-17 -53 -89 0
-18 -54 -90 0
-16 -55 -91 0
-17 -56 -92 0
-18 -57 -93 0
-16 -58 -94 0
-17 -59 -95 0
-18 -60 -96 0
-16 -61 -97 0
-17 -62 -98 0
-18 -63 -99 0
-16 -64 -100 0
-17 -65 -101 0
-18 -66 -102 0
-16 -67 -103 0
-17 -68 -104 0
-18 -69 -105 0
-16 -70 -106 0
-17 -71 -107 0
-18 -72 -108 0
-16 -73 -109 0
-17 -74 -110 0
-18 -75 -111 0
-16 -76 -112 0
-17 -77 -113 0
-18 -78 -114 0
-16 -79 -115 0
-17 -80 -116 0
-18 -81 -117 0
-16 -82 -118 0
-17 -83 -119 0
-18 -84 -120 0
-16 -85 -121 0
-17 -86 -122 0
-18 -87 -123 0
-16 -88 -124 0
-17 -89 -125 0
-18 -90 -126 0
-16 -91 -127 0
-17 -92 -128 0
-18 -93 -129 0
-1 -19 -43 0
-2 -20 -44 0
-3 -21 -45 0
-4 -19 -46 0
-5 -20 -47 0
-6 -21 -48 0
-7 -19 -49 0
-8 -20 -50 0
-9 -21 -51 0
-10 -19 -52 0
-11 -20 -53 0
-12 -21 -54 0
-13 -19 -55 0
-14 -20 -56 0
-15 -21 -57 0
-16 -19 -58 0
-17 -20 -59 0
-18 -21 -60 0
-19 -61 0
-20 -62 0
-21 -63 0
-19 -22 -64 0
-20 -23 -65 0
-21 -24 -66 0
-19 -25 -67 0
-20 -26 -68 0
-21 -27 -69 0
-19 -28 -70 0
-20 -29 -71 0
-21 -30 -72 0
-19 -31 -73 0
-20 -32 -74 0
-21 -33 -75 0
-19 -34 -76 0
-20 -35 -77 0
-21 -36 -78 0
-19 -37 -79 0
-20 -38 -80 0
-21 -39 -81 0
-19 -40 -82 0
-20 -41 -83 0
-21 -42 -84 0
-19 -43 -85 0
-20 -44 -86 0
-21 -45 -87 0
-19 -46 -88 0
-20 -47 -89 0
-21 -48 -90 0
-19 -49 -91 0
-20 -50 -92 0
-21 -51 -93 0
-19 -52 -94 0
-20 -53 -95 0
-21 -54 -96 0
-19 -55 -97 0
-20 -56 -98 0
-21 -57 -99 0
-19 -58 -100 0
-20 -59 -101 0
-21 -60 -102 0
-19 -61 -103 0
-20 -62 -104 0
-21 -63 -105 0
-19 -64 -106 0
-20 -65 -107 0
-21 -66 -108 0
-19 -67 -109 0
-20 -68 -110 0
-21 -69 -111 0
-19 -70 -112 0
-20 -71 -113 0
-21 -72 -114 0
-19 -73 -115 0
-20 -74 -116 0
-21 -75 -117 0
-19 -76 -118 0
-20 -77 -119 0
-21 -78 -120 0
-19 -79 -121 0
-20 -80 -122 0
-21 -81 -123 0
-19 -82 -124 0
-20 -83 -125 0
-21 -84 -126 0
-19 -85 -127 0
-20 -86 -128 0
-21 -87 -129 0
-1 -22 -49 0
-2 -23 -50 0
-3 -24 -51 0
-4 -22 -52 0
-5 -23 -53 0
-6 -24 -54 0
-7 -22 -55 0
-8 -23 -56 0
-9 -24 -57 0
-10 -22 -58 0
-11 -23 -59 0
-12 -24 -60 0
-13 -22 -61 0
-14 -23 -62 0
-15 -24 -63 0
-16 -22 -64 0
-17 -23 -65 0
-18 -24 -66 0
-19 -22 -67 0
-20 -23 -68 0
-21 -24 -69 0
-22 -70 0
-23 -71 0
-24 -72 0
-22 -25 -73 0
-23 -26 -74 0
-24 -27 -75 0
-22 -28 -76 0
-23 -29 -77 0
-24 -30 -78 0
-22 -31 -79 0
-23 -32 -80 0
-24 -33 -81 0
-22 -34 -82 0
-23 -35 -83 0
-24 -36 -84 0
-22 -37 -85 0
-23 -38 -86 0
-24 -39 -87 0
-22 -40 -88 0
-23 -41 -89 0
-24 -42 -90 0
-22 -43 -91 0
-23 -44 -92 0
-24 -45 -93 0
-22 -46 -94 0
-23 -47 -95 0
-24 -48 -96 0
-22 -49 -97 0
-23 -50 -98 0
-24 -51 -99 0
-22 -52 -100 0
-23 -53 -101 0
-24 -54 -102 0
-22 -55 -103 0
-23 -56 -104 0
-24 -57 -105 0
-22 -58 -106 0
-23 -59 -107 0
-24 -60 -108 0
-22 -61 -109 0
-23 -62 -110 0
-24 -63 -111 0
-22 -64 -112 0
-23 -65 -113 0
-24 -66 -114 0
-22 -67 -115 0
-23 -68 -116 0
-24 -69 -117 0
-22 -70 -118 0
-23 -71 -119 0
-24 -72 -120 0
-22 -73 -121 0
-23 -74 -122 0
-24 -75 -123 0
-22 -76 -124 0
-23 -77 -125 0
-24 -78 -126 0
-22 -79 -127 0
-23 -80 -128 0
-24 -81 -129 0
-1 -25 -55 0
-2 -26 -56 0
-3 -27 -57 0
-4 -25 -58 0
-5 -26 -59 0
-6 -27 -60 0
-7 -25 -61 0
-8 -26 -62 0
-9 -27 -63 0
-10 -25 -64 0
-11 -26 -65 0
-12 -27 -66 0
-13 -25 -67 0
-14 -26 -68 0
-15 -27 -69 0
-16 -25 -70 0
-17 -26 -71 0
-18 -27 -72 0
-19 -25 -73 0
-20 -26 -74 0
-21 -27 -75 0
-22 -25 -76 0
-23 -26 -77 0
-24 -27 -78 0
-25 -79 0
-26 -80 0
-27 -81 0
-25 -28 -82 0
-26 -29 -83 0
-27 -30 -84 0
-25 -31 -85 0
-26 -32 -86 0
-27 -33 -87 0
-25 -34 -88 0
-26 -35 -89 0
-27 -36 -90 0
-25 -37 -91 0
-26 -38 -92 0
-27 -39 -93 0
-25 -40 -94 0
-26 -41 -95 0
-27 -42 -96 0
-25 -43 -97 0
-26 -44 -98 0
-27 -45 -99 0
-25 -46 -100 0
-26 -47 -101 0
-27 -48 -102 0
-25 -49 -103 0
-26 -50 -104 0
-27 -51 -105 0
-25 -52 -106 0
-26 -53 -107 0
-27 -54 -108 0
-25 -55 -109 0
-26 -56 -110 0
-27 -57 -111 0
-25 -58 -112 0
-26 -59 -113 0
-27 -60 -114 0
-25 -61 -115 0
-26 -62 -116 0
-27 -63 -117 0
-25 -64 -118 0
-26 -65 -119 0
-27 -66 -120 0
-25 -67 -121 0
-26 -68 -122 0
-27 -69 -123 0
-25 -70 -124 0
-26 -71 -125 0
-27 -72 -126 0
-25 -73 -127 0
-26 -74 -128 0
-27 -75 -129 0
-1 -28 -61 0
-2 -29 -62 0
-3 -30 -63 0
-4 -28 -64 0
-5 -29 -65 0
-6 -30 -66 0
-7 -28 -67 0
-8 -29 -68 0
-9 -30 -69 0
-10 -28 -70 0
-11 -29 -71 0
-12 -30 -72 0
-13 -28 -73 0
-14 -29 -74 0
-15 -30 -75 0
-16 -28 -76 0
-17 -29 -77 0
-18 -30 -78 0
-19 -28 -79 0
-20 -29 -80 0
-21 -30 -81 0
-22 -28 -82 0
-23 -29 -83 0
-24 -30 -84 0
-25 -28 -85 0
-26 -29 -86 0
-27 -30 -87 0
-28 -88 0
-29 -89 0
-30 -90 0
-28 -31 -91 0
-29 -32 -92 0
-30 -33 -93 0
-28 -34 -94 0
-29 -35 -95 0
-30 -36 -96 0
-28 -37 -97 0
-29 -38 -98 0
-30 -39 -99 0
-28 -40 -100 0
-29 -41 -101 0
-30 -42 -102 0
-28 -43 -103 0
-29 -44 -104 0
-30 -45 -105 0
-28 -46 -106 0
-29 -47 -107 0
-30 -48 -108 0
-28 -49 -109 0
-29 -50 -110 0
-30 -51 -111 0
-28 -52 -112 0
-29 -53 -113 0
-30 -54 -114 0
-28 -55 -115 0
-29 -56 -116 0
-30 -57 -117 0
-28 -58 -118 0
-29 -59 -119 0
-30 -60 -120 0
-28 -61 -121 0
-29 -62 -122 0
-30 -63 -123 0
-28 -64 -124 0
-29 -65 -125 0
-30 -66 -126 0
-28 -67 -127 0
-29 -68 -128 0
-30 -69 -129 0
-1 -31 -67 0
-2 -32 -68 0
-3 -33 -69 0
-4 -31 -70 0
-5 -32 -71 0
-6 -33 -72 0
-7 -31 -73 0
-8 -32 -74 0
-9 -33 -75 0
-10 -31 -76 0
-11 -32 -77 0
-12 -33 -78 0
-13 -31 -79 0
-14 -32 -80 0
-15 -33 -81 0
-16 -31 -82 0
-17 -32 -83 0
-18 -33 -84 0
-19 -31 -85 0
-20 -32 -86 0
-21 -33 -87 0
-22 -31 -88 0
-23 -32 -89 0
-24 -33 -90 0
-25 -31 -91 0
-26 -32 -92 0
-27 -33 -93 0
-28 -31 -94 0
-29 -32 -95 0
-30 -33 -96 0
-31 -97 0
-32 -98 0
-33 -99 0
-31 -34 -100 0
-32 -35 -101 0
-33 -36 -102 0
-31 -37 -103 0
-32 -38 -104 0
-33 -39 -105 0
-31 -40 -106 0
-32 -41 -107 0
-33 -42 -108 0
-31 -43 -109 0
-32 -44 -110 0
-33 -45 -111 0
-31 -46 -112 0
-32 -47 -113 0
-33 -48 -114 0
-31 -49 -115 0
-32 -50 -116 0
-33 -51 -117 0
-31 -52 -118 0
-32 -53 -119 0
-33 -54 -120 0
-31 -55 -121 0
-32 -56 -122 0
-33 -57 -123 0
-31 -58 -124 0
-32 -59 -125 0
-33 -60 -126 0
-31 -61 -127 0
-32 -62 -128 0
-33 -63 -129 0
-1 -34 -73 0
-2 -35 -74 0
-3 -36 -75 0
-4 -34 -76 0
-5 -35 -77 0
-6 -36 -78 0
-7 -34 -79 0
-8 -35 -80 0
-9 -36 -81 0
-10 -34 -82 0
-11 -35 -83 0
-12 -36 -84 0
-13 -34 -85 0
-14 -35 -86 0
-15 -36 -87 0
-16 -34 -88 0
-17 -35 -89 0
-18 -36 -90 0
-19 -34 -91 0
-20 -35 -92 0
-21 -36 -93 0
-22 -34 -94 0
-23 -35 -95 0
-24 -36 -96 0
-25 -34 -97 0
-26 -35 -98 0
-27 -36 -99 0
-28 -34 -100 0
-29 -35 -101 0
-30 -36 -102 0
-31 -34 -103 0
-32 -35 -104 0
-33 -36 -105 0
-34 -106 0
-35 -107 0
-36 -108 0
-34 -37 -109 0
-35 -38 -110 0
-36 -39 -111 0
-34 -40 -112 0
-35 -41 -113 0
-36 -42 -114 0
-34 -43 -115 0
-35 -44 -116 0
-36 -45 -117 0
-34 -46 -118 0
-35 -47 -119 0
-36 -48 -120 0
-34 -49 -121 0
-35 -50 -122 0
-36 -51 -123 0
-34 -52 -124 0
-35 -53 -125 0
-36 -54 -126 0
-34 -55 -127 0
-35 -56 -128 0
-36 -57 -129 0
-1 -37 -79 0
-2 -38 -80 0
-3 -39 -81 0
-4 -37 -82 0
-5 -38 -83 0
-6 -39 -84 0
-7 -37 -85 0
-8 -38 -86 0
-9 -39 -87 0
-10 -37 -88 0
-11 -38 -89 0
-12 -39 -90 0
-13 -37 -91 0
-14 -38 -92 0
-15 -39 -93 0
-16 -37 -94 0
-17 -38 -95 0
-18 -39 -96 0
-19 -37 -97 0
-20 -38 -98 0
-21 -39 -99 0
-22 -37 -100 0
-23 -38 -101 0
-24 -39 -102 0
-25 -37 -103 0
-26 -38 -104 0
-27 -39 -105 0
-28 -37 -106 0
-29 -38 -107 0
-30 -39 -108 0
-31 -37 -109 0
-32 -38 -110 0
-33 -39 -111 0
-34 -37 -112 0
-35 -38 -113 0
-36 -39 -114 0
-37 -115 0
-38 -116 0
-39 -117 0
-37 -40 -118 0
-38 -41 -119 0
-39 -42 -120 0
-37 -43 -121 0
-38 -44 -122 0
-39 -45 -123 0
-37 -46 -124 0
-38 -47 -125 0
-39 -48 -126 0
-37 -49 -127 0
-38 -50 -128 0
-39 -51 -129 0
-1 -40 -85 0
-2 -41 -86 0
-3 -42 -87 0
-4 -40 -88 0
-5 -41 -89 0
-6 -42 -90 0
-7 -40 -91 0
-8 -41 -92 0
-9 -42 -93 0
-10 -40 -94 0
-11 -41 -95 0
-12 -42 -96 0
-13 -40 -97 0
-14 -41 -98 0
-15 -42 -99 0
-16 -40 -100 0
-17 -41 -101 0
-18 -42 -102 0
-19 -40 -103 0
-20 -41 -104 0
-21 -42 -105 0
-22 -40 -106 0
-23 -41 -107 0
-24 -42 -108 0
-25 -40 -109 0
-26 -41 -110 0
-27 -42 -111 0
-28 -40 -112 0
-29 -41 -113 0
-30 -42 -114 0
-31 -40 -115 0
-32 -41 -116 0
-33 -42 -117 0
-34 -40 -118 0
-35 -41 -119 0
-36 -42 -120 0
-37 -40 -121 0
-38 -41 -122 0
-39 -42 -123 0
-40 -124 0
-41 -125 0
-42 -126 0
-40 -43 -127 0
-41 -44 -128 0
-42 -45 -129 0
-1 -43 -91 0
-2 -44 -92 0
-3 -45 -93 0
-4 -43 -94 0
-5 -44 -95 0
-6 -45 -96 0
-7 -43 -97 0
-8 -44 -98 0
-9 -45 -99 0
-10 -43 -100 0
-11 -44 -101 0
-12 -45 -102 0
-13 -43 -103 0
-14 -44 -104 0
-15 -45 -105 0
-16 -43 -106 0
-17 -44 -107 0
-18 -45 -108 0
-19 -43 -109 0
-20 -44 -110 0
-21 -45 -111 0
-22 -43 -112 0
-23 -44 -113 0
-24 -45 -114 0
-25 -43 -115 0
-26 -44 -116 0
-27 -45 -117 0
-28 -43 -118 0
-29 -44 -119 0
-30 -45 -120 0
-31 -43 -121 0
-32 -44 -122 0
-33 -45 -123 0
-34 -43 -124 0
-35 -44 -125 0
-36 -45 -126 0
-37 -43 -127 0
-38 -44 -128 0
-39 -45 -129 0
-1 -46 -97 0
-2 -47 -98 0
-3 -48 -99 0
-4 -46 -100 0
-5 -47 -101 0
-6 -48 -102 0
-7 -46 -103 0
-8 -47 -104 0
-9 -48 -105 0
-10 -46 -106 0
-11 -47 -107 0
-12 -48 -108 0
-13 -46 -109 0
-14 -47 -110 0
-15 -48 -111 0
-16 -46 -112 0
-17 -47 -113 0
-18 -48 -114 0
-19 -46 -115 0
-20 -47 -116 0
-21 -48 -117 0
-22 -46 -118 0
-23 -47 -119 0
-24 -48 -120 0
-25 -46 -121 0
-26 -47 -122 0
-27 -48 -123 0
-28 -46 -124 0
-29 -47 -125 0
-30 -48 -126 0
-31 -46 -127 0
-32 -47 -128 0
-33 -48 -129 0
-1 -49 -103 0
-2 -50 -104 0
-3 -51 -105 0
-4 -49 -106 0
-5 -50 -107 0
-6 -51 -108 0
-7 -49 -109 0
-8 -50 -110 0
-9 -51 -111 0
-10 -49 -112 0
-11 -50 -113 0
-12 -51 -114 0
-13 -49 -115 0
-14 -50 -116 0
-15 -51 -117 0
-16 -49 -118 0
-17 -50 -119 0
-18 -51 -120 0
-19 -49 -121 0
-20 -50 -122 0
-21 -51 -123 0
-22 -49 -124 0
-23 -50 -125 0
-24 -51 -126 0
-25 -49 -127 0
-26 -50 -128 0
-27 -51 -129 0
-1 -52 -109 0
-2 -53 -110 0
-3 -54 -111 0
-4 -52 -112 0
-5 -53 -113 0
-6 -54 -114 0
-7 -52 -115 0
-8 -53 -116 0
-9 -54 -117 0
-10 -52 -118 0
-11 -53 -119 0
-12 -54 -120 0
-13 -52 -121 0
-14 -53 -122 0
-15 -54 -123 0
-16 -52 -124 0
-17 -53 -125 0
-18 -54 -126 0
-19 -52 -127 0
-20 -53 -128 0
-21 -54 -129 0
-1 -55 -115 0
-2 -56 -116 0
-3 -57 -117 0
-4 -55 -118 0
-5 -56 -119 0
-6 -57 -120 0
-7 -55 -121 0
-8 -56 -122 0
-9 -57 -123 0
-10 -55 -124 0
-11 -56 -125 0
-12 -57 -126 0
-13 -55 -127 0
-14 -56 -128 0
-15 -57 -129 0
-1 -58 -121 0
-2 -59 -122 0
-3 -60 -123 0
-4 -58 -124 0
-5 -59 -125 0
-6 -60 -126 0
-7 -58 -127 0
-8 -59 -128 0
-9 -60 -129 0
-1 -61 -127 0
-2 -62 -128 0
-3 -63 -129 0
-1 -2 0
-1 -3 0
-2 -3 0
-4 -5 0
-4 -6 0
-5 -6 0
-7 -8 0
-7 -9 0
-8 -9 0
-10 -11 0
-10 -12 0
-11 -12 0
-13 -14 0
-13 -15 0
-14 -15 0
-16 -17 0
-16 -18 0
-17 -18 0
-19 -20 0
-19 -21 0
-20 -21 0
-22 -23 0
-22 -24 0
-23 -24 0
-25 -26 0
-25 -27 0
-26 -27 0
-28 -29 0
-28 -30 0
-29 -30 0
-31 -32 0
-31 -33 0
-32 -33 0
-34 -35 0
-34 -36 0
-35 -36 0
-37 -38 0
-37 -39 0
-38 -39 0
-40 -41 0
-40 -42 0
-41 -42 0
-43 -44 0
-43 -45 0
-44 -45 0
-46 -47 0
-46 -48 0
-47 -48 0
-49 -50 0
-49 -51 0
-50 -51 0
-52 -53 0
-52 -54 0
-53 -54 0
-55 -56 0
-55 -57 0
-56 -57 0
-58 -59 0
-58 -60 0
-59 -60 0
-61 -62 0
-61 -63 0
-62 -63 0
-64 -65 0
-64 -66 0
-65 -66 0
-67 -68 0
-67 -69 0
-68 -69 0
-70 -71 0
-70 -72 0
-71 -72 0
-73 -74 0
-73 -75 0
-74 -75 0
-76 -77 0
-76 -78 0
-77 -78 0
-79 -80 0
-79 -81 0
-80 -81 0
-82 -83 0
-82 -84 0
-83 -84 0
-85 -86 0
-85 -87 0
-86 -87 0
-88 -89 0
-88 -90 0
-89 -90 0
-91 -92 0
-91 -93 0
-92 -93 0
-94 -95 0
-94 -96 0
-95 -96 0
-97 -98 0
-97 -99 0
-98 -99 0
-100 -101 0
-100 -102 0
-101 -102 0
-103 -104 0
-103 -105 0
-104 -105 0
-106 -107 0
-106 -108 0
-107 -108 0
-109 -110 0
-109 -111 0
-110 -111 0
-112 -113 0
-112 -114 0
-113 -114 0
-115 -116 0
-115 -117 0
-116 -117 0
-118 -119 0
-118 -120 0
-119 -120 0
-121 -122 0
-121 -123 0
-122 -123 0
-124 -125 0
-124 -126 0
-125 -126 0
-127 -128 0
-127 -129 0
-128 -129 0
1 0
-5 1 0
-6 0
-8 1 4 0
-9 2 5 0
-11 1 4 7 0
-12 2 5 8 0
-14 1 4 7 10 0
-15 2 5 8 11 0
-17 1 4 7 10 13 0
-18 2 5 8 11 14 0
-20 1 4 7 10 13 16 0
-21 2 5 8 11 14 17 0
-23 1 4 7 10 13 16 19 0
-24 2 5 8 11 14 17 20 0
-26 1 4 7 10 13 16 19 22 0
-27 2 5 8 11 14 17 20 23 0
-29 1 4 7 10 13 16 19 22 25 0
-30 2 5 8 11 14 17 20 23 26 0
-32 1 4 7 10 13 16 19 22 25 28 0
-33 2 5 8 11 14 17 20 23 26 29 0
-35 1 4 7 10 13 16 19 22 25 28 31 0
-36 2 5 8 11 14 17 20 23 26 29 32 0
-38 1 4 7 10 13 16 19 22 25 28 31 34 0
-39 2 5 8 11 14 17 20 23 26 29 32 35 0
-41 1 4 7 10 13 16 19 22 25 28 31 34 37 0
-42 2 5 8 11 14 17 20 23 26 29 32 35 38 0
-44 1 4 7 10 13 16 19 22 25 28 31 34 37 40 0
-45 2 5 8 11 14 17 20 23 26 29 32 35 38 41 0
-47 1 4 7 10 13 16 19 22 25 28 31 34 37 40 43 0
-48 2 5 8 11 14 17 20 23 26 29 32 35 38 41 44 0
-50 1 4 7 10 13 16 19 22 25 28 31 34 37 40 43 46 0
-51 2 5 8 11 14 17 20 23 26 29 32 35 38 41 44 47 0
-53 1 4 7 10 13 16 19 22 25 28 31 34 37 40 43 46 49 0
-54 2 5 8 11 14 17 20 23 26 29 32 35 38 41 44 47 50 0
-56 1 4 7 10 13 16 19 22 25 28 31 34 37 40 43 46 49 52 0
-57 2 5 8 11 14 17 20 23 26 29 32 35 38 41 44 47 50 53 0
-59 1 4 7 10 13 16 19 22 25 28 31 34 37 40 43 46 49 52 55 0
-60 2 5 8 11 14 17 20 23 26 29 32 35 38 41 44 47 50 53 56 0
-62 1 4 7 10 13 16 19 22 25 28 31 34 37 40 43 46 49 52 55 58 0
-63 2 5 8 11 14 17 20 23 26 29 32 35 38 41 44 47 50 53 56 59 0
-65 1 4 7 10 13 16 19 22 25 28 31 34 37 40 43 46 49 52 55 58 61 0
-66 2 5 8 11 14 17 20 23 26 29 32 35 38 41 44 47 50 53 56 59 62 0
-68 1 4 7 10 13 16 19 22 25 28 31 34 37 40 43 46 49 52 55 58 61 64 0
-69 2 5 8 11 14 17 20 23 26 29 32 35 38 41 44 47 50 53 56 59 62 65 0
-71 1 4 7 10 13 16 19 22 25 28 31 34 37 40 43 46 49 52 55 58 61 64 67 0
-72 2 5 8 11 14 17 20 23 26 29 32 35 38 41 44 47 50 53 56 59 62 65 68 0
-74 1 4 7 10 13 16 19 22 25 28 31 34 37 40 43 46 49 52 55 58 61 64 67 70 0
-75 2 5 8 11 14 17 20 23 26 29 32 35 38 41 44 47 50 53 56 59 62 65 68 71 0
-77 1 4 7 10 13 16 19 22 25 28 31 34 37 40 43 46 49 52 55 58 61 64 67 70 73 0
-78 2 5 8 11 14 17 20 23 26 29 32 35 38 41 44 47 50 53 56 59 62 65 68 71 74 0
-80 1 4 7 10 13 16 19 22 25 28 31 34 37 40 43 46 49 52 55 58 61 64 67 70 73 76 0
-81 2 5 8 11 14 17 20 23 26 29 32 35 38 41 44 47 50 53 56 59 62 65 68 71 74 77 0
-83 1 4 7 10 13 16 19 22 25 28 31 34 37 40 43 46 49 52 55 58 61 64 67 70 73 76 79 0
-84 2 5 8 11 14 17 20 23 26 29 32 35 38 41 44 47 50 53 56 59 62 65 68 71 74 77 80 0
-86 1 4 7 10 13 16 19 22 25 28 31 34 37 40 43 46 49 52 55 58 61 64 67 70 73 76 79 82 0
-87 2 5 8 11 14 17 20 23 26 29 32 35 38 41 44 47 50 53 56 59 62 65 68 71 74 77 80 83 0
-89 1 4 7 10 13 16 19 22 25 28 31 34 37 40 43 46 49 52 55 58 61 64 67 70 73 76 79 82 85 0
-90 2 5 8 11 14 17 20 23 26 29 32 35 38 41 44 47 50 53 56 59 62 65 68 71 74 77 80 83 86 0
-92 1 4 7 10 13 16 19 22 25 28 31 34 37 40 43 46 49 52 55 58 61 64 67 70 73 76 79 82 85 88 0
-93 2 5 8 11 14 17 20 23 26 29 32 35 38 41 44 47 50 53 56 59 62 65 68 71 74 77 80 83 86 89 0
-95 1 4 7 10 13 16 19 22 25 28 31 34 37 40 43 46 49 52 55 58 61 64 67 70 73 76 79 82 85 88 91 0
-96 2 5 8 11 14 17 20 23 26 29 32 35 38 41 44 47 50 53 56 59 62 65 68 71 74 77 80 83 86 89 92 0
-98 1 4 7 10 13 16 19 22 25 28 31 34 37 40 43 46 49 52 55 58 61 64 67 70 73 76 79 82 85 88 91 94 0
-99 2 5 8 11 14 17 20 23 26 29 32 35 38 41 44 47 50 53 56 59 62 65 68 71 74 77 80 83 86 89 92 95 0
-101 1 4 7 10 13 16 19 22 25 28 31 34 37 40 43 46 49 52 55 58 61 64 67 70 73 76 79 82 85 88 91 94 97 0
-102 2 5 8 11 14 17 20 23 26 29 32 35 38 41 44 47 50 53 56 59 62 65 68 71 74 77 80 83 86 89 92 95 98 0
-104 1 4 7 10 13 16 19 22 25 28 31 34 37 40 43 46 49 52 55 58 61 64 67 70 73 76 79 82 85 88 91 94 97 100 0
-105 2 5 8 11 14 17 20 23 26 29 32 35 38 41 44 47 50 53 56 59 62 65 68 71 74 77 80 83 86 89 92 95 98 101 0
-107 1 4 7 10 13 16 19 22 25 28 31 34 37 40 43 46 49 52 55 58 61 64 67 70 73 76 79 82 85 88 91 94 97 100 103 0
-108 2 5 8 11 14 17 20 23 26 29 32 35 38 41 44 47 50 53 56 59 62 65 68 71 74 77 80 83 86 89 92 95 98 101 104 0
-110 1 4 7 10 13 16 19 22 25 28 31 34 37 40 43 46 49 52 55 58 61 64 67 70 73 76 79 82 85 88 91 94 97 100 103 106 0
-111 2 5 8 11 14 17 20 23 26 29 32 35 38 41 44 47 50 53 56 59 62 65 68 71 74 77 80 83 86 89 92 95 98 101 104 107 0
-113 1 4 7 10 13 16 19 22 25 28 31 34 37 40 43 46 49 52 55 58 61 64 67 70 73 76 79 82 85 88 91 94 97 100 103 106 109 0
-114 2 5 8 11 14 17 20 23 26 29 32 35 38 41 44 47 50 53 56 59 62 65 68 71 74 77 80 83 86 89 92 95 98 101 104 107 110 0
-116 1 4 7 10 13 16 19 22 25 28 31 34 37 40 43 46 49 52 55 58 61 64 67 70 73 76 79 82 85 88 91 94 97 100 103 106 109 112 0
-117 2 5 8 11 14 17 20 23 26 29 32 35 38 41 44 47 50 53 56 59 62 65 68 71 74 77 80 83 86 89 92 95 98 101 104 107 110 113 0
-119 1 4 7 10 13 16 19 22 25 28 31 34 37 40 43 46 49 52 55 58 61 64 67 70 73 76 79 82 85 88 91 94 97 100 103 106 109 112 115 0
-120 2 5 8 11 14 17 20 23 26 29 32 35 38 41 44 47 50 53 56 59 62 65 68 71 74 77 80 83 86 89 92 95 98 101 104 107 110 113 116 0
-122 1 4 7 10 13 16 19 22 25 28 31 34 37 40 43 46 49 52 55 58 61 64 67 70 73 76 79 82 85 88 91 94 97 100 103 106 109 112 115 118 0
-123 2 5 8 11 14 17 20 23 26 29 32 35 38 41 44 47 50 53 56 59 62 65 68 71 74 77 80 83 86 89 92 95 98 101 104 107 110 113 116 119 0
-125 1 4 7 10 13 16 19 22 25 28 31 34 37 40 43 46 49 52 55 58 61 64 67 70 73 76 79 82 85 88 91 94 97 100 103 106 109 112 115 118 121 0
-126 2 5 8 11 14 17 20 23 26 29 32 35 38 41 44 47 50 53 56 59 62 65 68 71 74 77 80 83 86 89 92 95 98 101 104 107 110 113 116 119 122 0
-128 1 4 7 10 13 16 19 22 25 28 31 34 37 40 43 46 49 52 55 58 61 64 67 70 73 76 79 82 85 88 91 94 97 100 103 106 109 112 115 118 121 124 0
-129 2 5 8 11 14 17 20 23 26 29 32 35 38 41 44 47 50 53 56 59 62 65 68 71 74 77 80 83 86 89 92 95 98 101 104 107 110 113 116 119 122 125 0
