p cnf 180 4408
1 2 3 4 0
5 6 7 8 0
9 10 11 12 0
13 14 15 16 0
17 18 19 20 0
21 22 23 24 0
25 26 27 28 0
29 30 31 32 0
33 34 35 36 0
37 38 39 40 0
41 42 43 44 0
45 46 47 48 0
49 50 51 52 0
53 54 55 56 0
57 58 59 60 0
61 62 63 64 0
65 66 67 68 0
69 70 71 72 0
73 74 75 76 0
77 78 79 80 0
81 82 83 84 0
85 86 87 88 0
89 90 91 92 0
93 94 95 96 0
97 98 99 100 0
101 102 103 104 0
105 106 107 108 0
109 110 111 112 0
113 114 115 116 0
117 118 119 120 0
121 122 123 124 0
125 126 127 128 0
129 130 131 132 0
133 134 135 136 0
137 138 139 140 0
141 142 143 144 0
145 146 147 148 0
149 150 151 152 0
153 154 155 156 0
157 158 159 160 0
161 162 163 164 0
165 166 167 168 0
169 170 171 172 0
173 174 175 176 0
177 178 179 180 0
-1 -5 0
-2 -6 0
-3 -7 0
-4 -8 0
-1 -5 -9 0
-2 -6 -10 0
-3 -7 -11 0
-4 -8 -12 0
-1 -9 -13 0
-2 -10 -14 0
-3 -11 -15 0
-4 -12 -16 0
-1 -13 -17 0
-2 -14 -18 0
-3 -15 -19 0
-4 -16 -20 0
-1 -17 -21 0
-2 -18 -22 0
-3 -19 -23 0
-4 -20 -24 0
-1 -21 -25 0
-2 -22 -26 0
-3 -23 -27 0
-4 -24 -28 0
-1 -25 -29 0
-2 -26 -30 0
-3 -27 -31 0
-4 -28 -32 0
-1 -29 -33 0
-2 -30 -34 0
-3 -31 -35 0
-4 -32 -36 0
-1 -33 -37 0
-2 -34 -38 0
-3 -35 -39 0
-4 -36 -40 0
-1 -37 -41 0
-2 -38 -42 0
-3 -39 -43 0
-4 -40 -44 0
-1 -41 -45 0
-2 -42 -46 0
-3 -43 -47 0
-4 -44 -48 0
-1 -45 -49 0
-2 -46 -50 0
-3 -47 -51 0
-4 -48 -52 0
-1 -49 -53 0
-2 -50 -54 0
-3 -51 -55 0
-4 -52 -56 0
-1 -53 -57 0
-2 -54 -58 0
-3 -55 -59 0
-4 -56 -60 0
-1 -57 -61 0
-2 -58 -62 0
-3 -59 -63 0
-4 -60 -64 0
-1 -61 -65 0
-2 -62 -66 0
-3 -63 -67 0
-4 -64 -68 0
-1 -65 -69 0
-2 -66 -70 0
-3 -67 -71 0
-4 -68 -72 0
-1 -69 -73 0
-2 -70 -74 0
-3 -71 -75 0
-4 -72 -76 0
-1 -73 -77 0
-2 -74 -78 0
-3 -75 -79 0
-4 -76 -80 0
-1 -77 -81 0
-2 -78 -82 0
-3 -79 -83 0
-4 -80 -84 0
-1 -81 -85 0
-2 -82 -86 0
-3 -83 -87 0
-4 -84 -88 0
-1 -85 -89 0
-2 -86 -90 0
-3 -87 -91 0
-4 -88 -92 0
-1 -89 -93 0
-2 -90 -94 0
-3 -91 -95 0
-4 -92 -96 0
-1 -93 -97 0
-2 -94 -98 0
-3 -95 -99 0
-4 -96 -100 0
-1 -97 -101 0
-2 -98 -102 0
-3 -99 -103 0
-4 -100 -104 0
-1 -101 -105 0
-2 -102 -106 0
-3 -103 -107 0
-4 -104 -108 0
-1 -105 -109 0
-2 -106 -110 0
-3 -107 -111 0
-4 -108 -112 0
-1 -109 -113 0
-2 -110 -114 0
-3 -111 -115 0
-4 -112 -116 0
-1 -113 -117 0
-2 -114 -118 0
-3 -115 -119 0
-4 -116 -120 0
-1 -117 -121 0
-2 -118 -122 0
-3 -119 -123 0
-4 -120 -124 0
-1 -121 -125 0
-2 -122 -126 0
-3 -123 -127 0
-4 -124 -128 0
-1 -125 -129 0
-2 -126 -130 0
-3 -127 -131 0
-4 -128 -132 0
-1 -129 -133 0
-2 -130 -134 0
-3 -131 -135 0
-4 -132 -136 0
-1 -133 -137 0
-2 -134 -138 0
-3 -135 -139 0
-4 -136 -140 0
-1 -137 -141 0
-2 -138 -142 0
-3 -139 -143 0
-4 -140 -144 0
-1 -141 -145 0
-2 -142 -146 0
-3 -143 -147 0
-4 -144 -148 0
-1 -145 -149 0
-2 -146 -150 0
-3 -147 -151 0
-4 -148 -152 0
-1 -149 -153 0
-2 -150 -154 0
-3 -151 -155 0
-4 -152 -156 0
-1 -153 -157 0
-2 -154 -158 0
-3 -155 -159 0
-4 -156 -160 0
-1 -157 -161 0
-2 -158 -162 0
-3 -159 -163 0
-4 -160 -164 0
-1 -161 -165 0
-2 -162 -166 0
-3 -163 -167 0
-4 -164 -168 0
-1 -165 -169 0
-2 -166 -170 0
-3 -167 -171 0
-4 -168 -172 0
-1 -169 -173 0
-2 -170 -174 0
-3 -171 -175 0
-4 -172 -176 0
-1 -173 -177 0
-2 -174 -178 0
-3 -175 -179 0
-4 -176 -180 0
-1 -5 -9 0
-2 -6 -10 0
-3 -7 -11 0
-4 -8 -12 0
-5 -13 0
-6 -14 0
-7 -15 0
-8 -16 0
-5 -9 -17 0
-6 -10 -18 0
-7 -11 -19 0
-8 -12 -20 0
-5 -13 -21 0
-6 -14 -22 0
-7 -15 -23 0
-8 -16 -24 0
-5 -17 -25 0
-6 -18 -26 0
-7 -19 -27 0
-8 -20 -28 0
-5 -21 -29 0
-6 -22 -30 0
-7 -23 -31 0
-8 -24 -32 0
-5 -25 -33 0
-6 -26 -34 0
-7 -27 -35 0
-8 -28 -36 0
-5 -29 -37 0
-6 -30 -38 0
-7 -31 -39 0
-8 -32 -40 0
-5 -33 -41 0
-6 -34 -42 0
-7 -35 -43 0
-8 -36 -44 0
-5 -37 -45 0
-6 -38 -46 0
-7 -39 -47 0
-8 -40 -48 0
-5 -41 -49 0
-6 -42 -50 0
-7 -43 -51 0
-8 -44 -52 0
-5 -45 -53 0
-6 -46 -54 0
-7 -47 -55 0
-8 -48 -56 0
-5 -49 -57 0
-6 -50 -58 0
-7 -51 -59 0
-8 -52 -60 0
-5 -53 -61 0
-6 -54 -62 0
-7 -55 -63 0
-8 -56 -64 0
-5 -57 -65 0
-6 -58 -66 0
-7 -59 -67 0
-8 -60 -68 0
-5 -61 -69 0
-6 -62 -70 0
-7 -63 -71 0
-8 -64 -72 0
-5 -65 -73 0
-6 -66 -74 0
-7 -67 -75 0
-8 -68 -76 0
-5 -69 -77 0
-6 -70 -78 0
-7 -71 -79 0
-8 -72 -80 0
-5 -73 -81 0
-6 -74 -82 0
-7 -75 -83 0
-8 -76 -84 0
-5 -77 -85 0
-6 -78 -86 0
-7 -79 -87 0
-8 -80 -88 0
-5 -81 -89 0
-6 -82 -90 0
-7 -83 -91 0
-8 -84 -92 0
-5 -85 -93 0
-6 -86 -94 0
-7 -87 -95 0
-8 -88 -96 0
-5 -89 -97 0
-6 -90 -98 0
-7 -91 -99 0
-8 -92 -100 0
-5 -93 -101 0
-6 -94 -102 0
-7 -95 -103 0
-8 -96 -104 0
-5 -97 -105 0
-6 -98 -106 0
-7 -99 -107 0
-8 -100 -108 0
-5 -101 -109 0
-6 -102 -110 0
-7 -103 -111 0
-8 -104 -112 0
-5 -105 -113 0
-6 -106 -114 0
-7 -107 -115 0
-8 -108 -116 0
-5 -109 -117 0
-6 -110 -118 0
-7 -111 -119 0
-8 -112 -120 0
-5 -113 -121 0
-6 -114 -122 0
-7 -115 -123 0
-8 -116 -124 0
-5 -117 -125 0
-6 -118 -126 0
-7 -119 -127 0
-8 -120 -128 0
-5 -121 -129 0
-6 -122 -130 0
-7 -123 -131 0
-8 -124 -132 0
-5 -125 -133 0
-6 -126 -134 0
-7 -127 -135 0
-8 -128 -136 0
-5 -129 -137 0
-6 -130 -138 0
-7 -131 -139 0
-8 -132 -140 0
-5 -133 -141 0
-6 -134 -142 0
-7 -135 -143 0
-8 -136 -144 0
-5 -137 -145 0
-6 -138 -146 0
-7 -139 -147 0
-8 -140 -148 0
-5 -141 -149 0
-6 -142 -150 0
-7 -143 -151 0
-8 -144 -152 0
-5 -145 -153 0
-6 -146 -154 0
-7 -147 -155 0
-8 -148 -156 0
-5 -149 -157 0
-6 -150 -158 0
-7 -151 -159 0
-8 -152 -160 0
-5 -153 -161 0
-6 -154 -162 0
-7 -155 -163 0
-8 -156 -164 0
-5 -157 -165 0
-6 -158 -166 0
-7 -159 -167 0
-8 -160 -168 0
-5 -161 -169 0
-6 -162 -170 0
-7 -163 -171 0
-8 -164 -172 0
-5 -165 -173 0
-6 -166 -174 0
-7 -167 -175 0
-8 -168 -176 0
-5 -169 -177 0
-6 -170 -178 0
-7 -171 -179 0
-8 -172 -180 0
-1 -9 -13 0
-2 -10 -14 0
-3 -11 -15 0
-4 -12 -16 0
-5 -9 -17 0
-6 -10 -18 0
-7 -11 -19 0
-8 -12 -20 0
-9 -21 0
-10 -22 0
-11 -23 0
-12 -24 0
-9 -13 -25 0
-10 -14 -26 0
-11 -15 -27 0
-12 -16 -28 0
-9 -17 -29 0
-10 -18 -30 0
-11 -19 -31 0
-12 -20 -32 0
-9 -21 -33 0
-10 -22 -34 0
-11 -23 -35 0
-12 -24 -36 0
-9 -25 -37 0
-10 -26 -38 0
-11 -27 -39 0
-12 -28 -40 0
-9 -29 -41 0
-10 -30 -42 0
-11 -31 -43 0
-12 -32 -44 0
-9 -33 -45 0
-10 -34 -46 0
-11 -35 -47 0
-12 -36 -48 0
-9 -37 -49 0
-10 -38 -50 0
-11 -39 -51 0
-12 -40 -52 0
-9 -41 -53 0
-10 -42 -54 0
-11 -43 -55 0
-12 -44 -56 0
-9 -45 -57 0
-10 -46 -58 0
-11 -47 -59 0
-12 -48 -60 0
-9 -49 -61 0
-10 -50 -62 0
-11 -51 -63 0
-12 -52 -64 0
-9 -53 -65 0
-10 -54 -66 0
-11 -55 -67 0
-12 -56 -68 0
-9 -57 -69 0
-10 -58 -70 0
-11 -59 -71 0
-12 -60 -72 0
-9 -61 -73 0
-10 -62 -74 0
-11 -63 -75 0
-12 -64 -76 0
-9 -65 -77 0
-10 -66 -78 0
-11 -67 -79 0
-12 -68 -80 0
-9 -69 -81 0
-10 -70 -82 0
-11 -71 -83 0
-12 -72 -84 0
-9 -73 -85 0
-10 -74 -86 0
-11 -75 -87 0
-12 -76 -88 0
-9 -77 -89 0
-10 -78 -90 0
-11 -79 -91 0
-12 -80 -92 0
-9 -81 -93 0
-10 -82 -94 0
-11 -83 -95 0
-12 -84 -96 0
-9 -85 -97 0
-10 -86 -98 0
-11 -87 -99 0
-12 -88 -100 0
-9 -89 -101 0
-10 -90 -102 0
-11 -91 -103 0
-12 -92 -104 0
-9 -93 -105 0
-10 -94 -106 0
-11 -95 -107 0
-12 -96 -108 0
-9 -97 -109 0
-10 -98 -110 0
-11 -99 -111 0
-12 -100 -112 0
-9 -101 -113 0
-10 -102 -114 0
-11 -103 -115 0
-12 -104 -116 0
-9 -105 -117 0
-10 -106 -118 0
-11 -107 -119 0
-12 -108 -120 0
-9 -109 -121 0
-10 -110 -122 0
-11 -111 -123 0
-12 -112 -124 0
-9 -113 -125 0
-10 -114 -126 0
-11 -115 -127 0
-12 -116 -128 0
-9 -117 -129 0
-10 -118 -130 0
-11 -119 -131 0
-12 -120 -132 0
-9 -121 -133 0
-10 -122 -134 0
-11 -123 -135 0
-12 -124 -136 0
-9 -125 -137 0
-10 -126 -138 0
-11 -127 -139 0
-12 -128 -140 0
-9 -129 -141 0
-10 -130 -142 0
-11 -131 -143 0
-12 -132 -144 0
-9 -133 -145 0
-10 -134 -146 0
-11 -135 -147 0
-12 -136 -148 0
-9 -137 -149 0
-10 -138 -150 0
-11 -139 -151 0
-12 -140 -152 0
-9 -141 -153 0
-10 -142 -154 0
-11 -143 -155 0
-12 -144 -156 0
-9 -145 -157 0
-10 -146 -158 0
-11 -147 -159 0
-12 -148 -160 0
-9 -149 -161 0
-10 -150 -162 0
-11 -151 -163 0
-12 -152 -164 0
-9 -153 -165 0
-10 -154 -166 0
-11 -155 -167 0
-12 -156 -168 0
-9 -157 -169 0
-10 -158 -170 0
-11 -159 -171 0
-12 -160 -172 0
-9 -161 -173 0
-10 -162 -174 0
-11 -163 -175 0
-12 -164 -176 0
-9 -165 -177 0
-10 -166 -178 0
-11 -167 -179 0
-12 -168 -180 0
-1 -13 -17 0
-2 -14 -18 0
-3 -15 -19 0
-4 -16 -20 0
-5 -13 -21 0
-6 -14 -22 0
-7 -15 -23 0
-8 -16 -24 0
-9 -13 -25 0
-10 -14 -26 0
-11 -15 -27 0
-12 -16 -28 0
-13 -29 0
-14 -30 0
-15 -31 0
-16 -32 0
-13 -17 -33 0
-14 -18 -34 0
-15 -19 -35 0
-16 -20 -36 0
-13 -21 -37 0
-14 -22 -38 0
-15 -23 -39 0
-16 -24 -40 0
-13 -25 -41 0
-14 -26 -42 0
-15 -27 -43 0
-16 -28 -44 0
-13 -29 -45 0
-14 -30 -46 0
-15 -31 -47 0
-16 -32 -48 0
-13 -33 -49 0
-14 -34 -50 0
-15 -35 -51 0
-16 -36 -52 0
-13 -37 -53 0
-14 -38 -54 0
-15 -39 -55 0
-16 -40 -56 0
-13 -41 -57 0
-14 -42 -58 0
-15 -43 -59 0
-16 -44 -60 0
-13 -45 -61 0
-14 -46 -62 0
-15 -47 -63 0
-16 -48 -64 0
-13 -49 -65 0
-14 -50 -66 0
-15 -51 -67 0
-16 -52 -68 0
-13 -53 -69 0
-14 -54 -70 0
-15 -55 -71 0
-16 -56 -72 0
-13 -57 -73 0
-14 -58 -74 0
-15 -59 -75 0
-16 -60 -76 0
-13 -61 -77 0
-14 -62 -78 0
-15 -63 -79 0
-16 -64 -80 0
-13 -65 -81 0
-14 -66 -82 0
-15 -67 -83 0
-16 -68 -84 0
-13 -69 -85 0
-14 -70 -86 0
-15 -71 -87 0
-16 -72 -88 0
-13 -73 -89 0
-14 -74 -90 0
-15 -75 -91 0
-16 -76 -92 0
-13 -77 -93 0
-14 -78 -94 0
-15 -79 -95 0
-16 -80 -96 0
-13 -81 -97 0
-14 -82 -98 0
-15 -83 -99 0
-16 -84 -100 0
-13 -85 -101 0
-14 -86 -102 0
-15 -87 -103 0
-16 -88 -104 0
-13 -89 -105 0
-14 -90 -106 0
-15 -91 -107 0
-16 -92 -108 0
-13 -93 -109 0
-14 -94 -110 0
-15 -95 -111 0
-16 -96 -112 0
-13 -97 -113 0
-14 -98 -114 0
-15 -99 -115 0
-16 -100 -116 0
-13 -101 -117 0
-14 -102 -118 0
-15 -103 -119 0
-16 -104 -120 0
-13 -105 -121 0
-14 -106 -122 0
-15 -107 -123 0
-16 -108 -124 0
-13 -109 -125 0
-14 -110 -126 0
-15 -111 -127 0
-16 -112 -128 0
-13 -113 -129 0
-14 -114 -130 0
-15 -115 -131 0
-16 -116 -132 0
-13 -117 -133 0
-14 -118 -134 0
-15 -119 -135 0
-16 -120 -136 0
-13 -121 -137 0
-14 -122 -138 0
-15 -123 -139 0
-16 -124 -140 0
-13 -125 -141 0
-14 -126 -142 0
-15 -127 -143 0
-16 -128 -144 0
-13 -129 -145 0
-14 -130 -146 0
-15 -131 -147 0
-16 -132 -148 0
-13 -133 -149 0
-14 -134 -150 0
-15 -135 -151 0
-16 -136 -152 0
-13 -137 -153 0
-14 -138 -154 0
-15 -139 -155 0
-16 -140 -156 0
-13 -141 -157 0
-14 -142 -158 0
-15 -143 -159 0
-16 -144 -160 0
-13 -145 -161 0
-14 -146 -162 0
-15 -147 -163 0
-16 -148 -164 0
-13 -149 -165 0
-14 -150 -166 0
-15 -151 -167 0
-16 -152 -168 0
-13 -153 -169 0
-14 -154 -170 0
-15 -155 -171 0
-16 -156 -172 0
-13 -157 -173 0
-14 -158 -174 0
-15 -159 -175 0
-16 -160 -176 0
-13 -161 -177 0
-14 -162 -178 0
-15 -163 -179 0
-16 -164 -180 0
-1 -17 -21 0
-2 -18 -22 0
-3 -19 -23 0
-4 -20 -24 0
-5 -17 -25 0
-6 -18 -26 0
-7 -19 -27 0
-8 -20 -28 0
-9 -17 -29 0
-10 -18 -30 0
-11 -19 -31 0
-12 -20 -32 0
-13 -17 -33 0
-14 -18 -34 0
-15 -19 -35 0
-16 -20 -36 0
-17 -37 0
-18 -38 0
-19 -39 0
-20 -40 0
-17 -21 -41 0
-18 -22 -42 0
-19 -23 -43 0
-20 -24 -44 0
-17 -25 -45 0
-18 -26 -46 0
-19 -27 -47 0
-20 -28 -48 0
-17 -29 -49 0
-18 -30 -50 0
-19 -31 -51 0
-20 -32 -52 0
-17 -33 -53 0
-18 -34 -54 0
-19 -35 -55 0
-20 -36 -56 0
-17 -37 -57 0
-18 -38 -58 0
-19 -39 -59 0
-20 -40 -60 0
-17 -41 -61 0
-18 -42 -62 0
-19 -43 -63 0
-20 -44 -64 0
-17 -45 -65 0
-18 -46 -66 0
-19 -47 -67 0
-20 -48 -68 0
-17 -49 -69 0
-18 -50 -70 0
-19 -51 -71 0
-20 -52 -72 0
-17 -53 -73 0
-18 -54 -74 0
-19 -55 -75 0
-20 -56 -76 0
-17 -57 -77 0
-18 -58 -78 0
-19 -59 -79 0
-20 -60 -80 0
-17 -61 -81 0
-18 -62 -82 0
-19 -63 -83 0
-20 -64 -84 0
-17 -65 -85 0
-18 -66 -86 0
-19 -67 -87 0
-20 -68 -88 0
-17 -69 -89 0
-18 -70 -90 0
-19 -71 -91 0
-20 -72 -92 0
-17 -73 -93 0
-18 -74 -94 0
-19 -75 -95 0
-20 -76 -96 0
-17 -77 -97 0
-18 -78 -98 0
-19 -79 -99 0
-20 -80 -100 0
-17 -81 -101 0
-18 -82 -102 0
-19 -83 -103 0
-20 -84 -104 0
-17 -85 -105 0
-18 -86 -106 0
-19 -87 -107 0
-20 -88 -108 0
-17 -89 -109 0
-18 -90 -110 0
-19 -91 -111 0
-20 -92 -112 0
-17 -93 -113 0
-18 -94 -114 0
-19 -95 -115 0
-20 -96 -116 0
-17 -97 -117 0
-18 -98 -118 0
-19 -99 -119 0
-20 -100 -120 0
-17 -101 -121 0
-18 -102 -122 0
-19 -103 -123 0
-20 -104 -124 0
-17 -105 -125 0
-18 -106 -126 0
-19 -107 -127 0
-20 -108 -128 0
-17 -109 -129 0
-18 -110 -130 0
-19 -111 -131 0
-20 -112 -132 0
-17 -113 -133 0
-18 -114 -134 0
-19 -115 -135 0
-20 -116 -136 0
-17 -117 -137 0
-18 -118 -138 0
-19 -119 -139 0
-20 -120 -140 0
-17 -121 -141 0
-18 -122 -142 0
-19 -123 -143 0
-20 -124 -144 0
-17 -125 -145 0
-18 -126 -146 0
-19 -127 -147 0
-20 -128 -148 0
-17 -129 -149 0
-18 -130 -150 0
-19 -131 -151 0
-20 -132 -152 0
-17 -133 -153 0
-18 -134 -154 0
-19 -135 -155 0
-20 -136 -156 0
-17 -137 -157 0
-18 -138 -158 0
-19 -139 -159 0
-20 -140 -160 0
-17 -141 -161 0
-18 -142 -162 0
-19 -143 -163 0
-20 -144 -164 0
-17 -145 -165 0
-18 -146 -166 0
-19 -147 -167 0
-20 -148 -168 0
-17 -149 -169 0
-18 -150 -170 0
-19 -151 -171 0
-20 -152 -172 0
-17 -153 -173 0
-18 -154 -174 0
-19 -155 -175 0
-20 -156 -176 0
-17 -157 -177 0
-18 -158 -178 0
-19 -159 -179 0
-20 -160 -180 0
-1 -21 -25 0
-2 -22 -26 0
-3 -23 -27 0
-4 -24 -28 0
-5 -21 -29 0
-6 -22 -30 0
-7 -23 -31 0
-8 -24 -32 0
-9 -21 -33 0
-10 -22 -34 0
-11 -23 -35 0
-12 -24 -36 0
-13 -21 -37 0
-14 -22 -38 0
-15 -23 -39 0
-16 -24 -40 0
-17 -21 -41 0
-18 -22 -42 0
-19 -23 -43 0
-20 -24 -44 0
-21 -45 0
-22 -46 0
-23 -47 0
-24 -48 0
-21 -25 -49 0
-22 -26 -50 0
-23 -27 -51 0
-24 -28 -52 0
-21 -29 -53 0
-22 -30 -54 0
-23 -31 -55 0
-24 -32 -56 0
-21 -33 -57 0
-22 -34 -58 0
-23 -35 -59 0
-24 -36 -60 0
-21 -37 -61 0
-22 -38 -62 0
-23 -39 -63 0
-24 -40 -64 0
-21 -41 -65 0
-22 -42 -66 0
-23 -43 -67 0
-24 -44 -68 0
-21 -45 -69 0
-22 -46 -70 0
-23 -47 -71 0
-24 -48 -72 0
-21 -49 -73 0
-22 -50 -74 0
-23 -51 -75 0
-24 -52 -76 0
-21 -53 -77 0
-22 -54 -78 0
-23 -55 -79 0
-24 -56 -80 0
-21 -57 -81 0
-22 -58 -82 0
-23 -59 -83 0
-24 -60 -84 0
-21 -61 -85 0
-22 -62 -86 0
-23 -63 -87 0
-24 -64 -88 0
-21 -65 -89 0
-22 -66 -90 0
-23 -67 -91 0
-24 -68 -92 0
-21 -69 -93 0
-22 -70 -94 0
-23 -71 -95 0
-24 -72 -96 0
-21 -73 -97 0
-22 -74 -98 0
-23 -75 -99 0
-24 -76 -100 0
-21 -77 -101 0
-22 -78 -102 0
-23 -79 -103 0
-24 -80 -104 0
-21 -81 -105 0
-22 -82 -106 0
-23 -83 -107 0
-24 -84 -108 0
-21 -85 -109 0
-22 -86 -110 0
-23 -87 -111 0
-24 -88 -112 0
-21 -89 -113 0
-22 -90 -114 0
-23 -91 -115 0
-24 -92 -116 0
-21 -93 -117 0
-22 -94 -118 0
-23 -95 -119 0
-24 -96 -120 0
-21 -97 -121 0
-22 -98 -122 0
-23 -99 -123 0
-24 -100 -124 0
-21 -101 -125 0
-22 -102 -126 0
-23 -103 -127 0
-24 -104 -128 0
-21 -105 -129 0
-22 -106 -130 0
-23 -107 -131 0
-24 -108 -132 0
-21 -109 -133 0
-22 -110 -134 0
-23 -111 -135 0
-24 -112 -136 0
-21 -113 -137 0
-22 -114 -138 0
-23 -115 -139 0
-24 -116 -140 0
-21 -117 -141 0
-22 -118 -142 0
-23 -119 -143 0
-24 -120 -144 0
-21 -121 -145 0
-22 -122 -146 0
-23 -123 -147 0
-24 -124 -148 0
-21 -125 -149 0
-22 -126 -150 0
-23 -127 -151 0
-24 -128 -152 0
-21 -129 -153 0
-22 -130 -154 0
-23 -131 -155 0
-24 -132 -156 0
-21 -133 -157 0
-22 -134 -158 0
-23 -135 -159 0
-24 -136 -160 0
-21 -137 -161 0
-22 -138 -162 0
-23 -139 -163 0
-24 -140 -164 0
-21 -141 -165 0
-22 -142 -166 0
-23 -143 -167 0
-24 -144 -168 0
-21 -145 -169 0
-22 -146 -170 0
-23 -147 -171 0
-24 -148 -172 0
-21 -149 -173 0
-22 -150 -174 0
-23 -151 -175 0
-24 -152 -176 0
-21 -153 -177 0
-22 -154 -178 0
-23 -155 -179 0
-24 -156 -180 0
-1 -25 -29 0
-2 -26 -30 0
-3 -27 -31 0
-4 -28 -32 0
-5 -25 -33 0
-6 -26 -34 0
-7 -27 -35 0
-8 -28 -36 0
-9 -25 -37 0
-10 -26 -38 0
-11 -27 -39 0
-12 -28 -40 0
-13 -25 -41 0
-14 -26 -42 0
-15 -27 -43 0
-16 -28 -44 0
-17 -25 -45 0
-18 -26 -46 0
-19 -27 -47 0
-20 -28 -48 0
-21 -25 -49 0
-22 -26 -50 0
-23 -27 -51 0
-24 -28 -52 0
-25 -53 0
-26 -54 0
-27 -55 0
-28 -56 0
-25 -29 -57 0
-26 -30 -58 0
-27 -31 -59 0
-28 -32 -60 0
-25 -33 -61 0
-26 -34 -62 0
-27 -35 -63 0
-28 -36 -64 0
-25 -37 -65 0
-26 -38 -66 0
-27 -39 -67 0
-28 -40 -68 0
-25 -41 -69 0
-26 -42 -70 0
-27 -43 -71 0
-28 -44 -72 0
-25 -45 -73 0
-26 -46 -74 0
-27 -47 -75 0
-28 -48 -76 0
-25 -49 -77 0
-26 -50 -78 0
-27 -51 -79 0
-28 -52 -80 0
-25 -53 -81 0
-26 -54 -82 0
-27 -55 -83 0
-28 -56 -84 0
-25 -57 -85 0
-26 -58 -86 0
-27 -59 -87 0
-28 -60 -88 0
-25 -61 -89 0
-26 -62 -90 0
-27 -63 -91 0
-28 -64 -92 0
-25 -65 -93 0
-26 -66 -94 0
-27 -67 -95 0
-28 -68 -96 0
-25 -69 -97 0
-26 -70 -98 0
-27 -71 -99 0
-28 -72 -100 0
-25 -73 -101 0
-26 -74 -102 0
-27 -75 -103 0
-28 -76 -104 0
-25 -77 -105 0
-26 -78 -106 0
-27 -79 -107 0
-28 -80 -108 0
-25 -81 -109 0
-26 -82 -110 0
-27 -83 -111 0
-28 -84 -112 0
-25 -85 -113 0
-26 -86 -114 0
-27 -87 -115 0
-28 -88 -116 0
-25 -89 -117 0
-26 -90 -118 0
-27 -91 -119 0
-28 -92 -120 0
-25 -93 -121 0
-26 -94 -122 0
-27 -95 -123 0
-28 -96 -124 0
-25 -97 -125 0
-26 -98 -126 0
-27 -99 -127 0
-28 -100 -128 0
-25 -101 -129 0
-26 -102 -130 0
-27 -103 -131 0
-28 -104 -132 0
-25 -105 -133 0
-26 -106 -134 0
-27 -107 -135 0
-28 -108 -136 0
-25 -109 -137 0
-26 -110 -138 0
-27 -111 -139 0
-28 -112 -140 0
-25 -113 -141 0
-26 -114 -142 0
-27 -115 -143 0
-28 -116 -144 0
-25 -117 -145 0
-26 -118 -146 0
-27 -119 -147 0
-28 -120 -148 0
-25 -121 -149 0
-26 -122 -150 0
-27 -123 -151 0
-28 -124 -152 0
-25 -125 -153 0
-26 -126 -154 0
-27 -127 -155 0
-28 -128 -156 0
-25 -129 -157 0
-26 -130 -158 0
-27 -131 -159 0
-28 -132 -160 0
-25 -133 -161 0
-26 -134 -162 0
-27 -135 -163 0
-28 -136 -164 0
-25 -137 -165 0
-26 -138 -166 0
-27 -139 -167 0
-28 -140 -168 0
-25 -141 -169 0
-26 -142 -170 0
-27 -143 -171 0
-28 -144 -172 0
-25 -145 -173 0
-26 -146 -174 0
-27 -147 -175 0
-28 -148 -176 0
-25 -149 -177 0
-26 -150 -178 0
-27 -151 -179 0
-28 -152 -180 0
-1 -29 -33 0
-2 -30 -34 0
-3 -31 -35 0
-4 -32 -36 0
-5 -29 -37 0
-6 -30 -38 0
-7 -31 -39 0
-8 -32 -40 0
-9 -29 -41 0
-10 -30 -42 0
-11 -31 -43 0
-12 -32 -44 0
-13 -29 -45 0
-14 -30 -46 0
-15 -31 -47 0
-16 -32 -48 0
-17 -29 -49 0
-18 -30 -50 0
-19 -31 -51 0
-20 -32 -52 0
-21 -29 -53 0
-22 -30 -54 0
-23 -31 -55 0
-24 -32 -56 0
-25 -29 -57 0
-26 -30 -58 0
-27 -31 -59 0
-28 -32 -60 0
-29 -61 0
-30 -62 0
-31 -63 0
-32 -64 0
-29 -33 -65 0
-30 -34 -66 0
-31 -35 -67 0
-32 -36 -68 0
-29 -37 -69 0
-30 -38 -70 0
-31 -39 -71 0
-32 -40 -72 0
-29 -41 -73 0
-30 -42 -74 0
-31 -43 -75 0
-32 -44 -76 0
-29 -45 -77 0
-30 -46 -78 0
-31 -47 -79 0
-32 -48 -80 0
-29 -49 -81 0
-30 -50 -82 0
-31 -51 -83 0
-32 -52 -84 0
-29 -53 -85 0
-30 -54 -86 0
-31 -55 -87 0
-32 -56 -88 0
-29 -57 -89 0
-30 -58 -90 0
-31 -59 -91 0
-32 -60 -92 0
-29 -61 -93 0
-30 -62 -94 0
-31 -63 -95 0
-32 -64 -96 0
-29 -65 -97 0
-30 -66 -98 0
-31 -67 -99 0
-32 -68 -100 0
-29 -69 -101 0
-30 -70 -102 0
-31 -71 -103 0
-32 -72 -104 0
-29 -73 -105 0
-30 -74 -106 0
-31 -75 -107 0
-32 -76 -108 0
-29 -77 -109 0
-30 -78 -110 0
-31 -79 -111 0
-32 -80 -112 0
-29 -81 -113 0
-30 -82 -114 0
-31 -83 -115 0
-32 -84 -116 0
-29 -85 -117 0
-30 -86 -118 0
-31 -87 -119 0
-32 -88 -120 0
-29 -89 -121 0
-30 -90 -122 0
-31 -91 -123 0
-32 -92 -124 0
-29 -93 -125 0
-30 -94 -126 0
-31 -95 -127 0
-32 -96 -128 0
-29 -97 -129 0
-30 -98 -130 0
-31 -99 -131 0
-32 -100 -132 0
-29 -101 -133 0
-30 -102 -134 0
-31 -103 -135 0
-32 -104 -136 0
-29 -105 -137 0
-30 -106 -138 0
-31 -107 -139 0
-32 -108 -140 0
-29 -109 -141 0
-30 -110 -142 0
-31 -111 -143 0
-32 -112 -144 0
-29 -113 -145 0
-30 -114 -146 0
-31 -115 -147 0
-32 -116 -148 0
-29 -117 -149 0
-30 -118 -150 0
-31 -119 -151 0
-32 -120 -152 0
-29 -121 -153 0
-30 -122 -154 0
-31 -123 -155 0
-32 -124 -156 0
-29 -125 -157 0
-30 -126 -158 0
-31 -127 -159 0
-32 -128 -160 0
-29 -129 -161 0
-30 -130 -162 0
-31 -131 -163 0
-32 -132 -164 0
-29 -133 -165 0
-30 -134 -166 0
-31 -135 -167 0
-32 -136 -168 0
-29 -137 -169 0
-30 -138 -170 0
-31 -139 -171 0
-32 -140 -172 0
-29 -141 -173 0
-30 -142 -174 0
-31 -143 -175 0
-32 -144 -176 0
-29 -145 -177 0
-30 -146 -178 0
-31 -147 -179 0
-32 -148 -180 0
-1 -33 -37 0
-2 -34 -38 0
-3 -35 -39 0
-4 -36 -40 0
-5 -33 -41 0
-6 -34 -42 0
-7 -35 -43 0
-8 -36 -44 0
-9 -33 -45 0
-10 -34 -46 0
-11 -35 -47 0
-12 -36 -48 0
-13 -33 -49 0
-14 -34 -50 0
-15 -35 -51 0
-16 -36 -52 0
-17 -33 -53 0
-18 -34 -54 0
-19 -35 -55 0
-20 -36 -56 0
-21 -33 -57 0
-22 -34 -58 0
-23 -35 -59 0
-24 -36 -60 0
-25 -33 -61 0
-26 -34 -62 0
-27 -35 -63 0
-28 -36 -64 0
-29 -33 -65 0
-30 -34 -66 0
-31 -35 -67 0
-32 -36 -68 0
-33 -69 0
-34 -70 0
-35 -71 0
-36 -72 0
-33 -37 -73 0
-34 -38 -74 0
-35 -39 -75 0
-36 -40 -76 0
-33 -41 -77 0
-34 -42 -78 0
-35 -43 -79 0
-36 -44 -80 0
-33 -45 -81 0
-34 -46 -82 0
-35 -47 -83 0
-36 -48 -84 0
-33 -49 -85 0
-34 -50 -86 0
-35 -51 -87 0
-36 -52 -88 0
-33 -53 -89 0
-34 -54 -90 0
-35 -55 -91 0
-36 -56 -92 0
-33 -57 -93 0
-34 -58 -94 0
-35 -59 -95 0
-36 -60 -96 0
-33 -61 -97 0
-34 -62 -98 0
-35 -63 -99 0
-36 -64 -100 0
-33 -65 -101 0
-34 -66 -102 0
-35 -67 -103 0
-36 -68 -104 0
-33 -69 -105 0
-34 -70 -106 0
-35 -71 -107 0
-36 -72 -108 0
-33 -73 -109 0
-34 -74 -110 0
-35 -75 -111 0
-36 -76 -112 0
-33 -77 -113 0
-34 -78 -114 0
-35 -79 -115 0
-36 -80 -116 0
-33 -81 -117 0
-34 -82 -118 0
-35 -83 -119 0
-36 -84 -120 0
-33 -85 -121 0
-34 -86 -122 0
-35 -87 -123 0
-36 -88 -124 0
-33 -89 -125 0
-34 -90 -126 0
-35 -91 -127 0
-36 -92 -128 0
-33 -93 -129 0
-34 -94 -130 0
-35 -95 -131 0
-36 -96 -132 0
-33 -97 -133 0
-34 -98 -134 0
-35 -99 -135 0
-36 -100 -136 0
-33 -101 -137 0
-34 -102 -138 0
-35 -103 -139 0
-36 -104 -140 0
-33 -105 -141 0
-34 -106 -142 0
-35 -107 -143 0
-36 -108 -144 0
-33 -109 -145 0
-34 -110 -146 0
-35 -111 -147 0
-36 -112 -148 0
-33 -113 -149 0
-34 -114 -150 0
-35 -115 -151 0
-36 -116 -152 0
-33 -117 -153 0
-34 -118 -154 0
-35 -119 -155 0
-36 -120 -156 0
-33 -121 -157 0
-34 -122 -158 0
-35 -123 -159 0
-36 -124 -160 0
-33 -125 -161 0
-34 -126 -162 0
-35 -127 -163 0
-36 -128 -164 0
-33 -129 -165 0
-34 -130 -166 0
-35 -131 -167 0
-36 -132 -168 0
-33 -133 -169 0
-34 -134 -170 0
-35 -135 -171 0
-36 -136 -172 0
-33 -137 -173 0
-34 -138 -174 0
-35 -139 -175 0
-36 -140 -176 0
-33 -141 -177 0
-34 -142 -178 0
-35 -143 -179 0
-36 -144 -180 0
-1 -37 -41 0
-2 -38 -42 0
-3 -39 -43 0
-4 -40 -44 0
-5 -37 -45 0
-6 -38 -46 0
-7 -39 -47 0
-8 -40 -48 0
-9 -37 -49 0
-10 -38 -50 0
-11 -39 -51 0
-12 -40 -52 0
-13 -37 -53 0
-14 -38 -54 0
-15 -39 -55 0
-16 -40 -56 0
-17 -37 -57 0
-18 -38 -58 0
-19 -39 -59 0
-20 -40 -60 0
-21 -37 -61 0
-22 -38 -62 0
-23 -39 -63 0
-24 -40 -64 0
-25 -37 -65 0
-26 -38 -66 0
-27 -39 -67 0
-28 -40 -68 0
-29 -37 -69 0
-30 -38 -70 0
-31 -39 -71 0
-32 -40 -72 0
-33 -37 -73 0
-34 -38 -74 0
-35 -39 -75 0
-36 -40 -76 0
-37 -77 0
-38 -78 0
-39 -79 0
-40 -80 0
-37 -41 -81 0
-38 -42 -82 0
-39 -43 -83 0
-40 -44 -84 0
-37 -45 -85 0
-38 -46 -86 0
-39 -47 -87 0
-40 -48 -88 0
-37 -49 -89 0
-38 -50 -90 0
-39 -51 -91 0
-40 -52 -92 0
-37 -53 -93 0
-38 -54 -94 0
-39 -55 -95 0
-40 -56 -96 0
-37 -57 -97 0
-38 -58 -98 0
-39 -59 -99 0
-40 -60 -100 0
-37 -61 -101 0
-38 -62 -102 0
-39 -63 -103 0
-40 -64 -104 0
-37 -65 -105 0
-38 -66 -106 0
-39 -67 -107 0
-40 -68 -108 0
-37 -69 -109 0
-38 -70 -110 0
-39 -71 -111 0
-40 -72 -112 0
-37 -73 -113 0
-38 -74 -114 0
-39 -75 -115 0
-40 -76 -116 0
-37 -77 -117 0
-38 -78 -118 0
-39 -79 -119 0
-40 -80 -120 0
-37 -81 -121 0
-38 -82 -122 0
-39 -83 -123 0
-40 -84 -124 0
-37 -85 -125 0
-38 -86 -126 0
-39 -87 -127 0
-40 -88 -128 0
-37 -89 -129 0
-38 -90 -130 0
-39 -91 -131 0
-40 -92 -132 0
-37 -93 -133 0
-38 -94 -134 0
-39 -95 -135 0
-40 -96 -136 0
-37 -97 -137 0
-38 -98 -138 0
-39 -99 -139 0
-40 -100 -140 0
-37 -101 -141 0
-38 -102 -142 0
-39 -103 -143 0
-40 -104 -144 0
-37 -105 -145 0
-38 -106 -146 0
-39 -107 -147 0
-40 -108 -148 0
-37 -109 -149 0
-38 -110 -150 0
-39 -111 -151 0
-40 -112 -152 0
-37 -113 -153 0
-38 -114 -154 0
-39 -115 -155 0
-40 -116 -156 0
-37 -117 -157 0
-38 -118 -158 0
-39 -119 -159 0
-40 -120 -160 0
-37 -121 -161 0
-38 -122 -162 0
-39 -123 -163 0
-40 -124 -164 0
-37 -125 -165 0
-38 -126 -166 0
-39 -127 -167 0
-40 -128 -168 0
-37 -129 -169 0
-38 -130 -170 0
-39 -131 -171 0
-40 -132 -172 0
-37 -133 -173 0
-38 -134 -174 0
-39 -135 -175 0
-40 -136 -176 0
-37 -137 -177 0
-38 -138 -178 0
-39 -139 -179 0
-40 -140 -180 0
-1 -41 -45 0
-2 -42 -46 0
-3 -43 -47 0
-4 -44 -48 0
-5 -41 -49 0
-6 -42 -50 0
-7 -43 -51 0
-8 -44 -52 0
-9 -41 -53 0
-10 -42 -54 0
-11 -43 -55 0
-12 -44 -56 0
-13 -41 -57 0
-14 -42 -58 0
-15 -43 -59 0
-16 -44 -60 0
-17 -41 -61 0
-18 -42 -62 0
-19 -43 -63 0
-20 -44 -64 0
-21 -41 -65 0
-22 -42 -66 0
-23 -43 -67 0
-24 -44 -68 0
-25 -41 -69 0
-26 -42 -70 0
-27 -43 -71 0
-28 -44 -72 0
-29 -41 -73 0
-30 -42 -74 0
-31 -43 -75 0
-32 -44 -76 0
-33 -41 -77 0
-34 -42 -78 0
-35 -43 -79 0
-36 -44 -80 0
-37 -41 -81 0
-38 -42 -82 0
-39 -43 -83 0
-40 -44 -84 0
-41 -85 0
-42 -86 0
-43 -87 0
-44 -88 0
-41 -45 -89 0
-42 -46 -90 0
-43 -47 -91 0
-44 -48 -92 0
-41 -49 -93 0
-42 -50 -94 0
-43 -51 -95 0
-44 -52 -96 0
-41 -53 -97 0
-42 -54 -98 0
-43 -55 -99 0
-44 -56 -100 0
-41 -57 -101 0
-42 -58 -102 0
-43 -59 -103 0
-44 -60 -104 0
-41 -61 -105 0
-42 -62 -106 0
-43 -63 -107 0
-44 -64 -108 0
-41 -65 -109 0
-42 -66 -110 0
-43 -67 -111 0
-44 -68 -112 0
-41 -69 -113 0
-42 -70 -114 0
-43 -71 -115 0
-44 -72 -116 0
-41 -73 -117 0
-42 -74 -118 0
-43 -75 -119 0
-44 -76 -120 0
-41 -77 -121 0
-42 -78 -122 0
-43 -79 -123 0
-44 -80 -124 0
-41 -81 -125 0
-42 -82 -126 0
-43 -83 -127 0
-44 -84 -128 0
-41 -85 -129 0
-42 -86 -130 0
-43 -87 -131 0
-44 -88 -132 0
-41 -89 -133 0
-42 -90 -134 0
-43 -91 -135 0
-44 -92 -136 0
-41 -93 -137 0
-42 -94 -138 0
-43 -95 -139 0
-44 -96 -140 0
-41 -97 -141 0
-42 -98 -142 0
-43 -99 -143 0
-44 -100 -144 0
-41 -101 -145 0
-42 -102 -146 0
-43 -103 -147 0
-44 -104 -148 0
-41 -105 -149 0
-42 -106 -150 0
-43 -107 -151 0
-44 -108 -152 0
-41 -109 -153 0
-42 -110 -154 0
-43 -111 -155 0
-44 -112 -156 0
-41 -113 -157 0
-42 -114 -158 0
-43 -115 -159 0
-44 -116 -160 0
-41 -117 -161 0
-42 -118 -162 0
-43 -119 -163 0
-44 -120 -164 0
-41 -121 -165 0
-42 -122 -166 0
-43 -123 -167 0
-44 -124 -168 0
-41 -125 -169 0
-42 -126 -170 0
-43 -127 -171 0
-44 -128 -172 0
-41 -129 -173 0
-42 -130 -174 0
-43 -131 -175 0
-44 -132 -176 0
-41 -133 -177 0
-42 -134 -178 0
-43 -135 -179 0
-44 -136 -180 0
-1 -45 -49 0
-2 -46 -50 0
-3 -47 -51 0
-4 -48 -52 0
-5 -45 -53 0
-6 -46 -54 0
-7 -47 -55 0
-8 -48 -56 0
-9 -45 -57 0
-10 -46 -58 0
-11 -47 -59 0
-12 -48 -60 0
-13 -45 -61 0
-14 -46 -62 0
-15 -47 -63 0
-16 -48 -64 0
-17 -45 -65 0
-18 -46 -66 0
-19 -47 -67 0
-20 -48 -68 0
-21 -45 -69 0
-22 -46 -70 0
-23 -47 -71 0
-24 -48 -72 0
-25 -45 -73 0
-26 -46 -74 0
-27 -47 -75 0
-28 -48 -76 0
-29 -45 -77 0
-30 -46 -78 0
-31 -47 -79 0
-32 -48 -80 0
-33 -45 -81 0
-34 -46 -82 0
-35 -47 -83 0
-36 -48 -84 0
-37 -45 -85 0
-38 -46 -86 0
-39 -47 -87 0
-40 -48 -88 0
-41 -45 -89 0
-42 -46 -90 0
-43 -47 -91 0
-44 -48 -92 0
-45 -93 0
-46 -94 0
-47 -95 0
-48 -96 0
-45 -49 -97 0
-46 -50 -98 0
-47 -51 -99 0
-48 -52 -100 0
-45 -53 -101 0
-46 -54 -102 0
-47 -55 -103 0
-48 -56 -104 0
-45 -57 -105 0
-46 -58 -106 0
-47 -59 -107 0
-48 -60 -108 0
-45 -61 -109 0
-46 -62 -110 0
-47 -63 -111 0
-48 -64 -112 0
-45 -65 -113 0
-46 -66 -114 0
-47 -67 -115 0
-48 -68 -116 0
-45 -69 -117 0
-46 -70 -118 0
-47 -71 -119 0
-48 -72 -120 0
-45 -73 -121 0
-46 -74 -122 0
-47 -75 -123 0
-48 -76 -124 0
-45 -77 -125 0
-46 -78 -126 0
-47 -79 -127 0
-48 -80 -128 0
-45 -81 -129 0
-46 -82 -130 0
-47 -83 -131 0
-48 -84 -132 0
-45 -85 -133 0
-46 -86 -134 0
-47 -87 -135 0
-48 -88 -136 0
-45 -89 -137 0
-46 -90 -138 0
-47 -91 -139 0
-48 -92 -140 0
-45 -93 -141 0
-46 -94 -142 0
-47 -95 -143 0
-48 -96 -144 0
-45 -97 -145 0
-46 -98 -146 0
-47 -99 -147 0
-48 -100 -148 0
-45 -101 -149 0
-46 -102 -150 0
-47 -103 -151 0
-48 -104 -152 0
-45 -105 -153 0
-46 -106 -154 0
-47 -107 -155 0
-48 -108 -156 0
-45 -109 -157 0
-46 -110 -158 0
-47 -111 -159 0
-48 -112 -160 0
-45 -113 -161 0
-46 -114 -162 0
-47 -115 -163 0
-48 -116 -164 0
-45 -117 -165 0
-46 -118 -166 0
-47 -119 -167 0
-48 -120 -168 0
-45 -121 -169 0
-46 -122 -170 0
-47 -123 -171 0
-48 -124 -172 0
-45 -125 -173 0
-46 -126 -174 0
-47 -127 -175 0
-48 -128 -176 0
-45 -129 -177 0
-46 -130 -178 0
-47 -131 -179 0
-48 -132 -180 0
-1 -49 -53 0
-2 -50 -54 0
-3 -51 -55 0
-4 -52 -56 0
-5 -49 -57 0
-6 -50 -58 0
-7 -51 -59 0
-8 -52 -60 0
-9 -49 -61 0
-10 -50 -62 0
-11 -51 -63 0
-12 -52 -64 0
-13 -49 -65 0
-14 -50 -66 0
-15 -51 -67 0
-16 -52 -68 0
-17 -49 -69 0
-18 -50 -70 0
-19 -51 -71 0
-20 -52 -72 0
-21 -49 -73 0
-22 -50 -74 0
-23 -51 -75 0
-24 -52 -76 0
-25 -49 -77 0
-26 -50 -78 0
-27 -51 -79 0
-28 -52 -80 0
-29 -49 -81 0
-30 -50 -82 0
-31 -51 -83 0
-32 -52 -84 0
-33 -49 -85 0
-34 -50 -86 0
-35 -51 -87 0
-36 -52 -88 0
-37 -49 -89 0
-38 -50 -90 0
-39 -51 -91 0
-40 -52 -92 0
-41 -49 -93 0
-42 -50 -94 0
-43 -51 -95 0
-44 -52 -96 0
-45 -49 -97 0
-46 -50 -98 0
-47 -51 -99 0
-48 -52 -100 0
-49 -101 0
-50 -102 0
-51 -103 0
-52 -104 0
-49 -53 -105 0
-50 -54 -106 0
-51 -55 -107 0
-52 -56 -108 0
-49 -57 -109 0
-50 -58 -110 0
-51 -59 -111 0
-52 -60 -112 0
-49 -61 -113 0
-50 -62 -114 0
-51 -63 -115 0
-52 -64 -116 0
-49 -65 -117 0
-50 -66 -118 0
-51 -67 -119 0
-52 -68 -120 0
-49 -69 -121 0
-50 -70 -122 0
-51 -71 -123 0
-52 -72 -124 0
-49 -73 -125 0
-50 -74 -126 0
-51 -75 -127 0
-52 -76 -128 0
-49 -77 -129 0
-50 -78 -130 0
-51 -79 -131 0
-52 -80 -132 0
-49 -81 -133 0
-50 -82 -134 0
-51 -83 -135 0
-52 -84 -136 0
-49 -85 -137 0
-50 -86 -138 0
-51 -87 -139 0
-52 -88 -140 0
-49 -89 -141 0
-50 -90 -142 0
-51 -91 -143 0
-52 -92 -144 0
-49 -93 -145 0
-50 -94 -146 0
-51 -95 -147 0
-52 -96 -148 0
-49 -97 -149 0
-50 -98 -150 0
-51 -99 -151 0
-52 -100 -152 0
-49 -101 -153 0
-50 -102 -154 0
-51 -103 -155 0
-52 -104 -156 0
-49 -105 -157 0
-50 -106 -158 0
-51 -107 -159 0
-52 -108 -160 0
-49 -109 -161 0
-50 -110 -162 0
-51 -111 -163 0
-52 -112 -164 0
-49 -113 -165 0
-50 -114 -166 0
-51 -115 -167 0
-52 -116 -168 0
-49 -117 -169 0
-50 -118 -170 0
-51 -119 -171 0
-52 -120 -172 0
-49 -121 -173 0
-50 -122 -174 0
-51 -123 -175 0
-52 -124 -176 0
-49 -125 -177 0
-50 -126 -178 0
-51 -127 -179 0
-52 -128 -180 0
-1 -53 -57 0
-2 -54 -58 0
-3 -55 -59 0
-4 -56 -60 0
-5 -53 -61 0
-6 -54 -62 0
-7 -55 -63 0
-8 -56 -64 0
-9 -53 -65 0
-10 -54 -66 0
-11 -55 -67 0
-12 -56 -68 0
-13 -53 -69 0
-14 -54 -70 0
-15 -55 -71 0
-16 -56 -72 0
-17 -53 -73 0
-18 -54 -74 0
-19 -55 -75 0
-20 -56 -76 0
-21 -53 -77 0
-22 -54 -78 0
-23 -55 -79 0
-24 -56 -80 0
-25 -53 -81 0
-26 -54 -82 0
-27 -55 -83 0
-28 -56 -84 0
-29 -53 -85 0
-30 -54 -86 0
-31 -55 -87 0
-32 -56 -88 0
-33 -53 -89 0
-34 -54 -90 0
-35 -55 -91 0
-36 -56 -92 0
-37 -53 -93 0
-38 -54 -94 0
-39 -55 -95 0
-40 -56 -96 0
-41 -53 -97 0
-42 -54 -98 0
-43 -55 -99 0
-44 -56 -100 0
-45 -53 -101 0
-46 -54 -102 0
-47 -55 -103 0
-48 -56 -104 0
-49 -53 -105 0
-50 -54 -106 0
-51 -55 -107 0
-52 -56 -108 0
-53 -109 0
-54 -110 0
-55 -111 0
-56 -112 0
-53 -57 -113 0
-54 -58 -114 0
-55 -59 -115 0
-56 -60 -116 0
-53 -61 -117 0
-54 -62 -118 0
-55 -63 -119 0
-56 -64 -120 0
-53 -65 -121 0
-54 -66 -122 0
-55 -67 -123 0
-56 -68 -124 0
-53 -69 -125 0
-54 -70 -126 0
-55 -71 -127 0
-56 -72 -128 0
-53 -73 -129 0
-54 -74 -130 0
-55 -75 -131 0
-56 -76 -132 0
-53 -77 -133 0
-54 -78 -134 0
-55 -79 -135 0
-56 -80 -136 0
-53 -81 -137 0
-54 -82 -138 0
-55 -83 -139 0
-56 -84 -140 0
-53 -85 -141 0
-54 -86 -142 0
-55 -87 -143 0
-56 -88 -144 0
-53 -89 -145 0
-54 -90 -146 0
-55 -91 -147 0
-56 -92 -148 0
-53 -93 -149 0
-54 -94 -150 0
-55 -95 -151 0
-56 -96 -152 0
-53 -97 -153 0
-54 -98 -154 0
-55 -99 -155 0
-56 -100 -156 0
-53 -101 -157 0
-54 -102 -158 0
-55 -103 -159 0
-56 -104 -160 0
-53 -105 -161 0
-54 -106 -162 0
-55 -107 -163 0
-56 -108 -164 0
-53 -109 -165 0
-54 -110 -166 0
-55 -111 -167 0
-56 -112 -168 0
-53 -113 -169 0
-54 -114 -170 0
-55 -115 -171 0
-56 -116 -172 0
-53 -117 -173 0
-54 -118 -174 0
-55 -119 -175 0
-56 -120 -176 0
-53 -121 -177 0
-54 -122 -178 0
-55 -123 -179 0
-56 -124 -180 0
-1 -57 -61 0
-2 -58 -62 0
-3 -59 -63 0
-4 -60 -64 0
-5 -57 -65 0
-6 -58 -66 0
-7 -59 -67 0
-8 -60 -68 0
-9 -57 -69 0
-10 -58 -70 0
-11 -59 -71 0
-12 -60 -72 0
-13 -57 -73 0
-14 -58 -74 0
-15 -59 -75 0
-16 -60 -76 0
-17 -57 -77 0
-18 -58 -78 0
-19 -59 -79 0
-20 -60 -80 0
-21 -57 -81 0
-22 -58 -82 0
-23 -59 -83 0
-24 -60 -84 0
-25 -57 -85 0
-26 -58 -86 0
-27 -59 -87 0
-28 -60 -88 0
-29 -57 -89 0
-30 -58 -90 0
-31 -59 -91 0
-32 -60 -92 0
-33 -57 -93 0
-34 -58 -94 0
-35 -59 -95 0
-36 -60 -96 0
-37 -57 -97 0
-38 -58 -98 0
-39 -59 -99 0
-40 -60 -100 0
-41 -57 -101 0
-42 -58 -102 0
-43 -59 -103 0
-44 -60 -104 0
-45 -57 -105 0
-46 -58 -106 0
-47 -59 -107 0
-48 -60 -108 0
-49 -57 -109 0
-50 -58 -110 0
-51 -59 -111 0
-52 -60 -112 0
-53 -57 -113 0
-54 -58 -114 0
-55 -59 -115 0
-56 -60 -116 0
-57 -117 0
-58 -118 0
-59 -119 0
-60 -120 0
-57 -61 -121 0
-58 -62 -122 0
-59 -63 -123 0
-60 -64 -124 0
-57 -65 -125 0
-58 -66 -126 0
-59 -67 -127 0
-60 -68 -128 0
-57 -69 -129 0
-58 -70 -130 0
-59 -71 -131 0
-60 -72 -132 0
-57 -73 -133 0
-58 -74 -134 0
-59 -75 -135 0
-60 -76 -136 0
-57 -77 -137 0
-58 -78 -138 0
-59 -79 -139 0
-60 -80 -140 0
-57 -81 -141 0
-58 -82 -142 0
-59 -83 -143 0
-60 -84 -144 0
-57 -85 -145 0
-58 -86 -146 0
-59 -87 -147 0
-60 -88 -148 0
-57 -89 -149 0
-58 -90 -150 0
-59 -91 -151 0
-60 -92 -152 0
-57 -93 -153 0
-58 -94 -154 0
-59 -95 -155 0
-60 -96 -156 0
-57 -97 -157 0
-58 -98 -158 0
-59 -99 -159 0
-60 -100 -160 0
-57 -101 -161 0
-58 -102 -162 0
-59 -103 -163 0
-60 -104 -164 0
-57 -105 -165 0
-58 -106 -166 0
-59 -107 -167 0
-60 -108 -168 0
-57 -109 -169 0
-58 -110 -170 0
-59 -111 -171 0
-60 -112 -172 0
-57 -113 -173 0
-58 -114 -174 0
-59 -115 -175 0
-60 -116 -176 0
-57 -117 -177 0
-58 -118 -178 0
-59 -119 -179 0
-60 -120 -180 0
-1 -61 -65 0
-2 -62 -66 0
-3 -63 -67 0
-4 -64 -68 0
-5 -61 -69 0
-6 -62 -70 0
-7 -63 -71 0
-8 -64 -72 0
-9 -61 -73 0
-10 -62 -74 0
-11 -63 -75 0
-12 -64 -76 0
-13 -61 -77 0
-14 -62 -78 0
-15 -63 -79 0
-16 -64 -80 0
-17 -61 -81 0
-18 -62 -82 0
-19 -63 -83 0
-20 -64 -84 0
-21 -61 -85 0
-22 -62 -86 0
-23 -63 -87 0
-24 -64 -88 0
-25 -61 -89 0
-26 -62 -90 0
-27 -63 -91 0
-28 -64 -92 0
-29 -61 -93 0
-30 -62 -94 0
-31 -63 -95 0
-32 -64 -96 0
-33 -61 -97 0
-34 -62 -98 0
-35 -63 -99 0
-36 -64 -100 0
-37 -61 -101 0
-38 -62 -102 0
-39 -63 -103 0
-40 -64 -104 0
-41 -61 -105 0
-42 -62 -106 0
-43 -63 -107 0
-44 -64 -108 0
-45 -61 -109 0
-46 -62 -110 0
-47 -63 -111 0
-48 -64 -112 0
-49 -61 -113 0
-50 -62 -114 0
-51 -63 -115 0
-52 -64 -116 0
-53 -61 -117 0
-54 -62 -118 0
-55 -63 -119 0
-56 -64 -120 0
-57 -61 -121 0
-58 -62 -122 0
-59 -63 -123 0
-60 -64 -124 0
-61 -125 0
-62 -126 0
-63 -127 0
-64 -128 0
-61 -65 -129 0
-62 -66 -130 0
-63 -67 -131 0
-64 -68 -132 0
-61 -69 -133 0
-62 -70 -134 0
-63 -71 -135 0
-64 -72 -136 0
-61 -73 -137 0
-62 -74 -138 0
-63 -75 -139 0
-64 -76 -140 0
-61 -77 -141 0
-62 -78 -142 0
-63 -79 -143 0
-64 -80 -144 0
-61 -81 -145 0
-62 -82 -146 0
-63 -83 -147 0
-64 -84 -148 0
-61 -85 -149 0
-62 -86 -150 0
-63 -87 -151 0
-64 -88 -152 0
-61 -89 -153 0
-62 -90 -154 0
-63 -91 -155 0
-64 -92 -156 0
-61 -93 -157 0
-62 -94 -158 0
-63 -95 -159 0
-64 -96 -160 0
-61 -97 -161 0
-62 -98 -162 0
-63 -99 -163 0
-64 -100 -164 0
-61 -101 -165 0
-62 -102 -166 0
-63 -103 -167 0
-64 -104 -168 0
-61 -105 -169 0
-62 -106 -170 0
-63 -107 -171 0
-64 -108 -172 0
-61 -109 -173 0
-62 -110 -174 0
-63 -111 -175 0
-64 -112 -176 0
-61 -113 -177 0
-62 -114 -178 0
-63 -115 -179 0
-64 -116 -180 0
-1 -65 -69 0
-2 -66 -70 0
-3 -67 -71 0
-4 -68 -72 0
-5 -65 -73 0
-6 -66 -74 0
-7 -67 -75 0
-8 -68 -76 0
-9 -65 -77 0
-10 -66 -78 0
-11 -67 -79 0
-12 -68 -80 0
-13 -65 -81 0
-14 -66 -82 0
-15 -67 -83 0
-16 -68 -84 0
-17 -65 -85 0
-18 -66 -86 0
-19 -67 -87 0
-20 -68 -88 0
-21 -65 -89 0
-22 -66 -90 0
-23 -67 -91 0
-24 -68 -92 0
-25 -65 -93 0
-26 -66 -94 0
-27 -67 -95 0
-28 -68 -96 0
-29 -65 -97 0
-30 -66 -98 0
-31 -67 -99 0
-32 -68 -100 0
-33 -65 -101 0
-34 -66 -102 0
-35 -67 -103 0
-36 -68 -104 0
-37 -65 -105 0
-38 -66 -106 0
-39 -67 -107 0
-40 -68 -108 0
-41 -65 -109 0
-42 -66 -110 0
-43 -67 -111 0
-44 -68 -112 0
-45 -65 -113 0
-46 -66 -114 0
-47 -67 -115 0
-48 -68 -116 0
-49 -65 -117 0
-50 -66 -118 0
-51 -67 -119 0
-52 -68 -120 0
-53 -65 -121 0
-54 -66 -122 0
-55 -67 -123 0
-56 -68 -124 0
-57 -65 -125 0
-58 -66 -126 0
-59 -67 -127 0
-60 -68 -128 0
-61 -65 -129 0
-62 -66 -130 0
-63 -67 -131 0
-64 -68 -132 0
-65 -133 0
-66 -134 0
-67 -135 0
-68 -136 0
-65 -69 -137 0
-66 -70 -138 0
-67 -71 -139 0
-68 -72 -140 0
-65 -73 -141 0
-66 -74 -142 0
-67 -75 -143 0
-68 -76 -144 0
-65 -77 -145 0
-66 -78 -146 0
-67 -79 -147 0
-68 -80 -148 0
-65 -81 -149 0
-66 -82 -150 0
-67 -83 -151 0
-68 -84 -152 0
-65 -85 -153 0
-66 -86 -154 0
-67 -87 -155 0
-68 -88 -156 0
-65 -89 -157 0
-66 -90 -158 0
-67 -91 -159 0
-68 -92 -160 0
-65 -93 -161 0
-66 -94 -162 0
-67 -95 -163 0
-68 -96 -164 0
-65 -97 -165 0
-66 -98 -166 0
-67 -99 -167 0
-68 -100 -168 0
-65 -101 -169 0
-66 -102 -170 0
-67 -103 -171 0
-68 -104 -172 0
-65 -105 -173 0
-66 -106 -174 0
-67 -107 -175 0
-68 -108 -176 0
-65 -109 -177 0
-66 -110 -178 0
-67 -111 -179 0
-68 -112 -180 0
-1 -69 -73 0
-2 -70 -74 0
-3 -71 -75 0
-4 -72 -76 0
-5 -69 -77 0
-6 -70 -78 0
-7 -71 -79 0
-8 -72 -80 0
-9 -69 -81 0
-10 -70 -82 0
-11 -71 -83 0
-12 -72 -84 0
-13 -69 -85 0
-14 -70 -86 0
-15 -71 -87 0
-16 -72 -88 0
-17 -69 -89 0
-18 -70 -90 0
-19 -71 -91 0
-20 -72 -92 0
-21 -69 -93 0
-22 -70 -94 0
-23 -71 -95 0
-24 -72 -96 0
-25 -69 -97 0
-26 -70 -98 0
-27 -71 -99 0
-28 -72 -100 0
-29 -69 -101 0
-30 -70 -102 0
-31 -71 -103 0
-32 -72 -104 0
-33 -69 -105 0
-34 -70 -106 0
-35 -71 -107 0
-36 -72 -108 0
-37 -69 -109 0
-38 -70 -110 0
-39 -71 -111 0
-40 -72 -112 0
-41 -69 -113 0
-42 -70 -114 0
-43 -71 -115 0
-44 -72 -116 0
-45 -69 -117 0
-46 -70 -118 0
-47 -71 -119 0
-48 -72 -120 0
-49 -69 -121 0
-50 -70 -122 0
-51 -71 -123 0
-52 -72 -124 0
-53 -69 -125 0
-54 -70 -126 0
-55 -71 -127 0
-56 -72 -128 0
-57 -69 -129 0
-58 -70 -130 0
-59 -71 -131 0
-60 -72 -132 0
-61 -69 -133 0
-62 -70 -134 0
-63 -71 -135 0
-64 -72 -136 0
-65 -69 -137 0
-66 -70 -138 0
-67 -71 -139 0
-68 -72 -140 0
-69 -141 0
-70 -142 0
-71 -143 0
-72 -144 0
-69 -73 -145 0
-70 -74 -146 0
-71 -75 -147 0
-72 -76 -148 0
-69 -77 -149 0
-70 -78 -150 0
-71 -79 -151 0
-72 -80 -152 0
-69 -81 -153 0
-70 -82 -154 0
-71 -83 -155 0
-72 -84 -156 0
-69 -85 -157 0
-70 -86 -158 0
-71 -87 -159 0
-72 -88 -160 0
-69 -89 -161 0
-70 -90 -162 0
-71 -91 -163 0
-72 -92 -164 0
-69 -93 -165 0
-70 -94 -166 0
-71 -95 -167 0
-72 -96 -168 0
-69 -97 -169 0
-70 -98 -170 0
-71 -99 -171 0
-72 -100 -172 0
-69 -101 -173 0
-70 -102 -174 0
-71 -103 -175 0
-72 -104 -176 0
-69 -105 -177 0
-70 -106 -178 0
-71 -107 -179 0
-72 -108 -180 0
-1 -73 -77 0
-2 -74 -78 0
-3 -75 -79 0
-4 -76 -80 0
-5 -73 -81 0
-6 -74 -82 0
-7 -75 -83 0
-8 -76 -84 0
-9 -73 -85 0
-10 -74 -86 0
-11 -75 -87 0
-12 -76 -88 0
-13 -73 -89 0
-14 -74 -90 0
-15 -75 -91 0
-16 -76 -92 0
-17 -73 -93 0
-18 -74 -94 0
-19 -75 -95 0
-20 -76 -96 0
-21 -73 -97 0
-22 -74 -98 0
-23 -75 -99 0
-24 -76 -100 0
-25 -73 -101 0
-26 -74 -102 0
-27 -75 -103 0
-28 -76 -104 0
-29 -73 -105 0
-30 -74 -106 0
-31 -75 -107 0
-32 -76 -108 0
-33 -73 -109 0
-34 -74 -110 0
-35 -75 -111 0
-36 -76 -112 0
-37 -73 -113 0
-38 -74 -114 0
-39 -75 -115 0
-40 -76 -116 0
-41 -73 -117 0
-42 -74 -118 0
-43 -75 -119 0
-44 -76 -120 0
-45 -73 -121 0
-46 -74 -122 0
-47 -75 -123 0
-48 -76 -124 0
-49 -73 -125 0
-50 -74 -126 0
-51 -75 -127 0
-52 -76 -128 0
-53 -73 -129 0
-54 -74 -130 0
-55 -75 -131 0
-56 -76 -132 0
-57 -73 -133 0
-58 -74 -134 0
-59 -75 -135 0
-60 -76 -136 0
-61 -73 -137 0
-62 -74 -138 0
-63 -75 -139 0
-64 -76 -140 0
-65 -73 -141 0
-66 -74 -142 0
-67 -75 -143 0
-68 -76 -144 0
-69 -73 -145 0
-70 -74 -146 0
-71 -75 -147 0
-72 -76 -148 0
-73 -149 0
-74 -150 0
-75 -151 0
-76 -152 0
-73 -77 -153 0
-74 -78 -154 0
-75 -79 -155 0
-76 -80 -156 0
-73 -81 -157 0
-74 -82 -158 0
-75 -83 -159 0
-76 -84 -160 0
-73 -85 -161 0
-74 -86 -162 0
-75 -87 -163 0
-76 -88 -164 0
-73 -89 -165 0
-74 -90 -166 0
-75 -91 -167 0
-76 -92 -168 0
-73 -93 -169 0
-74 -94 -170 0
-75 -95 -171 0
-76 -96 -172 0
-73 -97 -173 0
-74 -98 -174 0
-75 -99 -175 0
-76 -100 -176 0
-73 -101 -177 0
-74 -102 -178 0
-75 -103 -179 0
-76 -104 -180 0
-1 -77 -81 0
-2 -78 -82 0
-3 -79 -83 0
-4 -80 -84 0
-5 -77 -85 0
-6 -78 -86 0
-7 -79 -87 0
-8 -80 -88 0
-9 -77 -89 0
-10 -78 -90 0
-11 -79 -91 0
-12 -80 -92 0
-13 -77 -93 0
-14 -78 -94 0
-15 -79 -95 0
-16 -80 -96 0
-17 -77 -97 0
-18 -78 -98 0
-19 -79 -99 0
-20 -80 -100 0
-21 -77 -101 0
-22 -78 -102 0
-23 -79 -103 0
-24 -80 -104 0
-25 -77 -105 0
-26 -78 -106 0
-27 -79 -107 0
-28 -80 -108 0
-29 -77 -109 0
-30 -78 -110 0
-31 -79 -111 0
-32 -80 -112 0
-33 -77 -113 0
-34 -78 -114 0
-35 -79 -115 0
-36 -80 -116 0
-37 -77 -117 0
-38 -78 -118 0
-39 -79 -119 0
-40 -80 -120 0
-41 -77 -121 0
-42 -78 -122 0
-43 -79 -123 0
-44 -80 -124 0
-45 -77 -125 0
-46 -78 -126 0
-47 -79 -127 0
-48 -80 -128 0
-49 -77 -129 0
-50 -78 -130 0
-51 -79 -131 0
-52 -80 -132 0
-53 -77 -133 0
-54 -78 -134 0
-55 -79 -135 0
-56 -80 -136 0
-57 -77 -137 0
-58 -78 -138 0
-59 -79 -139 0
-60 -80 -140 0
-61 -77 -141 0
-62 -78 -142 0
-63 -79 -143 0
-64 -80 -144 0
-65 -77 -145 0
-66 -78 -146 0
-67 -79 -147 0
-68 -80 -148 0
-69 -77 -149 0
-70 -78 -150 0
-71 -79 -151 0
-72 -80 -152 0
-73 -77 -153 0
-74 -78 -154 0
-75 -79 -155 0
-76 -80 -156 0
-77 -157 0
-78 -158 0
-79 -159 0
-80 -160 0
-77 -81 -161 0
-78 -82 -162 0
-79 -83 -163 0
-80 -84 -164 0
-77 -85 -165 0
-78 -86 -166 0
-79 -87 -167 0
-80 -88 -168 0
-77 -89 -169 0
-78 -90 -170 0
-79 -91 -171 0
-80 -92 -172 0
-77 -93 -173 0
-78 -94 -174 0
-79 -95 -175 0
-80 -96 -176 0
-77 -97 -177 0
-78 -98 -178 0
-79 -99 -179 0
-80 -100 -180 0
-1 -81 -85 0
-2 -82 -86 0
-3 -83 -87 0
-4 -84 -88 0
-5 -81 -89 0
-6 -82 -90 0
-7 -83 -91 0
-8 -84 -92 0
-9 -81 -93 0
-10 -82 -94 0
-11 -83 -95 0
-12 -84 -96 0
-13 -81 -97 0
-14 -82 -98 0
-15 -83 -99 0
-16 -84 -100 0
-17 -81 -101 0
-18 -82 -102 0
-19 -83 -103 0
-20 -84 -104 0
-21 -81 -105 0
-22 -82 -106 0
-23 -83 -107 0
-24 -84 -108 0
-25 -81 -109 0
-26 -82 -110 0
-27 -83 -111 0
-28 -84 -112 0
-29 -81 -113 0
-30 -82 -114 0
-31 -83 -115 0
-32 -84 -116 0
-33 -81 -117 0
-34 -82 -118 0
-35 -83 -119 0
-36 -84 -120 0
-37 -81 -121 0
-38 -82 -122 0
-39 -83 -123 0
-40 -84 -124 0
-41 -81 -125 0
-42 -82 -126 0
-43 -83 -127 0
-44 -84 -128 0
-45 -81 -129 0
-46 -82 -130 0
-47 -83 -131 0
-48 -84 -132 0
-49 -81 -133 0
-50 -82 -134 0
-51 -83 -135 0
-52 -84 -136 0
-53 -81 -137 0
-54 -82 -138 0
-55 -83 -139 0
-56 -84 -140 0
-57 -81 -141 0
-58 -82 -142 0
-59 -83 -143 0
-60 -84 -144 0
-61 -81 -145 0
-62 -82 -146 0
-63 -83 -147 0
-64 -84 -148 0
-65 -81 -149 0
-66 -82 -150 0
-67 -83 -151 0
-68 -84 -152 0
-69 -81 -153 0
-70 -82 -154 0
-71 -83 -155 0
-72 -84 -156 0
-73 -81 -157 0
-74 -82 -158 0
-75 -83 -159 0
-76 -84 -160 0
-77 -81 -161 0
-78 -82 -162 0
-79 -83 -163 0
-80 -84 -164 0
-81 -165 0
-82 -166 0
-83 -167 0
-84 -168 0
-81 -85 -169 0
-82 -86 -170 0
-83 -87 -171 0
-84 -88 -172 0
-81 -89 -173 0
-82 -90 -174 0
-83 -91 -175 0
-84 -92 -176 0
-81 -93 -177 0
-82 -94 -178 0
-83 -95 -179 0
-84 -96 -180 0
-1 -85 -89 0
-2 -86 -90 0
-3 -87 -91 0
-4 -88 -92 0
-5 -85 -93 0
-6 -86 -94 0
-7 -87 -95 0
-8 -88 -96 0
-9 -85 -97 0
-10 -86 -98 0
-11 -87 -99 0
-12 -88 -100 0
-13 -85 -101 0
-14 -86 -102 0
-15 -87 -103 0
-16 -88 -104 0
-17 -85 -105 0
-18 -86 -106 0
-19 -87 -107 0
-20 -88 -108 0
-21 -85 -109 0
-22 -86 -110 0
-23 -87 -111 0
-24 -88 -112 0
-25 -85 -113 0
-26 -86 -114 0
-27 -87 -115 0
-28 -88 -116 0
-29 -85 -117 0
-30 -86 -118 0
-31 -87 -119 0
-32 -88 -120 0
-33 -85 -121 0
-34 -86 -122 0
-35 -87 -123 0
-36 -88 -124 0
-37 -85 -125 0
-38 -86 -126 0
-39 -87 -127 0
-40 -88 -128 0
-41 -85 -129 0
-42 -86 -130 0
-43 -87 -131 0
-44 -88 -132 0
-45 -85 -133 0
-46 -86 -134 0
-47 -87 -135 0
-48 -88 -136 0
-49 -85 -137 0
-50 -86 -138 0
-51 -87 -139 0
-52 -88 -140 0
-53 -85 -141 0
-54 -86 -142 0
-55 -87 -143 0
-56 -88 -144 0
-57 -85 -145 0
-58 -86 -146 0
-59 -87 -147 0
-60 -88 -148 0
-61 -85 -149 0
-62 -86 -150 0
-63 -87 -151 0
-64 -88 -152 0
-65 -85 -153 0
-66 -86 -154 0
-67 -87 -155 0
-68 -88 -156 0
-69 -85 -157 0
-70 -86 -158 0
-71 -87 -159 0
-72 -88 -160 0
-73 -85 -161 0
-74 -86 -162 0
-75 -87 -163 0
-76 -88 -164 0
-77 -85 -165 0
-78 -86 -166 0
-79 -87 -167 0
-80 -88 -168 0
-81 -85 -169 0
-82 -86 -170 0
-83 -87 -171 0
-84 -88 -172 0
-85 -173 0
-86 -174 0
-87 -175 0
-88 -176 0
-85 -89 -177 0
-86 -90 -178 0
-87 -91 -179 0
-88 -92 -180 0
-1 -89 -93 0
-2 -90 -94 0
-3 -91 -95 0
-4 -92 -96 0
-5 -89 -97 0
-6 -90 -98 0
-7 -91 -99 0
-8 -92 -100 0
-9 -89 -101 0
-10 -90 -102 0
-11 -91 -103 0
-12 -92 -104 0
-13 -89 -105 0
-14 -90 -106 0
-15 -91 -107 0
-16 -92 -108 0
-17 -89 -109 0
-18 -90 -110 0
-19 -91 -111 0
-20 -92 -112 0
-21 -89 -113 0
-22 -90 -114 0
-23 -91 -115 0
-24 -92 -116 0
-25 -89 -117 0
-26 -90 -118 0
-27 -91 -119 0
-28 -92 -120 0
-29 -89 -121 0
-30 -90 -122 0
-31 -91 -123 0
-32 -92 -124 0
-33 -89 -125 0
-34 -90 -126 0
-35 -91 -127 0
-36 -92 -128 0
-37 -89 -129 0
-38 -90 -130 0
-39 -91 -131 0
-40 -92 -132 0
-41 -89 -133 0
-42 -90 -134 0
-43 -91 -135 0
-44 -92 -136 0
-45 -89 -137 0
-46 -90 -138 0
-47 -91 -139 0
-48 -92 -140 0
-49 -89 -141 0
-50 -90 -142 0
-51 -91 -143 0
-52 -92 -144 0
-53 -89 -145 0
-54 -90 -146 0
-55 -91 -147 0
-56 -92 -148 0
-57 -89 -149 0
-58 -90 -150 0
-59 -91 -151 0
-60 -92 -152 0
-61 -89 -153 0
-62 -90 -154 0
-63 -91 -155 0
-64 -92 -156 0
-65 -89 -157 0
-66 -90 -158 0
-67 -91 -159 0
-68 -92 -160 0
-69 -89 -161 0
-70 -90 -162 0
-71 -91 -163 0
-72 -92 -164 0
-73 -89 -165 0
-74 -90 -166 0
-75 -91 -167 0
-76 -92 -168 0
-77 -89 -169 0
-78 -90 -170 0
-79 -91 -171 0
-80 -92 -172 0
-81 -89 -173 0
-82 -90 -174 0
-83 -91 -175 0
-84 -92 -176 0
-85 -89 -177 0
-86 -90 -178 0
-87 -91 -179 0
-88 -92 -180 0
-1 -93 -97 0
-2 -94 -98 0
-3 -95 -99 0
-4 -96 -100 0
-5 -93 -101 0
-6 -94 -102 0
-7 -95 -103 0
-8 -96 -104 0
-9 -93 -105 0
-10 -94 -106 0
-11 -95 -107 0
-12 -96 -108 0
-13 -93 -109 0
-14 -94 -110 0
-15 -95 -111 0
-16 -96 -112 0
-17 -93 -113 0
-18 -94 -114 0
-19 -95 -115 0
-20 -96 -116 0
-21 -93 -117 0
-22 -94 -118 0
-23 -95 -119 0
-24 -96 -120 0
-25 -93 -121 0
-26 -94 -122 0
-27 -95 -123 0
-28 -96 -124 0
-29 -93 -125 0
-30 -94 -126 0
-31 -95 -127 0
-32 -96 -128 0
-33 -93 -129 0
-34 -94 -130 0
-35 -95 -131 0
-36 -96 -132 0
-37 -93 -133 0
-38 -94 -134 0
-39 -95 -135 0
-40 -96 -136 0
-41 -93 -137 0
-42 -94 -138 0
-43 -95 -139 0
-44 -96 -140 0
-45 -93 -141 0
-46 -94 -142 0
-47 -95 -143 0
-48 -96 -144 0
-49 -93 -145 0
-50 -94 -146 0
-51 -95 -147 0
-52 -96 -148 0
-53 -93 -149 0
-54 -94 -150 0
-55 -95 -151 0
-56 -96 -152 0
-57 -93 -153 0
-58 -94 -154 0
-59 -95 -155 0
-60 -96 -156 0
-61 -93 -157 0
-62 -94 -158 0
-63 -95 -159 0
-64 -96 -160 0
-65 -93 -161 0
-66 -94 -162 0
-67 -95 -163 0
-68 -96 -164 0
-69 -93 -165 0
-70 -94 -166 0
-71 -95 -167 0
-72 -96 -168 0
-73 -93 -169 0
-74 -94 -170 0
-75 -95 -171 0
-76 -96 -172 0
-77 -93 -173 0
-78 -94 -174 0
-79 -95 -175 0
-80 -96 -176 0
-81 -93 -177 0
-82 -94 -178 0
-83 -95 -179 0
-84 -96 -180 0
-1 -97 -101 0
-2 -98 -102 0
-3 -99 -103 0
-4 -100 -104 0
-5 -97 -105 0
-6 -98 -106 0
-7 -99 -107 0
-8 -100 -108 0
-9 -97 -109 0
-10 -98 -110 0
-11 -99 -111 0
-12 -100 -112 0
-13 -97 -113 0
-14 -98 -114 0
-15 -99 -115 0
-16 -100 -116 0
-17 -97 -117 0
-18 -98 -118 0
-19 -99 -119 0
-20 -100 -120 0
-21 -97 -121 0
-22 -98 -122 0
-23 -99 -123 0
-24 -100 -124 0
-25 -97 -125 0
-26 -98 -126 0
-27 -99 -127 0
-28 -100 -128 0
-29 -97 -129 0
-30 -98 -130 0
-31 -99 -131 0
-32 -100 -132 0
-33 -97 -133 0
-34 -98 -134 0
-35 -99 -135 0
-36 -100 -136 0
-37 -97 -137 0
-38 -98 -138 0
-39 -99 -139 0
-40 -100 -140 0
-41 -97 -141 0
-42 -98 -142 0
-43 -99 -143 0
-44 -100 -144 0
-45 -97 -145 0
-46 -98 -146 0
-47 -99 -147 0
-48 -100 -148 0
-49 -97 -149 0
-50 -98 -150 0
-51 -99 -151 0
-52 -100 -152 0
-53 -97 -153 0
-54 -98 -154 0
-55 -99 -155 0
-56 -100 -156 0
-57 -97 -157 0
-58 -98 -158 0
-59 -99 -159 0
-60 -100 -160 0
-61 -97 -161 0
-62 -98 -162 0
-63 -99 -163 0
-64 -100 -164 0
-65 -97 -165 0
-66 -98 -166 0
-67 -99 -167 0
-68 -100 -168 0
-69 -97 -169 0
-70 -98 -170 0
-71 -99 -171 0
-72 -100 -172 0
-73 -97 -173 0
-74 -98 -174 0
-75 -99 -175 0
-76 -100 -176 0
-77 -97 -177 0
-78 -98 -178 0
-79 -99 -179 0
-80 -100 -180 0
-1 -101 -105 0
-2 -102 -106 0
-3 -103 -107 0
-4 -104 -108 0
-5 -101 -109 0
-6 -102 -110 0
-7 -103 -111 0
-8 -104 -112 0
-9 -101 -113 0
-10 -102 -114 0
-11 -103 -115 0
-12 -104 -116 0
-13 -101 -117 0
-14 -102 -118 0
-15 -103 -119 0
-16 -104 -120 0
-17 -101 -121 0
-18 -102 -122 0
-19 -103 -123 0
-20 -104 -124 0
-21 -101 -125 0
-22 -102 -126 0
-23 -103 -127 0
-24 -104 -128 0
-25 -101 -129 0
-26 -102 -130 0
-27 -103 -131 0
-28 -104 -132 0
-29 -101 -133 0
-30 -102 -134 0
-31 -103 -135 0
-32 -104 -136 0
-33 -101 -137 0
-34 -102 -138 0
-35 -103 -139 0
-36 -104 -140 0
-37 -101 -141 0
-38 -102 -142 0
-39 -103 -143 0
-40 -104 -144 0
-41 -101 -145 0
-42 -102 -146 0
-43 -103 -147 0
-44 -104 -148 0
-45 -101 -149 0
-46 -102 -150 0
-47 -103 -151 0
-48 -104 -152 0
-49 -101 -153 0
-50 -102 -154 0
-51 -103 -155 0
-52 -104 -156 0
-53 -101 -157 0
-54 -102 -158 0
-55 -103 -159 0
-56 -104 -160 0
-57 -101 -161 0
-58 -102 -162 0
-59 -103 -163 0
-60 -104 -164 0
-61 -101 -165 0
-62 -102 -166 0
-63 -103 -167 0
-64 -104 -168 0
-65 -101 -169 0
-66 -102 -170 0
-67 -103 -171 0
-68 -104 -172 0
-69 -101 -173 0
-70 -102 -174 0
-71 -103 -175 0
-72 -104 -176 0
-73 -101 -177 0
-74 -102 -178 0
-75 -103 -179 0
-76 -104 -180 0
-1 -105 -109 0
-2 -106 -110 0
-3 -107 -111 0
-4 -108 -112 0
-5 -105 -113 0
-6 -106 -114 0
-7 -107 -115 0
-8 -108 -116 0
-9 -105 -117 0
-10 -106 -118 0
-11 -107 -119 0
-12 -108 -120 0
-13 -105 -121 0
-14 -106 -122 0
-15 -107 -123 0
-16 -108 -124 0
-17 -105 -125 0
-18 -106 -126 0
-19 -107 -127 0
-20 -108 -128 0
-21 -105 -129 0
-22 -106 -130 0
-23 -107 -131 0
-24 -108 -132 0
-25 -105 -133 0
-26 -106 -134 0
-27 -107 -135 0
-28 -108 -136 0
-29 -105 -137 0
-30 -106 -138 0
-31 -107 -139 0
-32 -108 -140 0
-33 -105 -141 0
-34 -106 -142 0
-35 -107 -143 0
-36 -108 -144 0
-37 -105 -145 0
-38 -106 -146 0
-39 -107 -147 0
-40 -108 -148 0
-41 -105 -149 0
-42 -106 -150 0
-43 -107 -151 0
-44 -108 -152 0
-45 -105 -153 0
-46 -106 -154 0
-47 -107 -155 0
-48 -108 -156 0
-49 -105 -157 0
-50 -106 -158 0
-51 -107 -159 0
-52 -108 -160 0
-53 -105 -161 0
-54 -106 -162 0
-55 -107 -163 0
-56 -108 -164 0
-57 -105 -165 0
-58 -106 -166 0
-59 -107 -167 0
-60 -108 -168 0
-61 -105 -169 0
-62 -106 -170 0
-63 -107 -171 0
-64 -108 -172 0
-65 -105 -173 0
-66 -106 -174 0
-67 -107 -175 0
-68 -108 -176 0
-69 -105 -177 0
-70 -106 -178 0
-71 -107 -179 0
-72 -108 -180 0
-1 -109 -113 0
-2 -110 -114 0
-3 -111 -115 0
-4 -112 -116 0
-5 -109 -117 0
-6 -110 -118 0
-7 -111 -119 0
-8 -112 -120 0
-9 -109 -121 0
-10 -110 -122 0
-11 -111 -123 0
-12 -112 -124 0
-13 -109 -125 0
-14 -110 -126 0
-15 -111 -127 0
-16 -112 -128 0
-17 -109 -129 0
-18 -110 -130 0
-19 -111 -131 0
-20 -112 -132 0
-21 -109 -133 0
-22 -110 -134 0
-23 -111 -135 0
-24 -112 -136 0
-25 -109 -137 0
-26 -110 -138 0
-27 -111 -139 0
-28 -112 -140 0
-29 -109 -141 0
-30 -110 -142 0
-31 -111 -143 0
-32 -112 -144 0
-33 -109 -145 0
-34 -110 -146 0
-35 -111 -147 0
-36 -112 -148 0
-37 -109 -149 0
-38 -110 -150 0
-39 -111 -151 0
-40 -112 -152 0
-41 -109 -153 0
-42 -110 -154 0
-43 -111 -155 0
-44 -112 -156 0
-45 -109 -157 0
-46 -110 -158 0
-47 -111 -159 0
-48 -112 -160 0
-49 -109 -161 0
-50 -110 -162 0
-51 -111 -163 0
-52 -112 -164 0
-53 -109 -165 0
-54 -110 -166 0
-55 -111 -167 0
-56 -112 -168 0
-57 -109 -169 0
-58 -110 -170 0
-59 -111 -171 0
-60 -112 -172 0
-61 -109 -173 0
-62 -110 -174 0
-63 -111 -175 0
-64 -112 -176 0
-65 -109 -177 0
-66 -110 -178 0
-67 -111 -179 0
-68 -112 -180 0
-1 -113 -117 0
-2 -114 -118 0
-3 -115 -119 0
-4 -116 -120 0
-5 -113 -121 0
-6 -114 -122 0
-7 -115 -123 0
-8 -116 -124 0
-9 -113 -125 0
-10 -114 -126 0
-11 -115 -127 0
-12 -116 -128 0
-13 -113 -129 0
-14 -114 -130 0
-15 -115 -131 0
-16 -116 -132 0
-17 -113 -133 0
-18 -114 -134 0
-19 -115 -135 0
-20 -116 -136 0
-21 -113 -137 0
-22 -114 -138 0
-23 -115 -139 0
-24 -116 -140 0
-25 -113 -141 0
-26 -114 -142 0
-27 -115 -143 0
-28 -116 -144 0
-29 -113 -145 0
-30 -114 -146 0
-31 -115 -147 0
-32 -116 -148 0
-33 -113 -149 0
-34 -114 -150 0
-35 -115 -151 0
-36 -116 -152 0
-37 -113 -153 0
-38 -114 -154 0
-39 -115 -155 0
-40 -116 -156 0
-41 -113 -157 0
-42 -114 -158 0
-43 -115 -159 0
-44 -116 -160 0
-45 -113 -161 0
-46 -114 -162 0
-47 -115 -163 0
-48 -116 -164 0
-49 -113 -165 0
-50 -114 -166 0
-51 -115 -167 0
-52 -116 -168 0
-53 -113 -169 0
-54 -114 -170 0
-55 -115 -171 0
-56 -116 -172 0
-57 -113 -173 0
-58 -114 -174 0
-59 -115 -175 0
-60 -116 -176 0
-61 -113 -177 0
-62 -114 -178 0
-63 -115 -179 0
-64 -116 -180 0
-1 -117 -121 0
-2 -118 -122 0
-3 -119 -123 0
-4 -120 -124 0
-5 -117 -125 0
-6 -118 -126 0
-7 -119 -127 0
-8 -120 -128 0
-9 -117 -129 0
-10 -118 -130 0
-11 -119 -131 0
-12 -120 -132 0
-13 -117 -133 0
-14 -118 -134 0
-15 -119 -135 0
-16 -120 -136 0
-17 -117 -137 0
-18 -118 -138 0
-19 -119 -139 0
-20 -120 -140 0
-21 -117 -141 0
-22 -118 -142 0
-23 -119 -143 0
-24 -120 -144 0
-25 -117 -145 0
-26 -118 -146 0
-27 -119 -147 0
-28 -120 -148 0
-29 -117 -149 0
-30 -118 -150 0
-31 -119 -151 0
-32 -120 -152 0
-33 -117 -153 0
-34 -118 -154 0
-35 -119 -155 0
-36 -120 -156 0
-37 -117 -157 0
-38 -118 -158 0
-39 -119 -159 0
-40 -120 -160 0
-41 -117 -161 0
-42 -118 -162 0
-43 -119 -163 0
-44 -120 -164 0
-45 -117 -165 0
-46 -118 -166 0
-47 -119 -167 0
-48 -120 -168 0
-49 -117 -169 0
-50 -118 -170 0
-51 -119 -171 0
-52 -120 -172 0
-53 -117 -173 0
-54 -118 -174 0
-55 -119 -175 0
-56 -120 -176 0
-57 -117 -177 0
-58 -118 -178 0
-59 -119 -179 0
-60 -120 -180 0
-1 -121 -125 0
-2 -122 -126 0
-3 -123 -127 0
-4 -124 -128 0
-5 -121 -129 0
-6 -122 -130 0
-7 -123 -131 0
-8 -124 -132 0
-9 -121 -133 0
-10 -122 -134 0
-11 -123 -135 0
-12 -124 -136 0
-13 -121 -137 0
-14 -122 -138 0
-15 -123 -139 0
-16 -124 -140 0
-17 -121 -141 0
-18 -122 -142 0
-19 -123 -143 0
-20 -124 -144 0
-21 -121 -145 0
-22 -122 -146 0
-23 -123 -147 0
-24 -124 -148 0
-25 -121 -149 0
-26 -122 -150 0
-27 -123 -151 0
-28 -124 -152 0
-29 -121 -153 0
-30 -122 -154 0
-31 -123 -155 0
-32 -124 -156 0
-33 -121 -157 0
-34 -122 -158 0
-35 -123 -159 0
-36 -124 -160 0
-37 -121 -161 0
-38 -122 -162 0
-39 -123 -163 0
-40 -124 -164 0
-41 -121 -165 0
-42 -122 -166 0
-43 -123 -167 0
-44 -124 -168 0
-45 -121 -169 0
-46 -122 -170 0
-47 -123 -171 0
-48 -124 -172 0
-49 -121 -173 0
-50 -122 -174 0
-51 -123 -175 0
-52 -124 -176 0
-53 -121 -177 0
-54 -122 -178 0
-55 -123 -179 0
-56 -124 -180 0
-1 -125 -129 0
-2 -126 -130 0
-3 -127 -131 0
-4 -128 -132 0
-5 -125 -133 0
-6 -126 -134 0
-7 -127 -135 0
-8 -128 -136 0
-9 -125 -137 0
-10 -126 -138 0
-11 -127 -139 0
-12 -128 -140 0
-13 -125 -141 0
-14 -126 -142 0
-15 -127 -143 0
-16 -128 -144 0
-17 -125 -145 0
-18 -126 -146 0
-19 -127 -147 0
-20 -128 -148 0
-21 -125 -149 0
-22 -126 -150 0
-23 -127 -151 0
-24 -128 -152 0
-25 -125 -153 0
-26 -126 -154 0
-27 -127 -155 0
-28 -128 -156 0
-29 -125 -157 0
-30 -126 -158 0
-31 -127 -159 0
-32 -128 -160 0
-33 -125 -161 0
-34 -126 -162 0
-35 -127 -163 0
-36 -128 -164 0
-37 -125 -165 0
-38 -126 -166 0
-39 -127 -167 0
-40 -128 -168 0
-41 -125 -169 0
-42 -126 -170 0
-43 -127 -171 0
-44 -128 -172 0
-45 -125 -173 0
-46 -126 -174 0
-47 -127 -175 0
-48 -128 -176 0
-49 -125 -177 0
-50 -126 -178 0
-51 -127 -179 0
-52 -128 -180 0
-1 -129 -133 0
-2 -130 -134 0
-3 -131 -135 0
-4 -132 -136 0
-5 -129 -137 0
-6 -130 -138 0
-7 -131 -139 0
-8 -132 -140 0
-9 -129 -141 0
-10 -130 -142 0
-11 -131 -143 0
-12 -132 -144 0
-13 -129 -145 0
-14 -130 -146 0
-15 -131 -147 0
-16 -132 -148 0
-17 -129 -149 0
-18 -130 -150 0
-19 -131 -151 0
-20 -132 -152 0
-21 -129 -153 0
-22 -130 -154 0
-23 -131 -155 0
-24 -132 -156 0
-25 -129 -157 0
-26 -130 -158 0
-27 -131 -159 0
-28 -132 -160 0
-29 -129 -161 0
-30 -130 -162 0
-31 -131 -163 0
-32 -132 -164 0
-33 -129 -165 0
-34 -130 -166 0
-35 -131 -167 0
-36 -132 -168 0
-37 -129 -169 0
-38 -130 -170 0
-39 -131 -171 0
-40 -132 -172 0
-41 -129 -173 0
-42 -130 -174 0
-43 -131 -175 0
-44 -132 -176 0
-45 -129 -177 0
-46 -130 -178 0
-47 -131 -179 0
-48 -132 -180 0
-1 -133 -137 0
-2 -134 -138 0
-3 -135 -139 0
-4 -136 -140 0
-5 -133 -141 0
-6 -134 -142 0
-7 -135 -143 0
-8 -136 -144 0
-9 -133 -145 0
-10 -134 -146 0
-11 -135 -147 0
-12 -136 -148 0
-13 -133 -149 0
-14 -134 -150 0
-15 -135 -151 0
-16 -136 -152 0
-17 -133 -153 0
-18 -134 -154 0
-19 -135 -155 0
-20 -136 -156 0
-21 -133 -157 0
-22 -134 -158 0
-23 -135 -159 0
-24 -136 -160 0
-25 -133 -161 0
-26 -134 -162 0
-27 -135 -163 0
-28 -136 -164 0
-29 -133 -165 0
-30 -134 -166 0
-31 -135 -167 0
-32 -136 -168 0
-33 -133 -169 0
-34 -134 -170 0
-35 -135 -171 0
-36 -136 -172 0
-37 -133 -173 0
-38 -134 -174 0
-39 -135 -175 0
-40 -136 -176 0
-41 -133 -177 0
-42 -134 -178 0
-43 -135 -179 0
-44 -136 -180 0
-1 -137 -141 0
-2 -138 -142 0
-3 -139 -143 0
-4 -140 -144 0
-5 -137 -145 0
-6 -138 -146 0
-7 -139 -147 0
-8 -140 -148 0
-9 -137 -149 0
-10 -138 -150 0
-11 -139 -151 0
-12 -140 -152 0
-13 -137 -153 0
-14 -138 -154 0
-15 -139 -155 0
-16 -140 -156 0
-17 -137 -157 0
-18 -138 -158 0
-19 -139 -159 0
-20 -140 -160 0
-21 -137 -161 0
-22 -138 -162 0
-23 -139 -163 0
-24 -140 -164 0
-25 -137 -165 0
-26 -138 -166 0
-27 -139 -167 0
-28 -140 -168 0
-29 -137 -169 0
-30 -138 -170 0
-31 -139 -171 0
-32 -140 -172 0
-33 -137 -173 0
-34 -138 -174 0
-35 -139 -175 0
-36 -140 -176 0
-37 -137 -177 0
-38 -138 -178 0
-39 -139 -179 0
-40 -140 -180 0
-1 -141 -145 0
-2 -142 -146 0
-3 -143 -147 0
-4 -144 -148 0
-5 -141 -149 0
-6 -142 -150 0
-7 -143 -151 0
-8 -144 -152 0
-9 -141 -153 0
-10 -142 -154 0
-11 -143 -155 0
-12 -144 -156 0
-13 -141 -157 0
-14 -142 -158 0
-15 -143 -159 0
-16 -144 -160 0
-17 -141 -161 0
-18 -142 -162 0
-19 -143 -163 0
-20 -144 -164 0
-21 -141 -165 0
-22 -142 -166 0
-23 -143 -167 0
-24 -144 -168 0
-25 -141 -169 0
-26 -142 -170 0
-27 -143 -171 0
-28 -144 -172 0
-29 -141 -173 0
-30 -142 -174 0
-31 -143 -175 0
-32 -144 -176 0
-33 -141 -177 0
-34 -142 -178 0
-35 -143 -179 0
-36 -144 -180 0
-1 -145 -149 0
-2 -146 -150 0
-3 -147 -151 0
-4 -148 -152 0
-5 -145 -153 0
-6 -146 -154 0
-7 -147 -155 0
-8 -148 -156 0
-9 -145 -157 0
-10 -146 -158 0
-11 -147 -159 0
-12 -148 -160 0
-13 -145 -161 0
-14 -146 -162 0
-15 -147 -163 0
-16 -148 -164 0
-17 -145 -165 0
-18 -146 -166 0
-19 -147 -167 0
-20 -148 -168 0
-21 -145 -169 0
-22 -146 -170 0
-23 -147 -171 0
-24 -148 -172 0
-25 -145 -173 0
-26 -146 -174 0
-27 -147 -175 0
-28 -148 -176 0
-29 -145 -177 0
-30 -146 -178 0
-31 -147 -179 0
-32 -148 -180 0
-1 -149 -153 0
-2 -150 -154 0
-3 -151 -155 0
-4 -152 -156 0
-5 -149 -157 0
-6 -150 -158 0
-7 -151 -159 0
-8 -152 -160 0
-9 -149 -161 0
-10 -150 -162 0
-11 -151 -163 0
-12 -152 -164 0
-13 -149 -165 0
-14 -150 -166 0
-15 -151 -167 0
-16 -152 -168 0
-17 -149 -169 0
-18 -150 -170 0
-19 -151 -171 0
-20 -152 -172 0
-21 -149 -173 0
-22 -150 -174 0
-23 -151 -175 0
-24 -152 -176 0
-25 -149 -177 0
-26 -150 -178 0
-27 -151 -179 0
-28 -152 -180 0
-1 -153 -157 0
-2 -154 -158 0
-3 -155 -159 0
-4 -156 -160 0
-5 -153 -161 0
-6 -154 -162 0
-7 -155 -163 0
-8 -156 -164 0
-9 -153 -165 0
-10 -154 -166 0
-11 -155 -167 0
-12 -156 -168 0
-13 -153 -169 0
-14 -154 -170 0
-15 -155 -171 0
-16 -156 -172 0
-17 -153 -173 0
-18 -154 -174 0
-19 -155 -175 0
-20 -156 -176 0
-21 -153 -177 0
-22 -154 -178 0
-23 -155 -179 0
-24 -156 -180 0
-1 -157 -161 0
-2 -158 -162 0
-3 -159 -163 0
-4 -160 -164 0
-5 -157 -165 0
-6 -158 -166 0
-7 -159 -167 0
-8 -160 -168 0
-9 -157 -169 0
-10 -158 -170 0
-11 -159 -171 0
-12 -160 -172 0
-13 -157 -173 0
-14 -158 -174 0
-15 -159 -175 0
-16 -160 -176 0
-17 -157 -177 0
-18 -158 -178 0
-19 -159 -179 0
-20 -160 -180 0
-1 -161 -165 0
-2 -162 -166 0
-3 -163 -167 0
-4 -164 -168 0
-5 -161 -169 0
-6 -162 -170 0
-7 -163 -171 0
-8 -164 -172 0
-9 -161 -173 0
-10 -162 -174 0
-11 -163 -175 0
-12 -164 -176 0
-13 -161 -177 0
-14 -162 -178 0
-15 -163 -179 0
-16 -164 -180 0
-1 -165 -169 0
-2 -166 -170 0
-3 -167 -171 0
-4 -168 -172 0
-5 -165 -173 0
-6 -166 -174 0
-7 -167 -175 0
-8 -168 -176 0
-9 -165 -177 0
-10 -166 -178 0
-11 -167 -179 0
-12 -168 -180 0
-1 -169 -173 0
-2 -170 -174 0
-3 -171 -175 0
-4 -172 -176 0
-5 -169 -177 0
-6 -170 -178 0
-7 -171 -179 0
-8 -172 -180 0
-1 -173 -177 0
-2 -174 -178 0
-3 -175 -179 0
-4 -176 -180 0
-1 -2 0
-1 -3 0
-1 -4 0
-2 -3 0
-2 -4 0
-3 -4 0
-5 -6 0
-5 -7 0
-5 -8 0
-6 -7 0
-6 -8 0
-7 -8 0
-9 -10 0
-9 -11 0
-9 -12 0
-10 -11 0
-10 -12 0
-11 -12 0
-13 -14 0
-13 -15 0
-13 -16 0
-14 -15 0
-14 -16 0
-15 -16 0
-17 -18 0
-17 -19 0
-17 -20 0
-18 -19 0
-18 -20 0
-19 -20 0
-21 -22 0
-21 -23 0
-21 -24 0
-22 -23 0
-22 -24 0
-23 -24 0
-25 -26 0
-25 -27 0
-25 -28 0
-26 -27 0
-26 -28 0
-27 -28 0
-29 -30 0
-29 -31 0
-29 -32 0
-30 -31 0
-30 -32 0
-31 -32 0
-33 -34 0
-33 -35 0
-33 -36 0
-34 -35 0
-34 -36 0
-35 -36 0
-37 -38 0
-37 -39 0
-37 -40 0
-38 -39 0
-38 -40 0
-39 -40 0
-41 -42 0
-41 -43 0
-41 -44 0
-42 -43 0
-42 -44 0
-43 -44 0
-45 -46 0
-45 -47 0
-45 -48 0
-46 -47 0
-46 -48 0
-47 -48 0
-49 -50 0
-49 -51 0
-49 -52 0
-50 -51 0
-50 -52 0
-51 -52 0
-53 -54 0
-53 -55 0
-53 -56 0
-54 -55 0
-54 -56 0
-55 -56 0
-57 -58 0
-57 -59 0
-57 -60 0
-58 -59 0
-58 -60 0
-59 -60 0
-61 -62 0
-61 -63 0
-61 -64 0
-62 -63 0
-62 -64 0
-63 -64 0
-65 -66 0
-65 -67 0
-65 -68 0
-66 -67 0
-66 -68 0
-67 -68 0
-69 -70 0
-69 -71 0
-69 -72 0
-70 -71 0
-70 -72 0
-71 -72 0
-73 -74 0
-73 -75 0
-73 -76 0
-74 -75 0
-74 -76 0
-75 -76 0
-77 -78 0
-77 -79 0
-77 -80 0
-78 -79 0
-78 -80 0
-79 -80 0
-81 -82 0
-81 -83 0
-81 -84 0
-82 -83 0
-82 -84 0
-83 -84 0
-85 -86 0
-85 -87 0
-85 -88 0
-86 -87 0
-86 -88 0
-87 -88 0
-89 -90 0
-89 -91 0
-89 -92 0
-90 -91 0
-90 -92 0
-91 -92 0
-93 -94 0
-93 -95 0
-93 -96 0
-94 -95 0
-94 -96 0
-95 -96 0
-97 -98 0
-97 -99 0
-97 -100 0
-98 -99 0
-98 -100 0
-99 -100 0
-101 -102 0
-101 -103 0
-101 -104 0
-102 -103 0
-102 -104 0
-103 -104 0
-105 -106 0
-105 -107 0
-105 -108 0
-106 -107 0
-106 -108 0
-107 -108 0
-109 -110 0
-109 -111 0
-109 -112 0
-110 -111 0
-110 -112 0
-111 -112 0
-113 -114 0
-113 -115 0
-113 -116 0
-114 -115 0
-114 -116 0
-115 -116 0
-117 -118 0
-117 -119 0
-117 -120 0
-118 -119 0
-118 -120 0
-119 -120 0
-121 -122 0
-121 -123 0
-121 -124 0
-122 -123 0
-122 -124 0
-123 -124 0
-125 -126 0
-125 -127 0
-125 -128 0
-126 -127 0
-126 -128 0
-127 -128 0
-129 -130 0
-129 -131 0
-129 -132 0
-130 -131 0
-130 -132 0
-131 -132 0
-133 -134 0
-133 -135 0
-133 -136 0
-134 -135 0
-134 -136 0
-135 -136 0
-137 -138 0
-137 -139 0
-137 -140 0
-138 -139 0
-138 -140 0
-139 -140 0
-141 -142 0
-141 -143 0
-141 -144 0
-142 -143 0
-142 -144 0
-143 -144 0
-145 -146 0
-145 -147 0
-145 -148 0
-146 -147 0
-146 -148 0
-147 -148 0
-149 -150 0
-149 -151 0
-149 -152 0
-150 -151 0
-150 -152 0
-151 -152 0
-153 -154 0
-153 -155 0
-153 -156 0
-154 -155 0
-154 -156 0
-155 -156 0
-157 -158 0
-157 -159 0
-157 -160 0
-158 -159 0
-158 -160 0
-159 -160 0
-161 -162 0
-161 -163 0
-161 -164 0
-162 -163 0
-162 -164 0
-163 -164 0
-165 -166 0
-165 -167 0
-165 -168 0
-166 -167 0
-166 -168 0
-167 -168 0
-169 -170 0
-169 -171 0
-169 -172 0
-170 -171 0
-170 -172 0
-171 -172 0
-173 -174 0
-173 -175 0
-173 -176 0
-174 -175 0
-174 -176 0
-175 -176 0
-177 -178 0
-177 -179 0
-177 -180 0
-178 -179 0
-178 -180 0
-179 -180 0
1 0
-6 1 0
-7 0
-8 0
-10 1 5 0
-11 2 6 0
-12 0
-14 1 5 9 0
-15 2 6 10 0
-16 3 7 11 0
-18 1 5 9 13 0
-19 2 6 10 14 0
-20 3 7 11 15 0
-22 1 5 9 13 17 0
-23 2 6 10 14 18 0
-24 3 7 11 15 19 0
-26 1 5 9 13 17 21 0
-27 2 6 10 14 18 22 0
-28 3 7 11 15 19 23 0
-30 1 5 9 13 17 21 25 0
-31 2 6 10 14 18 22 26 0
-32 3 7 11 15 19 23 27 0
-34 1 5 9 13 17 21 25 29 0
-35 2 6 10 14 18 22 26 30 0
-36 3 7 11 15 19 23 27 31 0
-38 1 5 9 13 17 21 25 29 33 0
-39 2 6 10 14 18 22 26 30 34 0
-40 3 7 11 15 19 23 27 31 35 0
-42 1 5 9 13 17 21 25 29 33 37 0
-43 2 6 10 14 18 22 26 30 34 38 0
-44 3 7 11 15 19 23 27 31 35 39 0
-46 1 5 9 13 17 21 25 29 33 37 41 0
-47 2 6 10 14 18 22 26 30 34 38 42 0
-48 3 7 11 15 19 23 27 31 35 39 43 0
-50 1 5 9 13 17 21 25 29 33 37 41 45 0
-51 2 6 10 14 18 22 26 30 34 38 42 46 0
-52 3 7 11 15 19 23 27 31 35 39 43 47 0
-54 1 5 9 13 17 21 25 29 33 37 41 45 49 0
-55 2 6 10 14 18 22 26 30 34 38 42 46 50 0
-56 3 7 11 15 19 23 27 31 35 39 43 47 51 0
-58 1 5 9 13 17 21 25 29 33 37 41 45 49 53 0
-59 2 6 10 14 18 22 26 30 34 38 42 46 50 54 0
-60 3 7 11 15 19 23 27 31 35 39 43 47 51 55 0
-62 1 5 9 13 17 21 25 29 33 37 41 45 49 53 57 0
-63 2 6 10 14 18 22 26 30 34 38 42 46 50 54 58 0
-64 3 7 11 15 19 23 27 31 35 39 43 47 51 55 59 0
-66 1 5 9 13 17 21 25 29 33 37 41 45 49 53 57 61 0
-67 2 6 10 14 18 22 26 30 34 38 42 46 50 54 58 62 0
-68 3 7 11 15 19 23 27 31 35 39 43 47 51 55 59 63 0
-70 1 5 9 13 17 21 25 29 33 37 41 45 49 53 57 61 65 0
-71 2 6 10 14 18 22 26 30 34 38 42 46 50 54 58 62 66 0
-72 3 7 11 15 19 23 27 31 35 39 43 47 51 55 59 63 67 0
-74 1 5 9 13 17 21 25 29 33 37 41 45 49 53 57 61 65 69 0
-75 2 6 10 14 18 22 26 30 34 38 42 46 50 54 58 62 66 70 0
-76 3 7 11 15 19 23 27 31 35 39 43 47 51 55 59 63 67 71 0
-78 1 5 9 13 17 21 25 29 33 37 41 45 49 53 57 61 65 69 73 0
-79 2 6 10 14 18 22 26 30 34 38 42 46 50 54 58 62 66 70 74 0
-80 3 7 11 15 19 23 27 31 35 39 43 47 51 55 59 63 67 71 75 0
-82 1 5 9 13 17 21 25 29 33 37 41 45 49 53 57 61 65 69 73 77 0
-83 2 6 10 14 18 22 26 30 34 38 42 46 50 54 58 62 66 70 74 78 0
-84 3 7 11 15 19 23 27 31 35 39 43 47 51 55 59 63 67 71 75 79 0
-86 1 5 9 13 17 21 25 29 33 37 41 45 49 53 57 61 65 69 73 77 81 0
-87 2 6 10 14 18 22 26 30 34 38 42 46 50 54 58 62 66 70 74 78 82 0
-88 3 7 11 15 19 23 27 31 35 39 43 47 51 55 59 63 67 71 75 79 83 0
-90 1 5 9 13 17 21 25 29 33 37 41 45 49 53 57 61 65 69 73 77 81 85 0
-91 2 6 10 14 18 22 26 30 34 38 42 46 50 54 58 62 66 70 74 78 82 86 0
-92 3 7 11 15 19 23 27 31 35 39 43 47 51 55 59 63 67 71 75 79 83 87 0
-94 1 5 9 13 17 21 25 29 33 37 41 45 49 53 57 61 65 69 73 77 81 85 89 0
-95 2 6 10 14 18 22 26 30 34 38 42 46 50 54 58 62 66 70 74 78 82 86 90 0
-96 3 7 11 15 19 23 27 31 35 39 43 47 51 55 59 63 67 71 75 79 83 87 91 0
-98 1 5 9 13 17 21 25 29 33 37 41 45 49 53 57 61 65 69 73 77 81 85 89 93 0
-99 2 6 10 14 18 22 26 30 34 38 42 46 50 54 58 62 66 70 74 78 82 86 90 94 0
-100 3 7 11 15 19 23 27 31 35 39 43 47 51 55 59 63 67 71 75 79 83 87 91 95 0
-102 1 5 9 13 17 21 25 29 33 37 41 45 49 53 57 61 65 69 73 77 81 85 89 93 97 0
-103 2 6 10 14 18 22 26 30 34 38 42 46 50 54 58 62 66 70 74 78 82 86 90 94 98 0
-104 3 7 11 15 19 23 27 31 35 39 43 47 51 55 59 63 67 71 75 79 83 87 91 95 99 0
-106 1 5 9 13 17 21 25 29 33 37 41 45 49 53 57 61 65 69 73 77 81 85 89 93 97 101 0
-107 2 6 10 14 18 22 26 30 34 38 42 46 50 54 58 62 66 70 74 78 82 86 90 94 98 102 0
-108 3 7 11 15 19 23 27 31 35 39 43 47 51 55 59 63 67 71 75 79 83 87 91 95 99 103 0
-110 1 5 9 13 17 21 25 29 33 37 41 45 49 53 57 61 65 69 73 77 81 85 89 93 97 101 105 0
-111 2 6 10 14 18 22 26 30 34 38 42 46 50 54 58 62 66 70 74 78 82 86 90 94 98 102 106 0
-112 3 7 11 15 19 23 27 31 35 39 43 47 51 55 59 63 67 71 75 79 83 87 91 95 99 103 107 0
-114 1 5 9 13 17 21 25 29 33 37 41 45 49 53 57 61 65 69 73 77 81 85 89 93 97 101 105 109 0
-115 2 6 10 14 18 22 26 30 34 38 42 46 50 54 58 62 66 70 74 78 82 86 90 94 98 102 106 110 0
-116 3 7 11 15 19 23 27 31 35 39 43 47 51 55 59 63 67 71 75 79 83 87 91 95 99 103 107 111 0
-118 1 5 9 13 17 21 25 29 33 37 41 45 49 53 57 61 65 69 73 77 81 85 89 93 97 101 105 109 113 0
-119 2 6 10 14 18 22 26 30 34 38 42 46 50 54 58 62 66 70 74 78 82 86 90 94 98 102 106 110 114 0
-120 3 7 11 15 19 23 27 31 35 39 43 47 51 55 59 63 67 71 75 79 83 87 91 95 99 103 107 111 115 0
-122 1 5 9 13 17 21 25 29 33 37 41 45 49 53 57 61 65 69 73 77 81 85 89 93 97 101 105 109 113 117 0
-123 2 6 10 14 18 22 26 30 34 38 42 46 50 54 58 62 66 70 74 78 82 86 90 94 98 102 106 110 114 118 0
-124 3 7 11 15 19 23 27 31 35 39 43 47 51 55 59 63 67 71 75 79 83 87 91 95 99 103 107 111 115 119 0
-126 1 5 9 13 17 21 25 29 33 37 41 45 49 53 57 61 65 69 73 77 81 85 89 93 97 101 105 109 113 117 121 0
-127 2 6 10 14 18 22 26 30 34 38 42 46 50 54 58 62 66 70 74 78 82 86 90 94 98 102 106 110 114 118 122 0
-128 3 7 11 15 19 23 27 31 35 39 43 47 51 55 59 63 67 71 75 79 83 87 91 95 99 103 107 111 115 119 123 0
-130 1 5 9 13 17 21 25 29 33 37 41 45 49 53 57 61 65 69 73 77 81 85 89 93 97 101 105 109 113 117 121 125 0
-131 2 6 10 14 18 22 26 30 34 38 42 46 50 54 58 62 66 70 74 78 82 86 90 94 98 102 106 110 114 118 122 126 0
-132 3 7 11 15 19 23 27 31 35 39 43 47 51 55 59 63 67 71 75 79 83 87 91 95 99 103 107 111 115 119 123 127 0
-134 1 5 9 13 17 21 25 29 33 37 41 45 49 53 57 61 65 69 73 77 81 85 89 93 97 101 105 109 113 117 121 125 129 0
-135 2 6 10 14 18 22 26 30 34 38 42 46 50 54 58 62 66 70 74 78 82 86 90 94 98 102 106 110 114 118 122 126 130 0
-136 3 7 11 15 19 23 27 31 35 39 43 47 51 55 59 63 67 71 75 79 83 87 91 95 99 103 107 111 115 119 123 127 131 0
-138 1 5 9 13 17 21 25 29 33 37 41 45 49 53 57 61 65 69 73 77 81 85 89 93 97 101 105 109 113 117 121 125 129 133 0
-139 2 6 10 14 18 22 26 30 34 38 42 46 50 54 58 62 66 70 74 78 82 86 90 94 98 102 106 110 114 118 122 126 130 134 0
-140 3 7 11 15 19 23 27 31 35 39 43 47 51 55 59 63 67 71 75 79 83 87 91 95 99 103 107 111 115 119 123 127 131 135 0
-142 1 5 9 13 17 21 25 29 33 37 41 45 49 53 57 61 65 69 73 77 81 85 89 93 97 101 105 109 113 117 121 125 129 133 137 0
-143 2 6 10 14 18 22 26 30 34 38 42 46 50 54 58 62 66 70 74 78 82 86 90 94 98 102 106 110 114 118 122 126 130 134 138 0
-144 3 7 11 15 19 23 27 31 35 39 43 47 51 55 59 63 67 71 75 79 83 87 91 95 99 103 107 111 115 119 123 127 131 135 139 0
-146 1 5 9 13 17 21 25 29 33 37 41 45 49 53 57 61 65 69 73 77 81 85 89 93 97 101 105 109 113 117 121 125 129 133 137 141 0
-147 2 6 10 14 18 22 26 30 34 38 42 46 50 54 58 62 66 70 74 78 82 86 90 94 98 102 106 110 114 118 122 126 130 134 138 142 0
-148 3 7 11 15 19 23 27 31 35 39 43 47 51 55 59 63 67 71 75 79 83 87 91 95 99 103 107 111 115 119 123 127 131 135 139 143 0
-150 1 5 9 13 17 21 25 29 33 37 41 45 49 53 57 61 65 69 73 77 81 85 89 93 97 101 105 109 113 117 121 125 129 133 137 141 145 0
-151 2 6 10 14 18 22 26 30 34 38 42 46 50 54 58 62 66 70 74 78 82 86 90 94 98 102 106 110 114 118 122 126 130 134 138 142 146 0
-152 3 7 11 15 19 23 27 31 35 39 43 47 51 55 59 63 67 71 75 79 83 87 91 95 99 103 107 111 115 119 123 127 131 135 139 143 147 0
-154 1 5 9 13 17 21 25 29 33 37 41 45 49 53 57 61 65 69 73 77 81 85 89 93 97 101 105 109 113 117 121 125 129 133 137 141 145 149 0
-155 2 6 10 14 18 22 26 30 34 38 42 46 50 54 58 62 66 70 74 78 82 86 90 94 98 102 106 110 114 118 122 126 130 134 138 142 146 150 0
-156 3 7 11 15 19 23 27 31 35 39 43 47 51 55 59 63 67 71 75 79 83 87 91 95 99 103 107 111 115 119 123 127 131 135 139 143 147 151 0
-158 1 5 9 13 17 21 25 29 33 37 41 45 49 53 57 61 65 69 73 77 81 85 89 93 97 101 105 109 113 117 121 125 129 133 137 141 145 149 153 0
-159 2 6 10 14 18 22 26 30 34 38 42 46 50 54 58 62 66 70 74 78 82 86 90 94 98 102 106 110 114 118 122 126 130 134 138 142 146 150 154 0
-160 3 7 11 15 19 23 27 31 35 39 43 47 51 55 59 63 67 71 75 79 83 87 91 95 99 103 107 111 115 119 123 127 131 135 139 143 147 151 155 0
-162 1 5 9 13 17 21 25 29 33 37 41 45 49 53 57 61 65 69 73 77 81 85 89 93 97 101 105 109 113 117 121 125 129 133 137 141 145 149 153 157 0
-163 2 6 10 14 18 22 26 30 34 38 42 46 50 54 58 62 66 70 74 78 82 86 90 94 98 102 106 110 114 118 122 126 130 134 138 142 146 150 154 158 0
-164 3 7 11 15 19 23 27 31 35 39 43 47 51 55 59 63 67 71 75 79 83 87 91 95 99 103 107 111 115 119 123 127 131 135 139 143 147 151 155 159 0
-166 1 5 9 13 17 21 25 29 33 37 41 45 49 53 57 61 65 69 73 77 81 85 89 93 97 101 105 109 113 117 121 125 129 133 137 141 145 149 153 157 161 0
-167 2 6 10 14 18 22 26 30 34 38 42 46 50 54 58 62 66 70 74 78 82 86 90 94 98 102 106 110 114 118 122 126 130 134 138 142 146 150 154 158 162 0
-168 3 7 11 15 19 23 27 31 35 39 43 47 51 55 59 63 67 71 75 79 83 87 91 95 99 103 107 111 115 119 123 127 131 135 139 143 147 151 155 159 163 0
-170 1 5 9 13 17 21 25 29 33 37 41 45 49 53 57 61 65 69 73 77 81 85 89 93 97 101 105 109 113 117 121 125 129 133 137 141 145 149 153 157 161 165 0
-171 2 6 10 14 18 22 26 30 34 38 42 46 50 54 58 62 66 70 74 78 82 86 90 94 98 102 106 110 114 118 122 126 130 134 138 142 146 150 154 158 162 166 0
-172 3 7 11 15 19 23 27 31 35 39 43 47 51 55 59 63 67 71 75 79 83 87 91 95 99 103 107 111 115 119 123 127 131 135 139 143 147 151 155 159 163 167 0
-174 1 5 9 13 17 21 25 29 33 37 41 45 49 53 57 61 65 69 73 77 81 85 89 93 97 101 105 109 113 117 121 125 129 133 137 141 145 149 153 157 161 165 169 0
-175 2 6 10 14 18 22 26 30 34 38 42 46 50 54 58 62 66 70 74 78 82 86 90 94 98 102 106 110 114 118 122 126 130 134 138 142 146 150 154 158 162 166 170 0
-176 3 7 11 15 19 23 27 31 35 39 43 47 51 55 59 63 67 71 75 79 83 87 91 95 99 103 107 111 115 119 123 127 131 135 139 143 147 151 155 159 163 167 171 0
-178 1 5 9 13 17 21 25 29 33 37 41 45 49 53 57 61 65 69 73 77 81 85 89 93 97 101 105 109 113 117 121 125 129 133 137 141 145 149 153 157 161 165 169 173 0
-179 2 6 10 14 18 22 26 30 34 38 42 46 50 54 58 62 66 70 74 78 82 86 90 94 98 102 106 110 114 118 122 126 130 134 138 142 146 150 154 158 162 166 170 174 0
-180 3 7 11 15 19 23 27 31 35 39 43 47 51 55 59 63 67 71 75 79 83 87 91 95 99 103 107 111 115 119 123 127 131 135 139 143 147 151 155 159 163 167 171 175 0
