p cnf 904 35858
1 2 3 4 0
5 6 7 8 0
9 10 11 12 0
13 14 15 16 0
17 18 19 20 0
21 22 23 24 0
25 26 27 28 0
29 30 31 32 0
33 34 35 36 0
37 38 39 40 0
41 42 43 44 0
45 46 47 48 0
49 50 51 52 0
53 54 55 56 0
57 58 59 60 0
61 62 63 64 0
65 66 67 68 0
69 70 71 72 0
73 74 75 76 0
77 78 79 80 0
81 82 83 84 0
85 86 87 88 0
89 90 91 92 0
93 94 95 96 0
97 98 99 100 0
101 102 103 104 0
105 106 107 108 0
109 110 111 112 0
113 114 115 116 0
117 118 119 120 0
121 122 123 124 0
125 126 127 128 0
129 130 131 132 0
133 134 135 136 0
137 138 139 140 0
141 142 143 144 0
145 146 147 148 0
149 150 151 152 0
153 154 155 156 0
157 158 159 160 0
161 162 163 164 0
165 166 167 168 0
169 170 171 172 0
173 174 175 176 0
177 178 179 180 0
181 182 183 184 0
185 186 187 188 0
189 190 191 192 0
193 194 195 196 0
197 198 199 200 0
201 202 203 204 0
205 206 207 208 0
209 210 211 212 0
213 214 215 216 0
217 218 219 220 0
221 222 223 224 0
225 226 227 228 0
229 230 231 232 0
233 234 235 236 0
237 238 239 240 0
241 242 243 244 0
245 246 247 248 0
249 250 251 252 0
253 254 255 256 0
257 258 259 260 0
261 262 263 264 0
265 266 267 268 0
269 270 271 272 0
273 274 275 276 0
277 278 279 280 0
281 282 283 284 0
285 286 287 288 0
289 290 291 292 0
293 294 295 296 0
297 298 299 300 0
301 302 303 304 0
305 306 307 308 0
309 310 311 312 0
313 314 315 316 0
317 318 319 320 0
321 322 323 324 0
325 326 327 328 0
329 330 331 332 0
333 334 335 336 0
337 338 339 340 0
341 342 343 344 0
345 346 347 348 0
349 350 351 352 0
353 354 355 356 0
357 358 359 360 0
361 362 363 364 0
365 366 367 368 0
369 370 371 372 0
373 374 375 376 0
377 378 379 380 0
381 382 383 384 0
385 386 387 388 0
389 390 391 392 0
393 394 395 396 0
397 398 399 400 0
401 402 403 404 0
405 406 407 408 0
409 410 411 412 0
413 414 415 416 0
417 418 419 420 0
421 422 423 424 0
425 426 427 428 0
429 430 431 432 0
433 434 435 436 0
437 438 439 440 0
441 442 443 444 0
445 446 447 448 0
449 450 451 452 0
453 454 455 456 0
457 458 459 460 0
461 462 463 464 0
465 466 467 468 0
469 470 471 472 0
473 474 475 476 0
477 478 479 480 0
481 482 483 484 0
485 486 487 488 0
489 490 491 492 0
493 494 495 496 0
497 498 499 500 0
501 502 503 504 0
505 506 507 508 0
509 510 511 512 0
513 514 515 516 0
517 518 519 520 0
521 522 523 524 0
525 526 527 528 0
529 530 531 532 0
533 534 535 536 0
537 538 539 540 0
541 542 543 544 0
545 546 547 548 0
549 550 551 552 0
553 554 555 556 0
557 558 559 560 0
561 562 563 564 0
565 566 567 568 0
569 570 571 572 0
573 574 575 576 0
577 578 579 580 0
581 582 583 584 0
585 586 587 588 0
589 590 591 592 0
593 594 595 596 0
597 598 599 600 0
601 602 603 604 0
605 606 607 608 0
609 610 611 612 0
613 614 615 616 0
617 618 619 620 0
621 622 623 624 0
625 626 627 628 0
629 630 631 632 0
633 634 635 636 0
637 638 639 640 0
641 642 643 644 0
645 646 647 648 0
649 650 651 652 0
653 654 655 656 0
657 658 659 660 0
661 662 663 664 0
665 666 667 668 0
669 670 671 672 0
673 674 675 676 0
677 678 679 680 0
681 682 683 684 0
685 686 687 688 0
689 690 691 692 0
693 694 695 696 0
697 698 699 700 0
701 702 703 704 0
705 706 707 708 0
709 710 711 712 0
713 714 715 716 0
717 718 719 720 0
721 722 723 724 0
725 726 727 728 0
729 730 731 732 0
733 734 735 736 0
737 738 739 740 0
741 742 743 744 0
745 746 747 748 0
749 750 751 752 0
753 754 755 756 0
757 758 759 760 0
761 762 763 764 0
765 766 767 768 0
769 770 771 772 0
773 774 775 776 0
777 778 779 780 0
781 782 783 784 0
785 786 787 788 0
789 790 791 792 0
793 794 795 796 0
797 798 799 800 0
801 802 803 804 0
805 806 807 808 0
809 810 811 812 0
813 814 815 816 0
817 818 819 820 0
821 822 823 824 0
825 826 827 828 0
829 830 831 832 0
833 834 835 836 0
837 838 839 840 0
841 842 843 844 0
845 846 847 848 0
849 850 851 852 0
853 854 855 856 0
857 858 859 860 0
861 862 863 864 0
865 866 867 868 0
869 870 871 872 0
873 874 875 876 0
877 878 879 880 0
881 882 883 884 0
885 886 887 888 0
889 890 891 892 0
893 894 895 896 0
897 898 899 900 0
901 902 903 904 0
-1 -5 -13 0
-2 -6 -14 0
-3 -7 -15 0
-4 -8 -16 0
-5 -17 0
-6 -18 0
-7 -19 0
-8 -20 0
-5 -9 -21 0
-6 -10 -22 0
-7 -11 -23 0
-8 -12 -24 0
-5 -13 -25 0
-6 -14 -26 0
-7 -15 -27 0
-8 -16 -28 0
-5 -17 -29 0
-6 -18 -30 0
-7 -19 -31 0
-8 -20 -32 0
-5 -21 -33 0
-6 -22 -34 0
-7 -23 -35 0
-8 -24 -36 0
-5 -25 -37 0
-6 -26 -38 0
-7 -27 -39 0
-8 -28 -40 0
-5 -29 -41 0
-6 -30 -42 0
-7 -31 -43 0
-8 -32 -44 0
-5 -33 -45 0
-6 -34 -46 0
-7 -35 -47 0
-8 -36 -48 0
-5 -37 -49 0
-6 -38 -50 0
-7 -39 -51 0
-8 -40 -52 0
-5 -41 -53 0
-6 -42 -54 0
-7 -43 -55 0
-8 -44 -56 0
-5 -45 -57 0
-6 -46 -58 0
-7 -47 -59 0
-8 -48 -60 0
-5 -49 -61 0
-6 -50 -62 0
-7 -51 -63 0
-8 -52 -64 0
-5 -53 -65 0
-6 -54 -66 0
-7 -55 -67 0
-8 -56 -68 0
-5 -57 -69 0
-6 -58 -70 0
-7 -59 -71 0
-8 -60 -72 0
-5 -61 -73 0
-6 -62 -74 0
-7 -63 -75 0
-8 -64 -76 0
-5 -65 -77 0
-6 -66 -78 0
-7 -67 -79 0
-8 -68 -80 0
-5 -69 -81 0
-6 -70 -82 0
-7 -71 -83 0
-8 -72 -84 0
-5 -73 -85 0
-6 -74 -86 0
-7 -75 -87 0
-8 -76 -88 0
-5 -77 -89 0
-6 -78 -90 0
-7 -79 -91 0
-8 -80 -92 0
-5 -81 -93 0
-6 -82 -94 0
-7 -83 -95 0
-8 -84 -96 0
-5 -85 -97 0
-6 -86 -98 0
-7 -87 -99 0
-8 -88 -100 0
-5 -89 -101 0
-6 -90 -102 0
-7 -91 -103 0
-8 -92 -104 0
-5 -93 -105 0
-6 -94 -106 0
-7 -95 -107 0
-8 -96 -108 0
-5 -97 -109 0
-6 -98 -110 0
-7 -99 -111 0
-8 -100 -112 0
-5 -101 -113 0
-6 -102 -114 0
-7 -103 -115 0
-8 -104 -116 0
-5 -105 -117 0
-6 -106 -118 0
-7 -107 -119 0
-8 -108 -120 0
-5 -109 -121 0
-6 -110 -122 0
-7 -111 -123 0
-8 -112 -124 0
-5 -113 -125 0
-6 -114 -126 0
-7 -115 -127 0
-8 -116 -128 0
-5 -117 -129 0
-6 -118 -130 0
-7 -119 -131 0
-8 -120 -132 0
-5 -121 -133 0
-6 -122 -134 0
-7 -123 -135 0
-8 -124 -136 0
-5 -125 -137 0
-6 -126 -138 0
-7 -127 -139 0
-8 -128 -140 0
-5 -129 -141 0
-6 -130 -142 0
-7 -131 -143 0
-8 -132 -144 0
-5 -133 -145 0
-6 -134 -146 0
-7 -135 -147 0
-8 -136 -148 0
-5 -137 -149 0
-6 -138 -150 0
-7 -139 -151 0
-8 -140 -152 0
-5 -141 -153 0
-6 -142 -154 0
-7 -143 -155 0
-8 -144 -156 0
-5 -145 -157 0
-6 -146 -158 0
-7 -147 -159 0
-8 -148 -160 0
-5 -149 -161 0
-6 -150 -162 0
-7 -151 -163 0
-8 -152 -164 0
-5 -153 -165 0
-6 -154 -166 0
-7 -155 -167 0
-8 -156 -168 0
-5 -157 -169 0
-6 -158 -170 0
-7 -159 -171 0
-8 -160 -172 0
-5 -161 -173 0
-6 -162 -174 0
-7 -163 -175 0
-8 -164 -176 0
-5 -165 -177 0
-6 -166 -178 0
-7 -167 -179 0
-8 -168 -180 0
-5 -169 -181 0
-6 -170 -182 0
-7 -171 -183 0
-8 -172 -184 0
-5 -173 -185 0
-6 -174 -186 0
-7 -175 -187 0
-8 -176 -188 0
-5 -177 -189 0
-6 -178 -190 0
-7 -179 -191 0
-8 -180 -192 0
-5 -181 -193 0
-6 -182 -194 0
-7 -183 -195 0
-8 -184 -196 0
-5 -185 -197 0
-6 -186 -198 0
-7 -187 -199 0
-8 -188 -200 0
-5 -189 -201 0
-6 -190 -202 0
-7 -191 -203 0
-8 -192 -204 0
-5 -193 -205 0
-6 -194 -206 0
-7 -195 -207 0
-8 -196 -208 0
-5 -197 -209 0
-6 -198 -210 0
-7 -199 -211 0
-8 -200 -212 0
-5 -201 -213 0
-6 -202 -214 0
-7 -203 -215 0
-8 -204 -216 0
-5 -205 -217 0
-6 -206 -218 0
-7 -207 -219 0
-8 -208 -220 0
-5 -209 -221 0
-6 -210 -222 0
-7 -211 -223 0
-8 -212 -224 0
-5 -213 -225 0
-6 -214 -226 0
-7 -215 -227 0
-8 -216 -228 0
-5 -217 -229 0
-6 -218 -230 0
-7 -219 -231 0
-8 -220 -232 0
-5 -221 -233 0
-6 -222 -234 0
-7 -223 -235 0
-8 -224 -236 0
-5 -225 -237 0
-6 -226 -238 0
-7 -227 -239 0
-8 -228 -240 0
-5 -229 -241 0
-6 -230 -242 0
-7 -231 -243 0
-8 -232 -244 0
-5 -233 -245 0
-6 -234 -246 0
-7 -235 -247 0
-8 -236 -248 0
-5 -237 -249 0
-6 -238 -250 0
-7 -239 -251 0
-8 -240 -252 0
-5 -241 -253 0
-6 -242 -254 0
-7 -243 -255 0
-8 -244 -256 0
-5 -245 -257 0
-6 -246 -258 0
-7 -247 -259 0
-8 -248 -260 0
-5 -249 -261 0
-6 -250 -262 0
-7 -251 -263 0
-8 -252 -264 0
-5 -253 -265 0
-6 -254 -266 0
-7 -255 -267 0
-8 -256 -268 0
-5 -257 -269 0
-6 -258 -270 0
-7 -259 -271 0
-8 -260 -272 0
-5 -261 -273 0
-6 -262 -274 0
-7 -263 -275 0
-8 -264 -276 0
-5 -265 -277 0
-6 -266 -278 0
-7 -267 -279 0
-8 -268 -280 0
-5 -269 -281 0
-6 -270 -282 0
-7 -271 -283 0
-8 -272 -284 0
-5 -273 -285 0
-6 -274 -286 0
-7 -275 -287 0
-8 -276 -288 0
-5 -277 -289 0
-6 -278 -290 0
-7 -279 -291 0
-8 -280 -292 0
-5 -281 -293 0
-6 -282 -294 0
-7 -283 -295 0
-8 -284 -296 0
-5 -285 -297 0
-6 -286 -298 0
-7 -287 -299 0
-8 -288 -300 0
-5 -289 -301 0
-6 -290 -302 0
-7 -291 -303 0
-8 -292 -304 0
-5 -293 -305 0
-6 -294 -306 0
-7 -295 -307 0
-8 -296 -308 0
-5 -297 -309 0
-6 -298 -310 0
-7 -299 -311 0
-8 -300 -312 0
-5 -301 -313 0
-6 -302 -314 0
-7 -303 -315 0
-8 -304 -316 0
-5 -305 -317 0
-6 -306 -318 0
-7 -307 -319 0
-8 -308 -320 0
-5 -309 -321 0
-6 -310 -322 0
-7 -311 -323 0
-8 -312 -324 0
-5 -313 -325 0
-6 -314 -326 0
-7 -315 -327 0
-8 -316 -328 0
-5 -317 -329 0
-6 -318 -330 0
-7 -319 -331 0
-8 -320 -332 0
-5 -321 -333 0
-6 -322 -334 0
-7 -323 -335 0
-8 -324 -336 0
-5 -325 -337 0
-6 -326 -338 0
-7 -327 -339 0
-8 -328 -340 0
-5 -329 -341 0
-6 -330 -342 0
-7 -331 -343 0
-8 -332 -344 0
-5 -333 -345 0
-6 -334 -346 0
-7 -335 -347 0
-8 -336 -348 0
-5 -337 -349 0
-6 -338 -350 0
-7 -339 -351 0
-8 -340 -352 0
-5 -341 -353 0
-6 -342 -354 0
-7 -343 -355 0
-8 -344 -356 0
-5 -345 -357 0
-6 -346 -358 0
-7 -347 -359 0
-8 -348 -360 0
-5 -349 -361 0
-6 -350 -362 0
-7 -351 -363 0
-8 -352 -364 0
-5 -353 -365 0
-6 -354 -366 0
-7 -355 -367 0
-8 -356 -368 0
-5 -357 -369 0
-6 -358 -370 0
-7 -359 -371 0
-8 -360 -372 0
-5 -361 -373 0
-6 -362 -374 0
-7 -363 -375 0
-8 -364 -376 0
-5 -365 -377 0
-6 -366 -378 0
-7 -367 -379 0
-8 -368 -380 0
-5 -369 -381 0
-6 -370 -382 0
-7 -371 -383 0
-8 -372 -384 0
-5 -373 -385 0
-6 -374 -386 0
-7 -375 -387 0
-8 -376 -388 0
-5 -377 -389 0
-6 -378 -390 0
-7 -379 -391 0
-8 -380 -392 0
-5 -381 -393 0
-6 -382 -394 0
-7 -383 -395 0
-8 -384 -396 0
-5 -385 -397 0
-6 -386 -398 0
-7 -387 -399 0
-8 -388 -400 0
-5 -389 -401 0
-6 -390 -402 0
-7 -391 -403 0
-8 -392 -404 0
-5 -393 -405 0
-6 -394 -406 0
-7 -395 -407 0
-8 -396 -408 0
-5 -397 -409 0
-6 -398 -410 0
-7 -399 -411 0
-8 -400 -412 0
-5 -401 -413 0
-6 -402 -414 0
-7 -403 -415 0
-8 -404 -416 0
-5 -405 -417 0
-6 -406 -418 0
-7 -407 -419 0
-8 -408 -420 0
-5 -409 -421 0
-6 -410 -422 0
-7 -411 -423 0
-8 -412 -424 0
-5 -413 -425 0
-6 -414 -426 0
-7 -415 -427 0
-8 -416 -428 0
-5 -417 -429 0
-6 -418 -430 0
-7 -419 -431 0
-8 -420 -432 0
-5 -421 -433 0
-6 -422 -434 0
-7 -423 -435 0
-8 -424 -436 0
-5 -425 -437 0
-6 -426 -438 0
-7 -427 -439 0
-8 -428 -440 0
-5 -429 -441 0
-6 -430 -442 0
-7 -431 -443 0
-8 -432 -444 0
-5 -433 -445 0
-6 -434 -446 0
-7 -435 -447 0
-8 -436 -448 0
-5 -437 -449 0
-6 -438 -450 0
-7 -439 -451 0
-8 -440 -452 0
-5 -441 -453 0
-6 -442 -454 0
-7 -443 -455 0
-8 -444 -456 0
-5 -445 -457 0
-6 -446 -458 0
-7 -447 -459 0
-8 -448 -460 0
-5 -449 -461 0
-6 -450 -462 0
-7 -451 -463 0
-8 -452 -464 0
-5 -453 -465 0
-6 -454 -466 0
-7 -455 -467 0
-8 -456 -468 0
-5 -457 -469 0
-6 -458 -470 0
-7 -459 -471 0
-8 -460 -472 0
-5 -461 -473 0
-6 -462 -474 0
-7 -463 -475 0
-8 -464 -476 0
-5 -465 -477 0
-6 -466 -478 0
-7 -467 -479 0
-8 -468 -480 0
-5 -469 -481 0
-6 -470 -482 0
-7 -471 -483 0
-8 -472 -484 0
-5 -473 -485 0
-6 -474 -486 0
-7 -475 -487 0
-8 -476 -488 0
-5 -477 -489 0
-6 -478 -490 0
-7 -479 -491 0
-8 -480 -492 0
-5 -481 -493 0
-6 -482 -494 0
-7 -483 -495 0
-8 -484 -496 0
-5 -485 -497 0
-6 -486 -498 0
-7 -487 -499 0
-8 -488 -500 0
-5 -489 -501 0
-6 -490 -502 0
-7 -491 -503 0
-8 -492 -504 0
-5 -493 -505 0
-6 -494 -506 0
-7 -495 -507 0
-8 -496 -508 0
-5 -497 -509 0
-6 -498 -510 0
-7 -499 -511 0
-8 -500 -512 0
-5 -501 -513 0
-6 -502 -514 0
-7 -503 -515 0
-8 -504 -516 0
-5 -505 -517 0
-6 -506 -518 0
-7 -507 -519 0
-8 -508 -520 0
-5 -509 -521 0
-6 -510 -522 0
-7 -511 -523 0
-8 -512 -524 0
-5 -513 -525 0
-6 -514 -526 0
-7 -515 -527 0
-8 -516 -528 0
-5 -517 -529 0
-6 -518 -530 0
-7 -519 -531 0
-8 -520 -532 0
-5 -521 -533 0
-6 -522 -534 0
-7 -523 -535 0
-8 -524 -536 0
-5 -525 -537 0
-6 -526 -538 0
-7 -527 -539 0
-8 -528 -540 0
-5 -529 -541 0
-6 -530 -542 0
-7 -531 -543 0
-8 -532 -544 0
-5 -533 -545 0
-6 -534 -546 0
-7 -535 -547 0
-8 -536 -548 0
-5 -537 -549 0
-6 -538 -550 0
-7 -539 -551 0
-8 -540 -552 0
-5 -541 -553 0
-6 -542 -554 0
-7 -543 -555 0
-8 -544 -556 0
-5 -545 -557 0
-6 -546 -558 0
-7 -547 -559 0
-8 -548 -560 0
-5 -549 -561 0
-6 -550 -562 0
-7 -551 -563 0
-8 -552 -564 0
-5 -553 -565 0
-6 -554 -566 0
-7 -555 -567 0
-8 -556 -568 0
-5 -557 -569 0
-6 -558 -570 0
-7 -559 -571 0
-8 -560 -572 0
-5 -561 -573 0
-6 -562 -574 0
-7 -563 -575 0
-8 -564 -576 0
-5 -565 -577 0
-6 -566 -578 0
-7 -567 -579 0
-8 -568 -580 0
-5 -569 -581 0
-6 -570 -582 0
-7 -571 -583 0
-8 -572 -584 0
-5 -573 -585 0
-6 -574 -586 0
-7 -575 -587 0
-8 -576 -588 0
-5 -577 -589 0
-6 -578 -590 0
-7 -579 -591 0
-8 -580 -592 0
-5 -581 -593 0
-6 -582 -594 0
-7 -583 -595 0
-8 -584 -596 0
-5 -585 -597 0
-6 -586 -598 0
-7 -587 -599 0
-8 -588 -600 0
-5 -589 -601 0
-6 -590 -602 0
-7 -591 -603 0
-8 -592 -604 0
-5 -593 -605 0
-6 -594 -606 0
-7 -595 -607 0
-8 -596 -608 0
-5 -597 -609 0
-6 -598 -610 0
-7 -599 -611 0
-8 -600 -612 0
-5 -601 -613 0
-6 -602 -614 0
-7 -603 -615 0
-8 -604 -616 0
-5 -605 -617 0
-6 -606 -618 0
-7 -607 -619 0
-8 -608 -620 0
-5 -609 -621 0
-6 -610 -622 0
-7 -611 -623 0
-8 -612 -624 0
-5 -613 -625 0
-6 -614 -626 0
-7 -615 -627 0
-8 -616 -628 0
-5 -617 -629 0
-6 -618 -630 0
-7 -619 -631 0
-8 -620 -632 0
-5 -621 -633 0
-6 -622 -634 0
-7 -623 -635 0
-8 -624 -636 0
-5 -625 -637 0
-6 -626 -638 0
-7 -627 -639 0
-8 -628 -640 0
-5 -629 -641 0
-6 -630 -642 0
-7 -631 -643 0
-8 -632 -644 0
-5 -633 -645 0
-6 -634 -646 0
-7 -635 -647 0
-8 -636 -648 0
-5 -637 -649 0
-6 -638 -650 0
-7 -639 -651 0
-8 -640 -652 0
-5 -641 -653 0
-6 -642 -654 0
-7 -643 -655 0
-8 -644 -656 0
-5 -645 -657 0
-6 -646 -658 0
-7 -647 -659 0
-8 -648 -660 0
-5 -649 -661 0
-6 -650 -662 0
-7 -651 -663 0
-8 -652 -664 0
-5 -653 -665 0
-6 -654 -666 0
-7 -655 -667 0
-8 -656 -668 0
-5 -657 -669 0
-6 -658 -670 0
-7 -659 -671 0
-8 -660 -672 0
-5 -661 -673 0
-6 -662 -674 0
-7 -663 -675 0
-8 -664 -676 0
-5 -665 -677 0
-6 -666 -678 0
-7 -667 -679 0
-8 -668 -680 0
-5 -669 -681 0
-6 -670 -682 0
-7 -671 -683 0
-8 -672 -684 0
-5 -673 -685 0
-6 -674 -686 0
-7 -675 -687 0
-8 -676 -688 0
-5 -677 -689 0
-6 -678 -690 0
-7 -679 -691 0
-8 -680 -692 0
-5 -681 -693 0
-6 -682 -694 0
-7 -683 -695 0
-8 -684 -696 0
-5 -685 -697 0
-6 -686 -698 0
-7 -687 -699 0
-8 -688 -700 0
-5 -689 -701 0
-6 -690 -702 0
-7 -691 -703 0
-8 -692 -704 0
-5 -693 -705 0
-6 -694 -706 0
-7 -695 -707 0
-8 -696 -708 0
-5 -697 -709 0
-6 -698 -710 0
-7 -699 -711 0
-8 -700 -712 0
-5 -701 -713 0
-6 -702 -714 0
-7 -703 -715 0
-8 -704 -716 0
-5 -705 -717 0
-6 -706 -718 0
-7 -707 -719 0
-8 -708 -720 0
-5 -709 -721 0
-6 -710 -722 0
-7 -711 -723 0
-8 -712 -724 0
-5 -713 -725 0
-6 -714 -726 0
-7 -715 -727 0
-8 -716 -728 0
-5 -717 -729 0
-6 -718 -730 0
-7 -719 -731 0
-8 -720 -732 0
-5 -721 -733 0
-6 -722 -734 0
-7 -723 -735 0
-8 -724 -736 0
-5 -725 -737 0
-6 -726 -738 0
-7 -727 -739 0
-8 -728 -740 0
-5 -729 -741 0
-6 -730 -742 0
-7 -731 -743 0
-8 -732 -744 0
-5 -733 -745 0
-6 -734 -746 0
-7 -735 -747 0
-8 -736 -748 0
-5 -737 -749 0
-6 -738 -750 0
-7 -739 -751 0
-8 -740 -752 0
-5 -741 -753 0
-6 -742 -754 0
-7 -743 -755 0
-8 -744 -756 0
-5 -745 -757 0
-6 -746 -758 0
-7 -747 -759 0
-8 -748 -760 0
-5 -749 -761 0
-6 -750 -762 0
-7 -751 -763 0
-8 -752 -764 0
-5 -753 -765 0
-6 -754 -766 0
-7 -755 -767 0
-8 -756 -768 0
-5 -757 -769 0
-6 -758 -770 0
-7 -759 -771 0
-8 -760 -772 0
-5 -761 -773 0
-6 -762 -774 0
-7 -763 -775 0
-8 -764 -776 0
-5 -765 -777 0
-6 -766 -778 0
-7 -767 -779 0
-8 -768 -780 0
-5 -769 -781 0
-6 -770 -782 0
-7 -771 -783 0
-8 -772 -784 0
-5 -773 -785 0
-6 -774 -786 0
-7 -775 -787 0
-8 -776 -788 0
-5 -777 -789 0
-6 -778 -790 0
-7 -779 -791 0
-8 -780 -792 0
-5 -781 -793 0
-6 -782 -794 0
-7 -783 -795 0
-8 -784 -796 0
-5 -785 -797 0
-6 -786 -798 0
-7 -787 -799 0
-8 -788 -800 0
-5 -789 -801 0
-6 -790 -802 0
-7 -791 -803 0
-8 -792 -804 0
-5 -793 -805 0
-6 -794 -806 0
-7 -795 -807 0
-8 -796 -808 0
-5 -797 -809 0
-6 -798 -810 0
-7 -799 -811 0
-8 -800 -812 0
-5 -801 -813 0
-6 -802 -814 0
-7 -803 -815 0
-8 -804 -816 0
-5 -805 -817 0
-6 -806 -818 0
-7 -807 -819 0
-8 -808 -820 0
-5 -809 -821 0
-6 -810 -822 0
-7 -811 -823 0
-8 -812 -824 0
-5 -813 -825 0
-6 -814 -826 0
-7 -815 -827 0
-8 -816 -828 0
-5 -817 -829 0
-6 -818 -830 0
-7 -819 -831 0
-8 -820 -832 0
-5 -821 -833 0
-6 -822 -834 0
-7 -823 -835 0
-8 -824 -836 0
-5 -825 -837 0
-6 -826 -838 0
-7 -827 -839 0
-8 -828 -840 0
-5 -829 -841 0
-6 -830 -842 0
-7 -831 -843 0
-8 -832 -844 0
-5 -833 -845 0
-6 -834 -846 0
-7 -835 -847 0
-8 -836 -848 0
-5 -837 -849 0
-6 -838 -850 0
-7 -839 -851 0
-8 -840 -852 0
-5 -841 -853 0
-6 -842 -854 0
-7 -843 -855 0
-8 -844 -856 0
-5 -845 -857 0
-6 -846 -858 0
-7 -847 -859 0
-8 -848 -860 0
-5 -849 -861 0
-6 -850 -862 0
-7 -851 -863 0
-8 -852 -864 0
-5 -853 -865 0
-6 -854 -866 0
-7 -855 -867 0
-8 -856 -868 0
-5 -857 -869 0
-6 -858 -870 0
-7 -859 -871 0
-8 -860 -872 0
-5 -861 -873 0
-6 -862 -874 0
-7 -863 -875 0
-8 -864 -876 0
-5 -865 -877 0
-6 -866 -878 0
-7 -867 -879 0
-8 -868 -880 0
-5 -869 -881 0
-6 -870 -882 0
-7 -871 -883 0
-8 -872 -884 0
-5 -873 -885 0
-6 -874 -886 0
-7 -875 -887 0
-8 -876 -888 0
-5 -877 -889 0
-6 -878 -890 0
-7 -879 -891 0
-8 -880 -892 0
-5 -881 -893 0
-6 -882 -894 0
-7 -883 -895 0
-8 -884 -896 0
-5 -885 -897 0
-6 -886 -898 0
-7 -887 -899 0
-8 -888 -900 0
-5 -889 -901 0
-6 -890 -902 0
-7 -891 -903 0
-8 -892 -904 0
-1 -13 -25 0
-2 -14 -26 0
-3 -15 -27 0
-4 -16 -28 0
-5 -13 -29 0
-6 -14 -30 0
-7 -15 -31 0
-8 -16 -32 0
-9 -13 -33 0
-10 -14 -34 0
-11 -15 -35 0
-12 -16 -36 0
-13 -37 0
-14 -38 0
-15 -39 0
-16 -40 0
-13 -17 -41 0
-14 -18 -42 0
-15 -19 -43 0
-16 -20 -44 0
-13 -21 -45 0
-14 -22 -46 0
-15 -23 -47 0
-16 -24 -48 0
-13 -25 -49 0
-14 -26 -50 0
-15 -27 -51 0
-16 -28 -52 0
-13 -29 -53 0
-14 -30 -54 0
-15 -31 -55 0
-16 -32 -56 0
-13 -33 -57 0
-14 -34 -58 0
-15 -35 -59 0
-16 -36 -60 0
-13 -37 -61 0
-14 -38 -62 0
-15 -39 -63 0
-16 -40 -64 0
-13 -41 -65 0
-14 -42 -66 0
-15 -43 -67 0
-16 -44 -68 0
-13 -45 -69 0
-14 -46 -70 0
-15 -47 -71 0
-16 -48 -72 0
-13 -49 -73 0
-14 -50 -74 0
-15 -51 -75 0
-16 -52 -76 0
-13 -53 -77 0
-14 -54 -78 0
-15 -55 -79 0
-16 -56 -80 0
-13 -57 -81 0
-14 -58 -82 0
-15 -59 -83 0
-16 -60 -84 0
-13 -61 -85 0
-14 -62 -86 0
-15 -63 -87 0
-16 -64 -88 0
-13 -65 -89 0
-14 -66 -90 0
-15 -67 -91 0
-16 -68 -92 0
-13 -69 -93 0
-14 -70 -94 0
-15 -71 -95 0
-16 -72 -96 0
-13 -73 -97 0
-14 -74 -98 0
-15 -75 -99 0
-16 -76 -100 0
-13 -77 -101 0
-14 -78 -102 0
-15 -79 -103 0
-16 -80 -104 0
-13 -81 -105 0
-14 -82 -106 0
-15 -83 -107 0
-16 -84 -108 0
-13 -85 -109 0
-14 -86 -110 0
-15 -87 -111 0
-16 -88 -112 0
-13 -89 -113 0
-14 -90 -114 0
-15 -91 -115 0
-16 -92 -116 0
-13 -93 -117 0
-14 -94 -118 0
-15 -95 -119 0
-16 -96 -120 0
-13 -97 -121 0
-14 -98 -122 0
-15 -99 -123 0
-16 -100 -124 0
-13 -101 -125 0
-14 -102 -126 0
-15 -103 -127 0
-16 -104 -128 0
-13 -105 -129 0
-14 -106 -130 0
-15 -107 -131 0
-16 -108 -132 0
-13 -109 -133 0
-14 -110 -134 0
-15 -111 -135 0
-16 -112 -136 0
-13 -113 -137 0
-14 -114 -138 0
-15 -115 -139 0
-16 -116 -140 0
-13 -117 -141 0
-14 -118 -142 0
-15 -119 -143 0
-16 -120 -144 0
-13 -121 -145 0
-14 -122 -146 0
-15 -123 -147 0
-16 -124 -148 0
-13 -125 -149 0
-14 -126 -150 0
-15 -127 -151 0
-16 -128 -152 0
-13 -129 -153 0
-14 -130 -154 0
-15 -131 -155 0
-16 -132 -156 0
-13 -133 -157 0
-14 -134 -158 0
-15 -135 -159 0
-16 -136 -160 0
-13 -137 -161 0
-14 -138 -162 0
-15 -139 -163 0
-16 -140 -164 0
-13 -141 -165 0
-14 -142 -166 0
-15 -143 -167 0
-16 -144 -168 0
-13 -145 -169 0
-14 -146 -170 0
-15 -147 -171 0
-16 -148 -172 0
-13 -149 -173 0
-14 -150 -174 0
-15 -151 -175 0
-16 -152 -176 0
-13 -153 -177 0
-14 -154 -178 0
-15 -155 -179 0
-16 -156 -180 0
-13 -157 -181 0
-14 -158 -182 0
-15 -159 -183 0
-16 -160 -184 0
-13 -161 -185 0
-14 -162 -186 0
-15 -163 -187 0
-16 -164 -188 0
-13 -165 -189 0
-14 -166 -190 0
-15 -167 -191 0
-16 -168 -192 0
-13 -169 -193 0
-14 -170 -194 0
-15 -171 -195 0
-16 -172 -196 0
-13 -173 -197 0
-14 -174 -198 0
-15 -175 -199 0
-16 -176 -200 0
-13 -177 -201 0
-14 -178 -202 0
-15 -179 -203 0
-16 -180 -204 0
-13 -181 -205 0
-14 -182 -206 0
-15 -183 -207 0
-16 -184 -208 0
-13 -185 -209 0
-14 -186 -210 0
-15 -187 -211 0
-16 -188 -212 0
-13 -189 -213 0
-14 -190 -214 0
-15 -191 -215 0
-16 -192 -216 0
-13 -193 -217 0
-14 -194 -218 0
-15 -195 -219 0
-16 -196 -220 0
-13 -197 -221 0
-14 -198 -222 0
-15 -199 -223 0
-16 -200 -224 0
-13 -201 -225 0
-14 -202 -226 0
-15 -203 -227 0
-16 -204 -228 0
-13 -205 -229 0
-14 -206 -230 0
-15 -207 -231 0
-16 -208 -232 0
-13 -209 -233 0
-14 -210 -234 0
-15 -211 -235 0
-16 -212 -236 0
-13 -213 -237 0
-14 -214 -238 0
-15 -215 -239 0
-16 -216 -240 0
-13 -217 -241 0
-14 -218 -242 0
-15 -219 -243 0
-16 -220 -244 0
-13 -221 -245 0
-14 -222 -246 0
-15 -223 -247 0
-16 -224 -248 0
-13 -225 -249 0
-14 -226 -250 0
-15 -227 -251 0
-16 -228 -252 0
-13 -229 -253 0
-14 -230 -254 0
-15 -231 -255 0
-16 -232 -256 0
-13 -233 -257 0
-14 -234 -258 0
-15 -235 -259 0
-16 -236 -260 0
-13 -237 -261 0
-14 -238 -262 0
-15 -239 -263 0
-16 -240 -264 0
-13 -241 -265 0
-14 -242 -266 0
-15 -243 -267 0
-16 -244 -268 0
-13 -245 -269 0
-14 -246 -270 0
-15 -247 -271 0
-16 -248 -272 0
-13 -249 -273 0
-14 -250 -274 0
-15 -251 -275 0
-16 -252 -276 0
-13 -253 -277 0
-14 -254 -278 0
-15 -255 -279 0
-16 -256 -280 0
-13 -257 -281 0
-14 -258 -282 0
-15 -259 -283 0
-16 -260 -284 0
-13 -261 -285 0
-14 -262 -286 0
-15 -263 -287 0
-16 -264 -288 0
-13 -265 -289 0
-14 -266 -290 0
-15 -267 -291 0
-16 -268 -292 0
-13 -269 -293 0
-14 -270 -294 0
-15 -271 -295 0
-16 -272 -296 0
-13 -273 -297 0
-14 -274 -298 0
-15 -275 -299 0
-16 -276 -300 0
-13 -277 -301 0
-14 -278 -302 0
-15 -279 -303 0
-16 -280 -304 0
-13 -281 -305 0
-14 -282 -306 0
-15 -283 -307 0
-16 -284 -308 0
-13 -285 -309 0
-14 -286 -310 0
-15 -287 -311 0
-16 -288 -312 0
-13 -289 -313 0
-14 -290 -314 0
-15 -291 -315 0
-16 -292 -316 0
-13 -293 -317 0
-14 -294 -318 0
-15 -295 -319 0
-16 -296 -320 0
-13 -297 -321 0
-14 -298 -322 0
-15 -299 -323 0
-16 -300 -324 0
-13 -301 -325 0
-14 -302 -326 0
-15 -303 -327 0
-16 -304 -328 0
-13 -305 -329 0
-14 -306 -330 0
-15 -307 -331 0
-16 -308 -332 0
-13 -309 -333 0
-14 -310 -334 0
-15 -311 -335 0
-16 -312 -336 0
-13 -313 -337 0
-14 -314 -338 0
-15 -315 -339 0
-16 -316 -340 0
-13 -317 -341 0
-14 -318 -342 0
-15 -319 -343 0
-16 -320 -344 0
-13 -321 -345 0
-14 -322 -346 0
-15 -323 -347 0
-16 -324 -348 0
-13 -325 -349 0
-14 -326 -350 0
-15 -327 -351 0
-16 -328 -352 0
-13 -329 -353 0
-14 -330 -354 0
-15 -331 -355 0
-16 -332 -356 0
-13 -333 -357 0
-14 -334 -358 0
-15 -335 -359 0
-16 -336 -360 0
-13 -337 -361 0
-14 -338 -362 0
-15 -339 -363 0
-16 -340 -364 0
-13 -341 -365 0
-14 -342 -366 0
-15 -343 -367 0
-16 -344 -368 0
-13 -345 -369 0
-14 -346 -370 0
-15 -347 -371 0
-16 -348 -372 0
-13 -349 -373 0
-14 -350 -374 0
-15 -351 -375 0
-16 -352 -376 0
-13 -353 -377 0
-14 -354 -378 0
-15 -355 -379 0
-16 -356 -380 0
-13 -357 -381 0
-14 -358 -382 0
-15 -359 -383 0
-16 -360 -384 0
-13 -361 -385 0
-14 -362 -386 0
-15 -363 -387 0
-16 -364 -388 0
-13 -365 -389 0
-14 -366 -390 0
-15 -367 -391 0
-16 -368 -392 0
-13 -369 -393 0
-14 -370 -394 0
-15 -371 -395 0
-16 -372 -396 0
-13 -373 -397 0
-14 -374 -398 0
-15 -375 -399 0
-16 -376 -400 0
-13 -377 -401 0
-14 -378 -402 0
-15 -379 -403 0
-16 -380 -404 0
-13 -381 -405 0
-14 -382 -406 0
-15 -383 -407 0
-16 -384 -408 0
-13 -385 -409 0
-14 -386 -410 0
-15 -387 -411 0
-16 -388 -412 0
-13 -389 -413 0
-14 -390 -414 0
-15 -391 -415 0
-16 -392 -416 0
-13 -393 -417 0
-14 -394 -418 0
-15 -395 -419 0
-16 -396 -420 0
-13 -397 -421 0
-14 -398 -422 0
-15 -399 -423 0
-16 -400 -424 0
-13 -401 -425 0
-14 -402 -426 0
-15 -403 -427 0
-16 -404 -428 0
-13 -405 -429 0
-14 -406 -430 0
-15 -407 -431 0
-16 -408 -432 0
-13 -409 -433 0
-14 -410 -434 0
-15 -411 -435 0
-16 -412 -436 0
-13 -413 -437 0
-14 -414 -438 0
-15 -415 -439 0
-16 -416 -440 0
-13 -417 -441 0
-14 -418 -442 0
-15 -419 -443 0
-16 -420 -444 0
-13 -421 -445 0
-14 -422 -446 0
-15 -423 -447 0
-16 -424 -448 0
-13 -425 -449 0
-14 -426 -450 0
-15 -427 -451 0
-16 -428 -452 0
-13 -429 -453 0
-14 -430 -454 0
-15 -431 -455 0
-16 -432 -456 0
-13 -433 -457 0
-14 -434 -458 0
-15 -435 -459 0
-16 -436 -460 0
-13 -437 -461 0
-14 -438 -462 0
-15 -439 -463 0
-16 -440 -464 0
-13 -441 -465 0
-14 -442 -466 0
-15 -443 -467 0
-16 -444 -468 0
-13 -445 -469 0
-14 -446 -470 0
-15 -447 -471 0
-16 -448 -472 0
-13 -449 -473 0
-14 -450 -474 0
-15 -451 -475 0
-16 -452 -476 0
-13 -453 -477 0
-14 -454 -478 0
-15 -455 -479 0
-16 -456 -480 0
-13 -457 -481 0
-14 -458 -482 0
-15 -459 -483 0
-16 -460 -484 0
-13 -461 -485 0
-14 -462 -486 0
-15 -463 -487 0
-16 -464 -488 0
-13 -465 -489 0
-14 -466 -490 0
-15 -467 -491 0
-16 -468 -492 0
-13 -469 -493 0
-14 -470 -494 0
-15 -471 -495 0
-16 -472 -496 0
-13 -473 -497 0
-14 -474 -498 0
-15 -475 -499 0
-16 -476 -500 0
-13 -477 -501 0
-14 -478 -502 0
-15 -479 -503 0
-16 -480 -504 0
-13 -481 -505 0
-14 -482 -506 0
-15 -483 -507 0
-16 -484 -508 0
-13 -485 -509 0
-14 -486 -510 0
-15 -487 -511 0
-16 -488 -512 0
-13 -489 -513 0
-14 -490 -514 0
-15 -491 -515 0
-16 -492 -516 0
-13 -493 -517 0
-14 -494 -518 0
-15 -495 -519 0
-16 -496 -520 0
-13 -497 -521 0
-14 -498 -522 0
-15 -499 -523 0
-16 -500 -524 0
-13 -501 -525 0
-14 -502 -526 0
-15 -503 -527 0
-16 -504 -528 0
-13 -505 -529 0
-14 -506 -530 0
-15 -507 -531 0
-16 -508 -532 0
-13 -509 -533 0
-14 -510 -534 0
-15 -511 -535 0
-16 -512 -536 0
-13 -513 -537 0
-14 -514 -538 0
-15 -515 -539 0
-16 -516 -540 0
-13 -517 -541 0
-14 -518 -542 0
-15 -519 -543 0
-16 -520 -544 0
-13 -521 -545 0
-14 -522 -546 0
-15 -523 -547 0
-16 -524 -548 0
-13 -525 -549 0
-14 -526 -550 0
-15 -527 -551 0
-16 -528 -552 0
-13 -529 -553 0
-14 -530 -554 0
-15 -531 -555 0
-16 -532 -556 0
-13 -533 -557 0
-14 -534 -558 0
-15 -535 -559 0
-16 -536 -560 0
-13 -537 -561 0
-14 -538 -562 0
-15 -539 -563 0
-16 -540 -564 0
-13 -541 -565 0
-14 -542 -566 0
-15 -543 -567 0
-16 -544 -568 0
-13 -545 -569 0
-14 -546 -570 0
-15 -547 -571 0
-16 -548 -572 0
-13 -549 -573 0
-14 -550 -574 0
-15 -551 -575 0
-16 -552 -576 0
-13 -553 -577 0
-14 -554 -578 0
-15 -555 -579 0
-16 -556 -580 0
-13 -557 -581 0
-14 -558 -582 0
-15 -559 -583 0
-16 -560 -584 0
-13 -561 -585 0
-14 -562 -586 0
-15 -563 -587 0
-16 -564 -588 0
-13 -565 -589 0
-14 -566 -590 0
-15 -567 -591 0
-16 -568 -592 0
-13 -569 -593 0
-14 -570 -594 0
-15 -571 -595 0
-16 -572 -596 0
-13 -573 -597 0
-14 -574 -598 0
-15 -575 -599 0
-16 -576 -600 0
-13 -577 -601 0
-14 -578 -602 0
-15 -579 -603 0
-16 -580 -604 0
-13 -581 -605 0
-14 -582 -606 0
-15 -583 -607 0
-16 -584 -608 0
-13 -585 -609 0
-14 -586 -610 0
-15 -587 -611 0
-16 -588 -612 0
-13 -589 -613 0
-14 -590 -614 0
-15 -591 -615 0
-16 -592 -616 0
-13 -593 -617 0
-14 -594 -618 0
-15 -595 -619 0
-16 -596 -620 0
-13 -597 -621 0
-14 -598 -622 0
-15 -599 -623 0
-16 -600 -624 0
-13 -601 -625 0
-14 -602 -626 0
-15 -603 -627 0
-16 -604 -628 0
-13 -605 -629 0
-14 -606 -630 0
-15 -607 -631 0
-16 -608 -632 0
-13 -609 -633 0
-14 -610 -634 0
-15 -611 -635 0
-16 -612 -636 0
-13 -613 -637 0
-14 -614 -638 0
-15 -615 -639 0
-16 -616 -640 0
-13 -617 -641 0
-14 -618 -642 0
-15 -619 -643 0
-16 -620 -644 0
-13 -621 -645 0
-14 -622 -646 0
-15 -623 -647 0
-16 -624 -648 0
-13 -625 -649 0
-14 -626 -650 0
-15 -627 -651 0
-16 -628 -652 0
-13 -629 -653 0
-14 -630 -654 0
-15 -631 -655 0
-16 -632 -656 0
-13 -633 -657 0
-14 -634 -658 0
-15 -635 -659 0
-16 -636 -660 0
-13 -637 -661 0
-14 -638 -662 0
-15 -639 -663 0
-16 -640 -664 0
-13 -641 -665 0
-14 -642 -666 0
-15 -643 -667 0
-16 -644 -668 0
-13 -645 -669 0
-14 -646 -670 0
-15 -647 -671 0
-16 -648 -672 0
-13 -649 -673 0
-14 -650 -674 0
-15 -651 -675 0
-16 -652 -676 0
-13 -653 -677 0
-14 -654 -678 0
-15 -655 -679 0
-16 -656 -680 0
-13 -657 -681 0
-14 -658 -682 0
-15 -659 -683 0
-16 -660 -684 0
-13 -661 -685 0
-14 -662 -686 0
-15 -663 -687 0
-16 -664 -688 0
-13 -665 -689 0
-14 -666 -690 0
-15 -667 -691 0
-16 -668 -692 0
-13 -669 -693 0
-14 -670 -694 0
-15 -671 -695 0
-16 -672 -696 0
-13 -673 -697 0
-14 -674 -698 0
-15 -675 -699 0
-16 -676 -700 0
-13 -677 -701 0
-14 -678 -702 0
-15 -679 -703 0
-16 -680 -704 0
-13 -681 -705 0
-14 -682 -706 0
-15 -683 -707 0
-16 -684 -708 0
-13 -685 -709 0
-14 -686 -710 0
-15 -687 -711 0
-16 -688 -712 0
-13 -689 -713 0
-14 -690 -714 0
-15 -691 -715 0
-16 -692 -716 0
-13 -693 -717 0
-14 -694 -718 0
-15 -695 -719 0
-16 -696 -720 0
-13 -697 -721 0
-14 -698 -722 0
-15 -699 -723 0
-16 -700 -724 0
-13 -701 -725 0
-14 -702 -726 0
-15 -703 -727 0
-16 -704 -728 0
-13 -705 -729 0
-14 -706 -730 0
-15 -707 -731 0
-16 -708 -732 0
-13 -709 -733 0
-14 -710 -734 0
-15 -711 -735 0
-16 -712 -736 0
-13 -713 -737 0
-14 -714 -738 0
-15 -715 -739 0
-16 -716 -740 0
-13 -717 -741 0
-14 -718 -742 0
-15 -719 -743 0
-16 -720 -744 0
-13 -721 -745 0
-14 -722 -746 0
-15 -723 -747 0
-16 -724 -748 0
-13 -725 -749 0
-14 -726 -750 0
-15 -727 -751 0
-16 -728 -752 0
-13 -729 -753 0
-14 -730 -754 0
-15 -731 -755 0
-16 -732 -756 0
-13 -733 -757 0
-14 -734 -758 0
-15 -735 -759 0
-16 -736 -760 0
-13 -737 -761 0
-14 -738 -762 0
-15 -739 -763 0
-16 -740 -764 0
-13 -741 -765 0
-14 -742 -766 0
-15 -743 -767 0
-16 -744 -768 0
-13 -745 -769 0
-14 -746 -770 0
-15 -747 -771 0
-16 -748 -772 0
-13 -749 -773 0
-14 -750 -774 0
-15 -751 -775 0
-16 -752 -776 0
-13 -753 -777 0
-14 -754 -778 0
-15 -755 -779 0
-16 -756 -780 0
-13 -757 -781 0
-14 -758 -782 0
-15 -759 -783 0
-16 -760 -784 0
-13 -761 -785 0
-14 -762 -786 0
-15 -763 -787 0
-16 -764 -788 0
-13 -765 -789 0
-14 -766 -790 0
-15 -767 -791 0
-16 -768 -792 0
-13 -769 -793 0
-14 -770 -794 0
-15 -771 -795 0
-16 -772 -796 0
-13 -773 -797 0
-14 -774 -798 0
-15 -775 -799 0
-16 -776 -800 0
-13 -777 -801 0
-14 -778 -802 0
-15 -779 -803 0
-16 -780 -804 0
-13 -781 -805 0
-14 -782 -806 0
-15 -783 -807 0
-16 -784 -808 0
-13 -785 -809 0
-14 -786 -810 0
-15 -787 -811 0
-16 -788 -812 0
-13 -789 -813 0
-14 -790 -814 0
-15 -791 -815 0
-16 -792 -816 0
-13 -793 -817 0
-14 -794 -818 0
-15 -795 -819 0
-16 -796 -820 0
-13 -797 -821 0
-14 -798 -822 0
-15 -799 -823 0
-16 -800 -824 0
-13 -801 -825 0
-14 -802 -826 0
-15 -803 -827 0
-16 -804 -828 0
-13 -805 -829 0
-14 -806 -830 0
-15 -807 -831 0
-16 -808 -832 0
-13 -809 -833 0
-14 -810 -834 0
-15 -811 -835 0
-16 -812 -836 0
-13 -813 -837 0
-14 -814 -838 0
-15 -815 -839 0
-16 -816 -840 0
-13 -817 -841 0
-14 -818 -842 0
-15 -819 -843 0
-16 -820 -844 0
-13 -821 -845 0
-14 -822 -846 0
-15 -823 -847 0
-16 -824 -848 0
-13 -825 -849 0
-14 -826 -850 0
-15 -827 -851 0
-16 -828 -852 0
-13 -829 -853 0
-14 -830 -854 0
-15 -831 -855 0
-16 -832 -856 0
-13 -833 -857 0
-14 -834 -858 0
-15 -835 -859 0
-16 -836 -860 0
-13 -837 -861 0
-14 -838 -862 0
-15 -839 -863 0
-16 -840 -864 0
-13 -841 -865 0
-14 -842 -866 0
-15 -843 -867 0
-16 -844 -868 0
-13 -845 -869 0
-14 -846 -870 0
-15 -847 -871 0
-16 -848 -872 0
-13 -849 -873 0
-14 -850 -874 0
-15 -851 -875 0
-16 -852 -876 0
-13 -853 -877 0
-14 -854 -878 0
-15 -855 -879 0
-16 -856 -880 0
-13 -857 -881 0
-14 -858 -882 0
-15 -859 -883 0
-16 -860 -884 0
-13 -861 -885 0
-14 -862 -886 0
-15 -863 -887 0
-16 -864 -888 0
-13 -865 -889 0
-14 -866 -890 0
-15 -867 -891 0
-16 -868 -892 0
-13 -869 -893 0
-14 -870 -894 0
-15 -871 -895 0
-16 -872 -896 0
-13 -873 -897 0
-14 -874 -898 0
-15 -875 -899 0
-16 -876 -900 0
-13 -877 -901 0
-14 -878 -902 0
-15 -879 -903 0
-16 -880 -904 0
-1 -21 -37 0
-2 -22 -38 0
-3 -23 -39 0
-4 -24 -40 0
-5 -21 -41 0
-6 -22 -42 0
-7 -23 -43 0
-8 -24 -44 0
-9 -21 -45 0
-10 -22 -46 0
-11 -23 -47 0
-12 -24 -48 0
-13 -21 -49 0
-14 -22 -50 0
-15 -23 -51 0
-16 -24 -52 0
-17 -21 -53 0
-18 -22 -54 0
-19 -23 -55 0
-20 -24 -56 0
-21 -57 0
-22 -58 0
-23 -59 0
-24 -60 0
-21 -25 -61 0
-22 -26 -62 0
-23 -27 -63 0
-24 -28 -64 0
-21 -29 -65 0
-22 -30 -66 0
-23 -31 -67 0
-24 -32 -68 0
-21 -33 -69 0
-22 -34 -70 0
-23 -35 -71 0
-24 -36 -72 0
-21 -37 -73 0
-22 -38 -74 0
-23 -39 -75 0
-24 -40 -76 0
-21 -41 -77 0
-22 -42 -78 0
-23 -43 -79 0
-24 -44 -80 0
-21 -45 -81 0
-22 -46 -82 0
-23 -47 -83 0
-24 -48 -84 0
-21 -49 -85 0
-22 -50 -86 0
-23 -51 -87 0
-24 -52 -88 0
-21 -53 -89 0
-22 -54 -90 0
-23 -55 -91 0
-24 -56 -92 0
-21 -57 -93 0
-22 -58 -94 0
-23 -59 -95 0
-24 -60 -96 0
-21 -61 -97 0
-22 -62 -98 0
-23 -63 -99 0
-24 -64 -100 0
-21 -65 -101 0
-22 -66 -102 0
-23 -67 -103 0
-24 -68 -104 0
-21 -69 -105 0
-22 -70 -106 0
-23 -71 -107 0
-24 -72 -108 0
-21 -73 -109 0
-22 -74 -110 0
-23 -75 -111 0
-24 -76 -112 0
-21 -77 -113 0
-22 -78 -114 0
-23 -79 -115 0
-24 -80 -116 0
-21 -81 -117 0
-22 -82 -118 0
-23 -83 -119 0
-24 -84 -120 0
-21 -85 -121 0
-22 -86 -122 0
-23 -87 -123 0
-24 -88 -124 0
-21 -89 -125 0
-22 -90 -126 0
-23 -91 -127 0
-24 -92 -128 0
-21 -93 -129 0
-22 -94 -130 0
-23 -95 -131 0
-24 -96 -132 0
-21 -97 -133 0
-22 -98 -134 0
-23 -99 -135 0
-24 -100 -136 0
-21 -101 -137 0
-22 -102 -138 0
-23 -103 -139 0
-24 -104 -140 0
-21 -105 -141 0
-22 -106 -142 0
-23 -107 -143 0
-24 -108 -144 0
-21 -109 -145 0
-22 -110 -146 0
-23 -111 -147 0
-24 -112 -148 0
-21 -113 -149 0
-22 -114 -150 0
-23 -115 -151 0
-24 -116 -152 0
-21 -117 -153 0
-22 -118 -154 0
-23 -119 -155 0
-24 -120 -156 0
-21 -121 -157 0
-22 -122 -158 0
-23 -123 -159 0
-24 -124 -160 0
-21 -125 -161 0
-22 -126 -162 0
-23 -127 -163 0
-24 -128 -164 0
-21 -129 -165 0
-22 -130 -166 0
-23 -131 -167 0
-24 -132 -168 0
-21 -133 -169 0
-22 -134 -170 0
-23 -135 -171 0
-24 -136 -172 0
-21 -137 -173 0
-22 -138 -174 0
-23 -139 -175 0
-24 -140 -176 0
-21 -141 -177 0
-22 -142 -178 0
-23 -143 -179 0
-24 -144 -180 0
-21 -145 -181 0
-22 -146 -182 0
-23 -147 -183 0
-24 -148 -184 0
-21 -149 -185 0
-22 -150 -186 0
-23 -151 -187 0
-24 -152 -188 0
-21 -153 -189 0
-22 -154 -190 0
-23 -155 -191 0
-24 -156 -192 0
-21 -157 -193 0
-22 -158 -194 0
-23 -159 -195 0
-24 -160 -196 0
-21 -161 -197 0
-22 -162 -198 0
-23 -163 -199 0
-24 -164 -200 0
-21 -165 -201 0
-22 -166 -202 0
-23 -167 -203 0
-24 -168 -204 0
-21 -169 -205 0
-22 -170 -206 0
-23 -171 -207 0
-24 -172 -208 0
-21 -173 -209 0
-22 -174 -210 0
-23 -175 -211 0
-24 -176 -212 0
-21 -177 -213 0
-22 -178 -214 0
-23 -179 -215 0
-24 -180 -216 0
-21 -181 -217 0
-22 -182 -218 0
-23 -183 -219 0
-24 -184 -220 0
-21 -185 -221 0
-22 -186 -222 0
-23 -187 -223 0
-24 -188 -224 0
-21 -189 -225 0
-22 -190 -226 0
-23 -191 -227 0
-24 -192 -228 0
-21 -193 -229 0
-22 -194 -230 0
-23 -195 -231 0
-24 -196 -232 0
-21 -197 -233 0
-22 -198 -234 0
-23 -199 -235 0
-24 -200 -236 0
-21 -201 -237 0
-22 -202 -238 0
-23 -203 -239 0
-24 -204 -240 0
-21 -205 -241 0
-22 -206 -242 0
-23 -207 -243 0
-24 -208 -244 0
-21 -209 -245 0
-22 -210 -246 0
-23 -211 -247 0
-24 -212 -248 0
-21 -213 -249 0
-22 -214 -250 0
-23 -215 -251 0
-24 -216 -252 0
-21 -217 -253 0
-22 -218 -254 0
-23 -219 -255 0
-24 -220 -256 0
-21 -221 -257 0
-22 -222 -258 0
-23 -223 -259 0
-24 -224 -260 0
-21 -225 -261 0
-22 -226 -262 0
-23 -227 -263 0
-24 -228 -264 0
-21 -229 -265 0
-22 -230 -266 0
-23 -231 -267 0
-24 -232 -268 0
-21 -233 -269 0
-22 -234 -270 0
-23 -235 -271 0
-24 -236 -272 0
-21 -237 -273 0
-22 -238 -274 0
-23 -239 -275 0
-24 -240 -276 0
-21 -241 -277 0
-22 -242 -278 0
-23 -243 -279 0
-24 -244 -280 0
-21 -245 -281 0
-22 -246 -282 0
-23 -247 -283 0
-24 -248 -284 0
-21 -249 -285 0
-22 -250 -286 0
-23 -251 -287 0
-24 -252 -288 0
-21 -253 -289 0
-22 -254 -290 0
-23 -255 -291 0
-24 -256 -292 0
-21 -257 -293 0
-22 -258 -294 0
-23 -259 -295 0
-24 -260 -296 0
-21 -261 -297 0
-22 -262 -298 0
-23 -263 -299 0
-24 -264 -300 0
-21 -265 -301 0
-22 -266 -302 0
-23 -267 -303 0
-24 -268 -304 0
-21 -269 -305 0
-22 -270 -306 0
-23 -271 -307 0
-24 -272 -308 0
-21 -273 -309 0
-22 -274 -310 0
-23 -275 -311 0
-24 -276 -312 0
-21 -277 -313 0
-22 -278 -314 0
-23 -279 -315 0
-24 -280 -316 0
-21 -281 -317 0
-22 -282 -318 0
-23 -283 -319 0
-24 -284 -320 0
-21 -285 -321 0
-22 -286 -322 0
-23 -287 -323 0
-24 -288 -324 0
-21 -289 -325 0
-22 -290 -326 0
-23 -291 -327 0
-24 -292 -328 0
-21 -293 -329 0
-22 -294 -330 0
-23 -295 -331 0
-24 -296 -332 0
-21 -297 -333 0
-22 -298 -334 0
-23 -299 -335 0
-24 -300 -336 0
-21 -301 -337 0
-22 -302 -338 0
-23 -303 -339 0
-24 -304 -340 0
-21 -305 -341 0
-22 -306 -342 0
-23 -307 -343 0
-24 -308 -344 0
-21 -309 -345 0
-22 -310 -346 0
-23 -311 -347 0
-24 -312 -348 0
-21 -313 -349 0
-22 -314 -350 0
-23 -315 -351 0
-24 -316 -352 0
-21 -317 -353 0
-22 -318 -354 0
-23 -319 -355 0
-24 -320 -356 0
-21 -321 -357 0
-22 -322 -358 0
-23 -323 -359 0
-24 -324 -360 0
-21 -325 -361 0
-22 -326 -362 0
-23 -327 -363 0
-24 -328 -364 0
-21 -329 -365 0
-22 -330 -366 0
-23 -331 -367 0
-24 -332 -368 0
-21 -333 -369 0
-22 -334 -370 0
-23 -335 -371 0
-24 -336 -372 0
-21 -337 -373 0
-22 -338 -374 0
-23 -339 -375 0
-24 -340 -376 0
-21 -341 -377 0
-22 -342 -378 0
-23 -343 -379 0
-24 -344 -380 0
-21 -345 -381 0
-22 -346 -382 0
-23 -347 -383 0
-24 -348 -384 0
-21 -349 -385 0
-22 -350 -386 0
-23 -351 -387 0
-24 -352 -388 0
-21 -353 -389 0
-22 -354 -390 0
-23 -355 -391 0
-24 -356 -392 0
-21 -357 -393 0
-22 -358 -394 0
-23 -359 -395 0
-24 -360 -396 0
-21 -361 -397 0
-22 -362 -398 0
-23 -363 -399 0
-24 -364 -400 0
-21 -365 -401 0
-22 -366 -402 0
-23 -367 -403 0
-24 -368 -404 0
-21 -369 -405 0
-22 -370 -406 0
-23 -371 -407 0
-24 -372 -408 0
-21 -373 -409 0
-22 -374 -410 0
-23 -375 -411 0
-24 -376 -412 0
-21 -377 -413 0
-22 -378 -414 0
-23 -379 -415 0
-24 -380 -416 0
-21 -381 -417 0
-22 -382 -418 0
-23 -383 -419 0
-24 -384 -420 0
-21 -385 -421 0
-22 -386 -422 0
-23 -387 -423 0
-24 -388 -424 0
-21 -389 -425 0
-22 -390 -426 0
-23 -391 -427 0
-24 -392 -428 0
-21 -393 -429 0
-22 -394 -430 0
-23 -395 -431 0
-24 -396 -432 0
-21 -397 -433 0
-22 -398 -434 0
-23 -399 -435 0
-24 -400 -436 0
-21 -401 -437 0
-22 -402 -438 0
-23 -403 -439 0
-24 -404 -440 0
-21 -405 -441 0
-22 -406 -442 0
-23 -407 -443 0
-24 -408 -444 0
-21 -409 -445 0
-22 -410 -446 0
-23 -411 -447 0
-24 -412 -448 0
-21 -413 -449 0
-22 -414 -450 0
-23 -415 -451 0
-24 -416 -452 0
-21 -417 -453 0
-22 -418 -454 0
-23 -419 -455 0
-24 -420 -456 0
-21 -421 -457 0
-22 -422 -458 0
-23 -423 -459 0
-24 -424 -460 0
-21 -425 -461 0
-22 -426 -462 0
-23 -427 -463 0
-24 -428 -464 0
-21 -429 -465 0
-22 -430 -466 0
-23 -431 -467 0
-24 -432 -468 0
-21 -433 -469 0
-22 -434 -470 0
-23 -435 -471 0
-24 -436 -472 0
-21 -437 -473 0
-22 -438 -474 0
-23 -439 -475 0
-24 -440 -476 0
-21 -441 -477 0
-22 -442 -478 0
-23 -443 -479 0
-24 -444 -480 0
-21 -445 -481 0
-22 -446 -482 0
-23 -447 -483 0
-24 -448 -484 0
-21 -449 -485 0
-22 -450 -486 0
-23 -451 -487 0
-24 -452 -488 0
-21 -453 -489 0
-22 -454 -490 0
-23 -455 -491 0
-24 -456 -492 0
-21 -457 -493 0
-22 -458 -494 0
-23 -459 -495 0
-24 -460 -496 0
-21 -461 -497 0
-22 -462 -498 0
-23 -463 -499 0
-24 -464 -500 0
-21 -465 -501 0
-22 -466 -502 0
-23 -467 -503 0
-24 -468 -504 0
-21 -469 -505 0
-22 -470 -506 0
-23 -471 -507 0
-24 -472 -508 0
-21 -473 -509 0
-22 -474 -510 0
-23 -475 -511 0
-24 -476 -512 0
-21 -477 -513 0
-22 -478 -514 0
-23 -479 -515 0
-24 -480 -516 0
-21 -481 -517 0
-22 -482 -518 0
-23 -483 -519 0
-24 -484 -520 0
-21 -485 -521 0
-22 -486 -522 0
-23 -487 -523 0
-24 -488 -524 0
-21 -489 -525 0
-22 -490 -526 0
-23 -491 -527 0
-24 -492 -528 0
-21 -493 -529 0
-22 -494 -530 0
-23 -495 -531 0
-24 -496 -532 0
-21 -497 -533 0
-22 -498 -534 0
-23 -499 -535 0
-24 -500 -536 0
-21 -501 -537 0
-22 -502 -538 0
-23 -503 -539 0
-24 -504 -540 0
-21 -505 -541 0
-22 -506 -542 0
-23 -507 -543 0
-24 -508 -544 0
-21 -509 -545 0
-22 -510 -546 0
-23 -511 -547 0
-24 -512 -548 0
-21 -513 -549 0
-22 -514 -550 0
-23 -515 -551 0
-24 -516 -552 0
-21 -517 -553 0
-22 -518 -554 0
-23 -519 -555 0
-24 -520 -556 0
-21 -521 -557 0
-22 -522 -558 0
-23 -523 -559 0
-24 -524 -560 0
-21 -525 -561 0
-22 -526 -562 0
-23 -527 -563 0
-24 -528 -564 0
-21 -529 -565 0
-22 -530 -566 0
-23 -531 -567 0
-24 -532 -568 0
-21 -533 -569 0
-22 -534 -570 0
-23 -535 -571 0
-24 -536 -572 0
-21 -537 -573 0
-22 -538 -574 0
-23 -539 -575 0
-24 -540 -576 0
-21 -541 -577 0
-22 -542 -578 0
-23 -543 -579 0
-24 -544 -580 0
-21 -545 -581 0
-22 -546 -582 0
-23 -547 -583 0
-24 -548 -584 0
-21 -549 -585 0
-22 -550 -586 0
-23 -551 -587 0
-24 -552 -588 0
-21 -553 -589 0
-22 -554 -590 0
-23 -555 -591 0
-24 -556 -592 0
-21 -557 -593 0
-22 -558 -594 0
-23 -559 -595 0
-24 -560 -596 0
-21 -561 -597 0
-22 -562 -598 0
-23 -563 -599 0
-24 -564 -600 0
-21 -565 -601 0
-22 -566 -602 0
-23 -567 -603 0
-24 -568 -604 0
-21 -569 -605 0
-22 -570 -606 0
-23 -571 -607 0
-24 -572 -608 0
-21 -573 -609 0
-22 -574 -610 0
-23 -575 -611 0
-24 -576 -612 0
-21 -577 -613 0
-22 -578 -614 0
-23 -579 -615 0
-24 -580 -616 0
-21 -581 -617 0
-22 -582 -618 0
-23 -583 -619 0
-24 -584 -620 0
-21 -585 -621 0
-22 -586 -622 0
-23 -587 -623 0
-24 -588 -624 0
-21 -589 -625 0
-22 -590 -626 0
-23 -591 -627 0
-24 -592 -628 0
-21 -593 -629 0
-22 -594 -630 0
-23 -595 -631 0
-24 -596 -632 0
-21 -597 -633 0
-22 -598 -634 0
-23 -599 -635 0
-24 -600 -636 0
-21 -601 -637 0
-22 -602 -638 0
-23 -603 -639 0
-24 -604 -640 0
-21 -605 -641 0
-22 -606 -642 0
-23 -607 -643 0
-24 -608 -644 0
-21 -609 -645 0
-22 -610 -646 0
-23 -611 -647 0
-24 -612 -648 0
-21 -613 -649 0
-22 -614 -650 0
-23 -615 -651 0
-24 -616 -652 0
-21 -617 -653 0
-22 -618 -654 0
-23 -619 -655 0
-24 -620 -656 0
-21 -621 -657 0
-22 -622 -658 0
-23 -623 -659 0
-24 -624 -660 0
-21 -625 -661 0
-22 -626 -662 0
-23 -627 -663 0
-24 -628 -664 0
-21 -629 -665 0
-22 -630 -666 0
-23 -631 -667 0
-24 -632 -668 0
-21 -633 -669 0
-22 -634 -670 0
-23 -635 -671 0
-24 -636 -672 0
-21 -637 -673 0
-22 -638 -674 0
-23 -639 -675 0
-24 -640 -676 0
-21 -641 -677 0
-22 -642 -678 0
-23 -643 -679 0
-24 -644 -680 0
-21 -645 -681 0
-22 -646 -682 0
-23 -647 -683 0
-24 -648 -684 0
-21 -649 -685 0
-22 -650 -686 0
-23 -651 -687 0
-24 -652 -688 0
-21 -653 -689 0
-22 -654 -690 0
-23 -655 -691 0
-24 -656 -692 0
-21 -657 -693 0
-22 -658 -694 0
-23 -659 -695 0
-24 -660 -696 0
-21 -661 -697 0
-22 -662 -698 0
-23 -663 -699 0
-24 -664 -700 0
-21 -665 -701 0
-22 -666 -702 0
-23 -667 -703 0
-24 -668 -704 0
-21 -669 -705 0
-22 -670 -706 0
-23 -671 -707 0
-24 -672 -708 0
-21 -673 -709 0
-22 -674 -710 0
-23 -675 -711 0
-24 -676 -712 0
-21 -677 -713 0
-22 -678 -714 0
-23 -679 -715 0
-24 -680 -716 0
-21 -681 -717 0
-22 -682 -718 0
-23 -683 -719 0
-24 -684 -720 0
-21 -685 -721 0
-22 -686 -722 0
-23 -687 -723 0
-24 -688 -724 0
-21 -689 -725 0
-22 -690 -726 0
-23 -691 -727 0
-24 -692 -728 0
-21 -693 -729 0
-22 -694 -730 0
-23 -695 -731 0
-24 -696 -732 0
-21 -697 -733 0
-22 -698 -734 0
-23 -699 -735 0
-24 -700 -736 0
-21 -701 -737 0
-22 -702 -738 0
-23 -703 -739 0
-24 -704 -740 0
-21 -705 -741 0
-22 -706 -742 0
-23 -707 -743 0
-24 -708 -744 0
-21 -709 -745 0
-22 -710 -746 0
-23 -711 -747 0
-24 -712 -748 0
-21 -713 -749 0
-22 -714 -750 0
-23 -715 -751 0
-24 -716 -752 0
-21 -717 -753 0
-22 -718 -754 0
-23 -719 -755 0
-24 -720 -756 0
-21 -721 -757 0
-22 -722 -758 0
-23 -723 -759 0
-24 -724 -760 0
-21 -725 -761 0
-22 -726 -762 0
-23 -727 -763 0
-24 -728 -764 0
-21 -729 -765 0
-22 -730 -766 0
-23 -731 -767 0
-24 -732 -768 0
-21 -733 -769 0
-22 -734 -770 0
-23 -735 -771 0
-24 -736 -772 0
-21 -737 -773 0
-22 -738 -774 0
-23 -739 -775 0
-24 -740 -776 0
-21 -741 -777 0
-22 -742 -778 0
-23 -743 -779 0
-24 -744 -780 0
-21 -745 -781 0
-22 -746 -782 0
-23 -747 -783 0
-24 -748 -784 0
-21 -749 -785 0
-22 -750 -786 0
-23 -751 -787 0
-24 -752 -788 0
-21 -753 -789 0
-22 -754 -790 0
-23 -755 -791 0
-24 -756 -792 0
-21 -757 -793 0
-22 -758 -794 0
-23 -759 -795 0
-24 -760 -796 0
-21 -761 -797 0
-22 -762 -798 0
-23 -763 -799 0
-24 -764 -800 0
-21 -765 -801 0
-22 -766 -802 0
-23 -767 -803 0
-24 -768 -804 0
-21 -769 -805 0
-22 -770 -806 0
-23 -771 -807 0
-24 -772 -808 0
-21 -773 -809 0
-22 -774 -810 0
-23 -775 -811 0
-24 -776 -812 0
-21 -777 -813 0
-22 -778 -814 0
-23 -779 -815 0
-24 -780 -816 0
-21 -781 -817 0
-22 -782 -818 0
-23 -783 -819 0
-24 -784 -820 0
-21 -785 -821 0
-22 -786 -822 0
-23 -787 -823 0
-24 -788 -824 0
-21 -789 -825 0
-22 -790 -826 0
-23 -791 -827 0
-24 -792 -828 0
-21 -793 -829 0
-22 -794 -830 0
-23 -795 -831 0
-24 -796 -832 0
-21 -797 -833 0
-22 -798 -834 0
-23 -799 -835 0
-24 -800 -836 0
-21 -801 -837 0
-22 -802 -838 0
-23 -803 -839 0
-24 -804 -840 0
-21 -805 -841 0
-22 -806 -842 0
-23 -807 -843 0
-24 -808 -844 0
-21 -809 -845 0
-22 -810 -846 0
-23 -811 -847 0
-24 -812 -848 0
-21 -813 -849 0
-22 -814 -850 0
-23 -815 -851 0
-24 -816 -852 0
-21 -817 -853 0
-22 -818 -854 0
-23 -819 -855 0
-24 -820 -856 0
-21 -821 -857 0
-22 -822 -858 0
-23 -823 -859 0
-24 -824 -860 0
-21 -825 -861 0
-22 -826 -862 0
-23 -827 -863 0
-24 -828 -864 0
-21 -829 -865 0
-22 -830 -866 0
-23 -831 -867 0
-24 -832 -868 0
-21 -833 -869 0
-22 -834 -870 0
-23 -835 -871 0
-24 -836 -872 0
-21 -837 -873 0
-22 -838 -874 0
-23 -839 -875 0
-24 -840 -876 0
-21 -841 -877 0
-22 -842 -878 0
-23 -843 -879 0
-24 -844 -880 0
-21 -845 -881 0
-22 -846 -882 0
-23 -847 -883 0
-24 -848 -884 0
-21 -849 -885 0
-22 -850 -886 0
-23 -851 -887 0
-24 -852 -888 0
-21 -853 -889 0
-22 -854 -890 0
-23 -855 -891 0
-24 -856 -892 0
-21 -857 -893 0
-22 -858 -894 0
-23 -859 -895 0
-24 -860 -896 0
-21 -861 -897 0
-22 -862 -898 0
-23 -863 -899 0
-24 -864 -900 0
-21 -865 -901 0
-22 -866 -902 0
-23 -867 -903 0
-24 -868 -904 0
-1 -29 -49 0
-2 -30 -50 0
-3 -31 -51 0
-4 -32 -52 0
-5 -29 -53 0
-6 -30 -54 0
-7 -31 -55 0
-8 -32 -56 0
-9 -29 -57 0
-10 -30 -58 0
-11 -31 -59 0
-12 -32 -60 0
-13 -29 -61 0
-14 -30 -62 0
-15 -31 -63 0
-16 -32 -64 0
-17 -29 -65 0
-18 -30 -66 0
-19 -31 -67 0
-20 -32 -68 0
-21 -29 -69 0
-22 -30 -70 0
-23 -31 -71 0
-24 -32 -72 0
-25 -29 -73 0
-26 -30 -74 0
-27 -31 -75 0
-28 -32 -76 0
-29 -77 0
-30 -78 0
-31 -79 0
-32 -80 0
-29 -33 -81 0
-30 -34 -82 0
-31 -35 -83 0
-32 -36 -84 0
-29 -37 -85 0
-30 -38 -86 0
-31 -39 -87 0
-32 -40 -88 0
-29 -41 -89 0
-30 -42 -90 0
-31 -43 -91 0
-32 -44 -92 0
-29 -45 -93 0
-30 -46 -94 0
-31 -47 -95 0
-32 -48 -96 0
-29 -49 -97 0
-30 -50 -98 0
-31 -51 -99 0
-32 -52 -100 0
-29 -53 -101 0
-30 -54 -102 0
-31 -55 -103 0
-32 -56 -104 0
-29 -57 -105 0
-30 -58 -106 0
-31 -59 -107 0
-32 -60 -108 0
-29 -61 -109 0
-30 -62 -110 0
-31 -63 -111 0
-32 -64 -112 0
-29 -65 -113 0
-30 -66 -114 0
-31 -67 -115 0
-32 -68 -116 0
-29 -69 -117 0
-30 -70 -118 0
-31 -71 -119 0
-32 -72 -120 0
-29 -73 -121 0
-30 -74 -122 0
-31 -75 -123 0
-32 -76 -124 0
-29 -77 -125 0
-30 -78 -126 0
-31 -79 -127 0
-32 -80 -128 0
-29 -81 -129 0
-30 -82 -130 0
-31 -83 -131 0
-32 -84 -132 0
-29 -85 -133 0
-30 -86 -134 0
-31 -87 -135 0
-32 -88 -136 0
-29 -89 -137 0
-30 -90 -138 0
-31 -91 -139 0
-32 -92 -140 0
-29 -93 -141 0
-30 -94 -142 0
-31 -95 -143 0
-32 -96 -144 0
-29 -97 -145 0
-30 -98 -146 0
-31 -99 -147 0
-32 -100 -148 0
-29 -101 -149 0
-30 -102 -150 0
-31 -103 -151 0
-32 -104 -152 0
-29 -105 -153 0
-30 -106 -154 0
-31 -107 -155 0
-32 -108 -156 0
-29 -109 -157 0
-30 -110 -158 0
-31 -111 -159 0
-32 -112 -160 0
-29 -113 -161 0
-30 -114 -162 0
-31 -115 -163 0
-32 -116 -164 0
-29 -117 -165 0
-30 -118 -166 0
-31 -119 -167 0
-32 -120 -168 0
-29 -121 -169 0
-30 -122 -170 0
-31 -123 -171 0
-32 -124 -172 0
-29 -125 -173 0
-30 -126 -174 0
-31 -127 -175 0
-32 -128 -176 0
-29 -129 -177 0
-30 -130 -178 0
-31 -131 -179 0
-32 -132 -180 0
-29 -133 -181 0
-30 -134 -182 0
-31 -135 -183 0
-32 -136 -184 0
-29 -137 -185 0
-30 -138 -186 0
-31 -139 -187 0
-32 -140 -188 0
-29 -141 -189 0
-30 -142 -190 0
-31 -143 -191 0
-32 -144 -192 0
-29 -145 -193 0
-30 -146 -194 0
-31 -147 -195 0
-32 -148 -196 0
-29 -149 -197 0
-30 -150 -198 0
-31 -151 -199 0
-32 -152 -200 0
-29 -153 -201 0
-30 -154 -202 0
-31 -155 -203 0
-32 -156 -204 0
-29 -157 -205 0
-30 -158 -206 0
-31 -159 -207 0
-32 -160 -208 0
-29 -161 -209 0
-30 -162 -210 0
-31 -163 -211 0
-32 -164 -212 0
-29 -165 -213 0
-30 -166 -214 0
-31 -167 -215 0
-32 -168 -216 0
-29 -169 -217 0
-30 -170 -218 0
-31 -171 -219 0
-32 -172 -220 0
-29 -173 -221 0
-30 -174 -222 0
-31 -175 -223 0
-32 -176 -224 0
-29 -177 -225 0
-30 -178 -226 0
-31 -179 -227 0
-32 -180 -228 0
-29 -181 -229 0
-30 -182 -230 0
-31 -183 -231 0
-32 -184 -232 0
-29 -185 -233 0
-30 -186 -234 0
-31 -187 -235 0
-32 -188 -236 0
-29 -189 -237 0
-30 -190 -238 0
-31 -191 -239 0
-32 -192 -240 0
-29 -193 -241 0
-30 -194 -242 0
-31 -195 -243 0
-32 -196 -244 0
-29 -197 -245 0
-30 -198 -246 0
-31 -199 -247 0
-32 -200 -248 0
-29 -201 -249 0
-30 -202 -250 0
-31 -203 -251 0
-32 -204 -252 0
-29 -205 -253 0
-30 -206 -254 0
-31 -207 -255 0
-32 -208 -256 0
-29 -209 -257 0
-30 -210 -258 0
-31 -211 -259 0
-32 -212 -260 0
-29 -213 -261 0
-30 -214 -262 0
-31 -215 -263 0
-32 -216 -264 0
-29 -217 -265 0
-30 -218 -266 0
-31 -219 -267 0
-32 -220 -268 0
-29 -221 -269 0
-30 -222 -270 0
-31 -223 -271 0
-32 -224 -272 0
-29 -225 -273 0
-30 -226 -274 0
-31 -227 -275 0
-32 -228 -276 0
-29 -229 -277 0
-30 -230 -278 0
-31 -231 -279 0
-32 -232 -280 0
-29 -233 -281 0
-30 -234 -282 0
-31 -235 -283 0
-32 -236 -284 0
-29 -237 -285 0
-30 -238 -286 0
-31 -239 -287 0
-32 -240 -288 0
-29 -241 -289 0
-30 -242 -290 0
-31 -243 -291 0
-32 -244 -292 0
-29 -245 -293 0
-30 -246 -294 0
-31 -247 -295 0
-32 -248 -296 0
-29 -249 -297 0
-30 -250 -298 0
-31 -251 -299 0
-32 -252 -300 0
-29 -253 -301 0
-30 -254 -302 0
-31 -255 -303 0
-32 -256 -304 0
-29 -257 -305 0
-30 -258 -306 0
-31 -259 -307 0
-32 -260 -308 0
-29 -261 -309 0
-30 -262 -310 0
-31 -263 -311 0
-32 -264 -312 0
-29 -265 -313 0
-30 -266 -314 0
-31 -267 -315 0
-32 -268 -316 0
-29 -269 -317 0
-30 -270 -318 0
-31 -271 -319 0
-32 -272 -320 0
-29 -273 -321 0
-30 -274 -322 0
-31 -275 -323 0
-32 -276 -324 0
-29 -277 -325 0
-30 -278 -326 0
-31 -279 -327 0
-32 -280 -328 0
-29 -281 -329 0
-30 -282 -330 0
-31 -283 -331 0
-32 -284 -332 0
-29 -285 -333 0
-30 -286 -334 0
-31 -287 -335 0
-32 -288 -336 0
-29 -289 -337 0
-30 -290 -338 0
-31 -291 -339 0
-32 -292 -340 0
-29 -293 -341 0
-30 -294 -342 0
-31 -295 -343 0
-32 -296 -344 0
-29 -297 -345 0
-30 -298 -346 0
-31 -299 -347 0
-32 -300 -348 0
-29 -301 -349 0
-30 -302 -350 0
-31 -303 -351 0
-32 -304 -352 0
-29 -305 -353 0
-30 -306 -354 0
-31 -307 -355 0
-32 -308 -356 0
-29 -309 -357 0
-30 -310 -358 0
-31 -311 -359 0
-32 -312 -360 0
-29 -313 -361 0
-30 -314 -362 0
-31 -315 -363 0
-32 -316 -364 0
-29 -317 -365 0
-30 -318 -366 0
-31 -319 -367 0
-32 -320 -368 0
-29 -321 -369 0
-30 -322 -370 0
-31 -323 -371 0
-32 -324 -372 0
-29 -325 -373 0
-30 -326 -374 0
-31 -327 -375 0
-32 -328 -376 0
-29 -329 -377 0
-30 -330 -378 0
-31 -331 -379 0
-32 -332 -380 0
-29 -333 -381 0
-30 -334 -382 0
-31 -335 -383 0
-32 -336 -384 0
-29 -337 -385 0
-30 -338 -386 0
-31 -339 -387 0
-32 -340 -388 0
-29 -341 -389 0
-30 -342 -390 0
-31 -343 -391 0
-32 -344 -392 0
-29 -345 -393 0
-30 -346 -394 0
-31 -347 -395 0
-32 -348 -396 0
-29 -349 -397 0
-30 -350 -398 0
-31 -351 -399 0
-32 -352 -400 0
-29 -353 -401 0
-30 -354 -402 0
-31 -355 -403 0
-32 -356 -404 0
-29 -357 -405 0
-30 -358 -406 0
-31 -359 -407 0
-32 -360 -408 0
-29 -361 -409 0
-30 -362 -410 0
-31 -363 -411 0
-32 -364 -412 0
-29 -365 -413 0
-30 -366 -414 0
-31 -367 -415 0
-32 -368 -416 0
-29 -369 -417 0
-30 -370 -418 0
-31 -371 -419 0
-32 -372 -420 0
-29 -373 -421 0
-30 -374 -422 0
-31 -375 -423 0
-32 -376 -424 0
-29 -377 -425 0
-30 -378 -426 0
-31 -379 -427 0
-32 -380 -428 0
-29 -381 -429 0
-30 -382 -430 0
-31 -383 -431 0
-32 -384 -432 0
-29 -385 -433 0
-30 -386 -434 0
-31 -387 -435 0
-32 -388 -436 0
-29 -389 -437 0
-30 -390 -438 0
-31 -391 -439 0
-32 -392 -440 0
-29 -393 -441 0
-30 -394 -442 0
-31 -395 -443 0
-32 -396 -444 0
-29 -397 -445 0
-30 -398 -446 0
-31 -399 -447 0
-32 -400 -448 0
-29 -401 -449 0
-30 -402 -450 0
-31 -403 -451 0
-32 -404 -452 0
-29 -405 -453 0
-30 -406 -454 0
-31 -407 -455 0
-32 -408 -456 0
-29 -409 -457 0
-30 -410 -458 0
-31 -411 -459 0
-32 -412 -460 0
-29 -413 -461 0
-30 -414 -462 0
-31 -415 -463 0
-32 -416 -464 0
-29 -417 -465 0
-30 -418 -466 0
-31 -419 -467 0
-32 -420 -468 0
-29 -421 -469 0
-30 -422 -470 0
-31 -423 -471 0
-32 -424 -472 0
-29 -425 -473 0
-30 -426 -474 0
-31 -427 -475 0
-32 -428 -476 0
-29 -429 -477 0
-30 -430 -478 0
-31 -431 -479 0
-32 -432 -480 0
-29 -433 -481 0
-30 -434 -482 0
-31 -435 -483 0
-32 -436 -484 0
-29 -437 -485 0
-30 -438 -486 0
-31 -439 -487 0
-32 -440 -488 0
-29 -441 -489 0
-30 -442 -490 0
-31 -443 -491 0
-32 -444 -492 0
-29 -445 -493 0
-30 -446 -494 0
-31 -447 -495 0
-32 -448 -496 0
-29 -449 -497 0
-30 -450 -498 0
-31 -451 -499 0
-32 -452 -500 0
-29 -453 -501 0
-30 -454 -502 0
-31 -455 -503 0
-32 -456 -504 0
-29 -457 -505 0
-30 -458 -506 0
-31 -459 -507 0
-32 -460 -508 0
-29 -461 -509 0
-30 -462 -510 0
-31 -463 -511 0
-32 -464 -512 0
-29 -465 -513 0
-30 -466 -514 0
-31 -467 -515 0
-32 -468 -516 0
-29 -469 -517 0
-30 -470 -518 0
-31 -471 -519 0
-32 -472 -520 0
-29 -473 -521 0
-30 -474 -522 0
-31 -475 -523 0
-32 -476 -524 0
-29 -477 -525 0
-30 -478 -526 0
-31 -479 -527 0
-32 -480 -528 0
-29 -481 -529 0
-30 -482 -530 0
-31 -483 -531 0
-32 -484 -532 0
-29 -485 -533 0
-30 -486 -534 0
-31 -487 -535 0
-32 -488 -536 0
-29 -489 -537 0
-30 -490 -538 0
-31 -491 -539 0
-32 -492 -540 0
-29 -493 -541 0
-30 -494 -542 0
-31 -495 -543 0
-32 -496 -544 0
-29 -497 -545 0
-30 -498 -546 0
-31 -499 -547 0
-32 -500 -548 0
-29 -501 -549 0
-30 -502 -550 0
-31 -503 -551 0
-32 -504 -552 0
-29 -505 -553 0
-30 -506 -554 0
-31 -507 -555 0
-32 -508 -556 0
-29 -509 -557 0
-30 -510 -558 0
-31 -511 -559 0
-32 -512 -560 0
-29 -513 -561 0
-30 -514 -562 0
-31 -515 -563 0
-32 -516 -564 0
-29 -517 -565 0
-30 -518 -566 0
-31 -519 -567 0
-32 -520 -568 0
-29 -521 -569 0
-30 -522 -570 0
-31 -523 -571 0
-32 -524 -572 0
-29 -525 -573 0
-30 -526 -574 0
-31 -527 -575 0
-32 -528 -576 0
-29 -529 -577 0
-30 -530 -578 0
-31 -531 -579 0
-32 -532 -580 0
-29 -533 -581 0
-30 -534 -582 0
-31 -535 -583 0
-32 -536 -584 0
-29 -537 -585 0
-30 -538 -586 0
-31 -539 -587 0
-32 -540 -588 0
-29 -541 -589 0
-30 -542 -590 0
-31 -543 -591 0
-32 -544 -592 0
-29 -545 -593 0
-30 -546 -594 0
-31 -547 -595 0
-32 -548 -596 0
-29 -549 -597 0
-30 -550 -598 0
-31 -551 -599 0
-32 -552 -600 0
-29 -553 -601 0
-30 -554 -602 0
-31 -555 -603 0
-32 -556 -604 0
-29 -557 -605 0
-30 -558 -606 0
-31 -559 -607 0
-32 -560 -608 0
-29 -561 -609 0
-30 -562 -610 0
-31 -563 -611 0
-32 -564 -612 0
-29 -565 -613 0
-30 -566 -614 0
-31 -567 -615 0
-32 -568 -616 0
-29 -569 -617 0
-30 -570 -618 0
-31 -571 -619 0
-32 -572 -620 0
-29 -573 -621 0
-30 -574 -622 0
-31 -575 -623 0
-32 -576 -624 0
-29 -577 -625 0
-30 -578 -626 0
-31 -579 -627 0
-32 -580 -628 0
-29 -581 -629 0
-30 -582 -630 0
-31 -583 -631 0
-32 -584 -632 0
-29 -585 -633 0
-30 -586 -634 0
-31 -587 -635 0
-32 -588 -636 0
-29 -589 -637 0
-30 -590 -638 0
-31 -591 -639 0
-32 -592 -640 0
-29 -593 -641 0
-30 -594 -642 0
-31 -595 -643 0
-32 -596 -644 0
-29 -597 -645 0
-30 -598 -646 0
-31 -599 -647 0
-32 -600 -648 0
-29 -601 -649 0
-30 -602 -650 0
-31 -603 -651 0
-32 -604 -652 0
-29 -605 -653 0
-30 -606 -654 0
-31 -607 -655 0
-32 -608 -656 0
-29 -609 -657 0
-30 -610 -658 0
-31 -611 -659 0
-32 -612 -660 0
-29 -613 -661 0
-30 -614 -662 0
-31 -615 -663 0
-32 -616 -664 0
-29 -617 -665 0
-30 -618 -666 0
-31 -619 -667 0
-32 -620 -668 0
-29 -621 -669 0
-30 -622 -670 0
-31 -623 -671 0
-32 -624 -672 0
-29 -625 -673 0
-30 -626 -674 0
-31 -627 -675 0
-32 -628 -676 0
-29 -629 -677 0
-30 -630 -678 0
-31 -631 -679 0
-32 -632 -680 0
-29 -633 -681 0
-30 -634 -682 0
-31 -635 -683 0
-32 -636 -684 0
-29 -637 -685 0
-30 -638 -686 0
-31 -639 -687 0
-32 -640 -688 0
-29 -641 -689 0
-30 -642 -690 0
-31 -643 -691 0
-32 -644 -692 0
-29 -645 -693 0
-30 -646 -694 0
-31 -647 -695 0
-32 -648 -696 0
-29 -649 -697 0
-30 -650 -698 0
-31 -651 -699 0
-32 -652 -700 0
-29 -653 -701 0
-30 -654 -702 0
-31 -655 -703 0
-32 -656 -704 0
-29 -657 -705 0
-30 -658 -706 0
-31 -659 -707 0
-32 -660 -708 0
-29 -661 -709 0
-30 -662 -710 0
-31 -663 -711 0
-32 -664 -712 0
-29 -665 -713 0
-30 -666 -714 0
-31 -667 -715 0
-32 -668 -716 0
-29 -669 -717 0
-30 -670 -718 0
-31 -671 -719 0
-32 -672 -720 0
-29 -673 -721 0
-30 -674 -722 0
-31 -675 -723 0
-32 -676 -724 0
-29 -677 -725 0
-30 -678 -726 0
-31 -679 -727 0
-32 -680 -728 0
-29 -681 -729 0
-30 -682 -730 0
-31 -683 -731 0
-32 -684 -732 0
-29 -685 -733 0
-30 -686 -734 0
-31 -687 -735 0
-32 -688 -736 0
-29 -689 -737 0
-30 -690 -738 0
-31 -691 -739 0
-32 -692 -740 0
-29 -693 -741 0
-30 -694 -742 0
-31 -695 -743 0
-32 -696 -744 0
-29 -697 -745 0
-30 -698 -746 0
-31 -699 -747 0
-32 -700 -748 0
-29 -701 -749 0
-30 -702 -750 0
-31 -703 -751 0
-32 -704 -752 0
-29 -705 -753 0
-30 -706 -754 0
-31 -707 -755 0
-32 -708 -756 0
-29 -709 -757 0
-30 -710 -758 0
-31 -711 -759 0
-32 -712 -760 0
-29 -713 -761 0
-30 -714 -762 0
-31 -715 -763 0
-32 -716 -764 0
-29 -717 -765 0
-30 -718 -766 0
-31 -719 -767 0
-32 -720 -768 0
-29 -721 -769 0
-30 -722 -770 0
-31 -723 -771 0
-32 -724 -772 0
-29 -725 -773 0
-30 -726 -774 0
-31 -727 -775 0
-32 -728 -776 0
-29 -729 -777 0
-30 -730 -778 0
-31 -731 -779 0
-32 -732 -780 0
-29 -733 -781 0
-30 -734 -782 0
-31 -735 -783 0
-32 -736 -784 0
-29 -737 -785 0
-30 -738 -786 0
-31 -739 -787 0
-32 -740 -788 0
-29 -741 -789 0
-30 -742 -790 0
-31 -743 -791 0
-32 -744 -792 0
-29 -745 -793 0
-30 -746 -794 0
-31 -747 -795 0
-32 -748 -796 0
-29 -749 -797 0
-30 -750 -798 0
-31 -751 -799 0
-32 -752 -800 0
-29 -753 -801 0
-30 -754 -802 0
-31 -755 -803 0
-32 -756 -804 0
-29 -757 -805 0
-30 -758 -806 0
-31 -759 -807 0
-32 -760 -808 0
-29 -761 -809 0
-30 -762 -810 0
-31 -763 -811 0
-32 -764 -812 0
-29 -765 -813 0
-30 -766 -814 0
-31 -767 -815 0
-32 -768 -816 0
-29 -769 -817 0
-30 -770 -818 0
-31 -771 -819 0
-32 -772 -820 0
-29 -773 -821 0
-30 -774 -822 0
-31 -775 -823 0
-32 -776 -824 0
-29 -777 -825 0
-30 -778 -826 0
-31 -779 -827 0
-32 -780 -828 0
-29 -781 -829 0
-30 -782 -830 0
-31 -783 -831 0
-32 -784 -832 0
-29 -785 -833 0
-30 -786 -834 0
-31 -787 -835 0
-32 -788 -836 0
-29 -789 -837 0
-30 -790 -838 0
-31 -791 -839 0
-32 -792 -840 0
-29 -793 -841 0
-30 -794 -842 0
-31 -795 -843 0
-32 -796 -844 0
-29 -797 -845 0
-30 -798 -846 0
-31 -799 -847 0
-32 -800 -848 0
-29 -801 -849 0
-30 -802 -850 0
-31 -803 -851 0
-32 -804 -852 0
-29 -805 -853 0
-30 -806 -854 0
-31 -807 -855 0
-32 -808 -856 0
-29 -809 -857 0
-30 -810 -858 0
-31 -811 -859 0
-32 -812 -860 0
-29 -813 -861 0
-30 -814 -862 0
-31 -815 -863 0
-32 -816 -864 0
-29 -817 -865 0
-30 -818 -866 0
-31 -819 -867 0
-32 -820 -868 0
-29 -821 -869 0
-30 -822 -870 0
-31 -823 -871 0
-32 -824 -872 0
-29 -825 -873 0
-30 -826 -874 0
-31 -827 -875 0
-32 -828 -876 0
-29 -829 -877 0
-30 -830 -878 0
-31 -831 -879 0
-32 -832 -880 0
-29 -833 -881 0
-30 -834 -882 0
-31 -835 -883 0
-32 -836 -884 0
-29 -837 -885 0
-30 -838 -886 0
-31 -839 -887 0
-32 -840 -888 0
-29 -841 -889 0
-30 -842 -890 0
-31 -843 -891 0
-32 -844 -892 0
-29 -845 -893 0
-30 -846 -894 0
-31 -847 -895 0
-32 -848 -896 0
-29 -849 -897 0
-30 -850 -898 0
-31 -851 -899 0
-32 -852 -900 0
-29 -853 -901 0
-30 -854 -902 0
-31 -855 -903 0
-32 -856 -904 0
-1 -37 -61 0
-2 -38 -62 0
-3 -39 -63 0
-4 -40 -64 0
-5 -37 -65 0
-6 -38 -66 0
-7 -39 -67 0
-8 -40 -68 0
-9 -37 -69 0
-10 -38 -70 0
-11 -39 -71 0
-12 -40 -72 0
-13 -37 -73 0
-14 -38 -74 0
-15 -39 -75 0
-16 -40 -76 0
-17 -37 -77 0
-18 -38 -78 0
-19 -39 -79 0
-20 -40 -80 0
-21 -37 -81 0
-22 -38 -82 0
-23 -39 -83 0
-24 -40 -84 0
-25 -37 -85 0
-26 -38 -86 0
-27 -39 -87 0
-28 -40 -88 0
-29 -37 -89 0
-30 -38 -90 0
-31 -39 -91 0
-32 -40 -92 0
-33 -37 -93 0
-34 -38 -94 0
-35 -39 -95 0
-36 -40 -96 0
-37 -97 0
-38 -98 0
-39 -99 0
-40 -100 0
-37 -41 -101 0
-38 -42 -102 0
-39 -43 -103 0
-40 -44 -104 0
-37 -45 -105 0
-38 -46 -106 0
-39 -47 -107 0
-40 -48 -108 0
-37 -49 -109 0
-38 -50 -110 0
-39 -51 -111 0
-40 -52 -112 0
-37 -53 -113 0
-38 -54 -114 0
-39 -55 -115 0
-40 -56 -116 0
-37 -57 -117 0
-38 -58 -118 0
-39 -59 -119 0
-40 -60 -120 0
-37 -61 -121 0
-38 -62 -122 0
-39 -63 -123 0
-40 -64 -124 0
-37 -65 -125 0
-38 -66 -126 0
-39 -67 -127 0
-40 -68 -128 0
-37 -69 -129 0
-38 -70 -130 0
-39 -71 -131 0
-40 -72 -132 0
-37 -73 -133 0
-38 -74 -134 0
-39 -75 -135 0
-40 -76 -136 0
-37 -77 -137 0
-38 -78 -138 0
-39 -79 -139 0
-40 -80 -140 0
-37 -81 -141 0
-38 -82 -142 0
-39 -83 -143 0
-40 -84 -144 0
-37 -85 -145 0
-38 -86 -146 0
-39 -87 -147 0
-40 -88 -148 0
-37 -89 -149 0
-38 -90 -150 0
-39 -91 -151 0
-40 -92 -152 0
-37 -93 -153 0
-38 -94 -154 0
-39 -95 -155 0
-40 -96 -156 0
-37 -97 -157 0
-38 -98 -158 0
-39 -99 -159 0
-40 -100 -160 0
-37 -101 -161 0
-38 -102 -162 0
-39 -103 -163 0
-40 -104 -164 0
-37 -105 -165 0
-38 -106 -166 0
-39 -107 -167 0
-40 -108 -168 0
-37 -109 -169 0
-38 -110 -170 0
-39 -111 -171 0
-40 -112 -172 0
-37 -113 -173 0
-38 -114 -174 0
-39 -115 -175 0
-40 -116 -176 0
-37 -117 -177 0
-38 -118 -178 0
-39 -119 -179 0
-40 -120 -180 0
-37 -121 -181 0
-38 -122 -182 0
-39 -123 -183 0
-40 -124 -184 0
-37 -125 -185 0
-38 -126 -186 0
-39 -127 -187 0
-40 -128 -188 0
-37 -129 -189 0
-38 -130 -190 0
-39 -131 -191 0
-40 -132 -192 0
-37 -133 -193 0
-38 -134 -194 0
-39 -135 -195 0
-40 -136 -196 0
-37 -137 -197 0
-38 -138 -198 0
-39 -139 -199 0
-40 -140 -200 0
-37 -141 -201 0
-38 -142 -202 0
-39 -143 -203 0
-40 -144 -204 0
-37 -145 -205 0
-38 -146 -206 0
-39 -147 -207 0
-40 -148 -208 0
-37 -149 -209 0
-38 -150 -210 0
-39 -151 -211 0
-40 -152 -212 0
-37 -153 -213 0
-38 -154 -214 0
-39 -155 -215 0
-40 -156 -216 0
-37 -157 -217 0
-38 -158 -218 0
-39 -159 -219 0
-40 -160 -220 0
-37 -161 -221 0
-38 -162 -222 0
-39 -163 -223 0
-40 -164 -224 0
-37 -165 -225 0
-38 -166 -226 0
-39 -167 -227 0
-40 -168 -228 0
-37 -169 -229 0
-38 -170 -230 0
-39 -171 -231 0
-40 -172 -232 0
-37 -173 -233 0
-38 -174 -234 0
-39 -175 -235 0
-40 -176 -236 0
-37 -177 -237 0
-38 -178 -238 0
-39 -179 -239 0
-40 -180 -240 0
-37 -181 -241 0
-38 -182 -242 0
-39 -183 -243 0
-40 -184 -244 0
-37 -185 -245 0
-38 -186 -246 0
-39 -187 -247 0
-40 -188 -248 0
-37 -189 -249 0
-38 -190 -250 0
-39 -191 -251 0
-40 -192 -252 0
-37 -193 -253 0
-38 -194 -254 0
-39 -195 -255 0
-40 -196 -256 0
-37 -197 -257 0
-38 -198 -258 0
-39 -199 -259 0
-40 -200 -260 0
-37 -201 -261 0
-38 -202 -262 0
-39 -203 -263 0
-40 -204 -264 0
-37 -205 -265 0
-38 -206 -266 0
-39 -207 -267 0
-40 -208 -268 0
-37 -209 -269 0
-38 -210 -270 0
-39 -211 -271 0
-40 -212 -272 0
-37 -213 -273 0
-38 -214 -274 0
-39 -215 -275 0
-40 -216 -276 0
-37 -217 -277 0
-38 -218 -278 0
-39 -219 -279 0
-40 -220 -280 0
-37 -221 -281 0
-38 -222 -282 0
-39 -223 -283 0
-40 -224 -284 0
-37 -225 -285 0
-38 -226 -286 0
-39 -227 -287 0
-40 -228 -288 0
-37 -229 -289 0
-38 -230 -290 0
-39 -231 -291 0
-40 -232 -292 0
-37 -233 -293 0
-38 -234 -294 0
-39 -235 -295 0
-40 -236 -296 0
-37 -237 -297 0
-38 -238 -298 0
-39 -239 -299 0
-40 -240 -300 0
-37 -241 -301 0
-38 -242 -302 0
-39 -243 -303 0
-40 -244 -304 0
-37 -245 -305 0
-38 -246 -306 0
-39 -247 -307 0
-40 -248 -308 0
-37 -249 -309 0
-38 -250 -310 0
-39 -251 -311 0
-40 -252 -312 0
-37 -253 -313 0
-38 -254 -314 0
-39 -255 -315 0
-40 -256 -316 0
-37 -257 -317 0
-38 -258 -318 0
-39 -259 -319 0
-40 -260 -320 0
-37 -261 -321 0
-38 -262 -322 0
-39 -263 -323 0
-40 -264 -324 0
-37 -265 -325 0
-38 -266 -326 0
-39 -267 -327 0
-40 -268 -328 0
-37 -269 -329 0
-38 -270 -330 0
-39 -271 -331 0
-40 -272 -332 0
-37 -273 -333 0
-38 -274 -334 0
-39 -275 -335 0
-40 -276 -336 0
-37 -277 -337 0
-38 -278 -338 0
-39 -279 -339 0
-40 -280 -340 0
-37 -281 -341 0
-38 -282 -342 0
-39 -283 -343 0
-40 -284 -344 0
-37 -285 -345 0
-38 -286 -346 0
-39 -287 -347 0
-40 -288 -348 0
-37 -289 -349 0
-38 -290 -350 0
-39 -291 -351 0
-40 -292 -352 0
-37 -293 -353 0
-38 -294 -354 0
-39 -295 -355 0
-40 -296 -356 0
-37 -297 -357 0
-38 -298 -358 0
-39 -299 -359 0
-40 -300 -360 0
-37 -301 -361 0
-38 -302 -362 0
-39 -303 -363 0
-40 -304 -364 0
-37 -305 -365 0
-38 -306 -366 0
-39 -307 -367 0
-40 -308 -368 0
-37 -309 -369 0
-38 -310 -370 0
-39 -311 -371 0
-40 -312 -372 0
-37 -313 -373 0
-38 -314 -374 0
-39 -315 -375 0
-40 -316 -376 0
-37 -317 -377 0
-38 -318 -378 0
-39 -319 -379 0
-40 -320 -380 0
-37 -321 -381 0
-38 -322 -382 0
-39 -323 -383 0
-40 -324 -384 0
-37 -325 -385 0
-38 -326 -386 0
-39 -327 -387 0
-40 -328 -388 0
-37 -329 -389 0
-38 -330 -390 0
-39 -331 -391 0
-40 -332 -392 0
-37 -333 -393 0
-38 -334 -394 0
-39 -335 -395 0
-40 -336 -396 0
-37 -337 -397 0
-38 -338 -398 0
-39 -339 -399 0
-40 -340 -400 0
-37 -341 -401 0
-38 -342 -402 0
-39 -343 -403 0
-40 -344 -404 0
-37 -345 -405 0
-38 -346 -406 0
-39 -347 -407 0
-40 -348 -408 0
-37 -349 -409 0
-38 -350 -410 0
-39 -351 -411 0
-40 -352 -412 0
-37 -353 -413 0
-38 -354 -414 0
-39 -355 -415 0
-40 -356 -416 0
-37 -357 -417 0
-38 -358 -418 0
-39 -359 -419 0
-40 -360 -420 0
-37 -361 -421 0
-38 -362 -422 0
-39 -363 -423 0
-40 -364 -424 0
-37 -365 -425 0
-38 -366 -426 0
-39 -367 -427 0
-40 -368 -428 0
-37 -369 -429 0
-38 -370 -430 0
-39 -371 -431 0
-40 -372 -432 0
-37 -373 -433 0
-38 -374 -434 0
-39 -375 -435 0
-40 -376 -436 0
-37 -377 -437 0
-38 -378 -438 0
-39 -379 -439 0
-40 -380 -440 0
-37 -381 -441 0
-38 -382 -442 0
-39 -383 -443 0
-40 -384 -444 0
-37 -385 -445 0
-38 -386 -446 0
-39 -387 -447 0
-40 -388 -448 0
-37 -389 -449 0
-38 -390 -450 0
-39 -391 -451 0
-40 -392 -452 0
-37 -393 -453 0
-38 -394 -454 0
-39 -395 -455 0
-40 -396 -456 0
-37 -397 -457 0
-38 -398 -458 0
-39 -399 -459 0
-40 -400 -460 0
-37 -401 -461 0
-38 -402 -462 0
-39 -403 -463 0
-40 -404 -464 0
-37 -405 -465 0
-38 -406 -466 0
-39 -407 -467 0
-40 -408 -468 0
-37 -409 -469 0
-38 -410 -470 0
-39 -411 -471 0
-40 -412 -472 0
-37 -413 -473 0
-38 -414 -474 0
-39 -415 -475 0
-40 -416 -476 0
-37 -417 -477 0
-38 -418 -478 0
-39 -419 -479 0
-40 -420 -480 0
-37 -421 -481 0
-38 -422 -482 0
-39 -423 -483 0
-40 -424 -484 0
-37 -425 -485 0
-38 -426 -486 0
-39 -427 -487 0
-40 -428 -488 0
-37 -429 -489 0
-38 -430 -490 0
-39 -431 -491 0
-40 -432 -492 0
-37 -433 -493 0
-38 -434 -494 0
-39 -435 -495 0
-40 -436 -496 0
-37 -437 -497 0
-38 -438 -498 0
-39 -439 -499 0
-40 -440 -500 0
-37 -441 -501 0
-38 -442 -502 0
-39 -443 -503 0
-40 -444 -504 0
-37 -445 -505 0
-38 -446 -506 0
-39 -447 -507 0
-40 -448 -508 0
-37 -449 -509 0
-38 -450 -510 0
-39 -451 -511 0
-40 -452 -512 0
-37 -453 -513 0
-38 -454 -514 0
-39 -455 -515 0
-40 -456 -516 0
-37 -457 -517 0
-38 -458 -518 0
-39 -459 -519 0
-40 -460 -520 0
-37 -461 -521 0
-38 -462 -522 0
-39 -463 -523 0
-40 -464 -524 0
-37 -465 -525 0
-38 -466 -526 0
-39 -467 -527 0
-40 -468 -528 0
-37 -469 -529 0
-38 -470 -530 0
-39 -471 -531 0
-40 -472 -532 0
-37 -473 -533 0
-38 -474 -534 0
-39 -475 -535 0
-40 -476 -536 0
-37 -477 -537 0
-38 -478 -538 0
-39 -479 -539 0
-40 -480 -540 0
-37 -481 -541 0
-38 -482 -542 0
-39 -483 -543 0
-40 -484 -544 0
-37 -485 -545 0
-38 -486 -546 0
-39 -487 -547 0
-40 -488 -548 0
-37 -489 -549 0
-38 -490 -550 0
-39 -491 -551 0
-40 -492 -552 0
-37 -493 -553 0
-38 -494 -554 0
-39 -495 -555 0
-40 -496 -556 0
-37 -497 -557 0
-38 -498 -558 0
-39 -499 -559 0
-40 -500 -560 0
-37 -501 -561 0
-38 -502 -562 0
-39 -503 -563 0
-40 -504 -564 0
-37 -505 -565 0
-38 -506 -566 0
-39 -507 -567 0
-40 -508 -568 0
-37 -509 -569 0
-38 -510 -570 0
-39 -511 -571 0
-40 -512 -572 0
-37 -513 -573 0
-38 -514 -574 0
-39 -515 -575 0
-40 -516 -576 0
-37 -517 -577 0
-38 -518 -578 0
-39 -519 -579 0
-40 -520 -580 0
-37 -521 -581 0
-38 -522 -582 0
-39 -523 -583 0
-40 -524 -584 0
-37 -525 -585 0
-38 -526 -586 0
-39 -527 -587 0
-40 -528 -588 0
-37 -529 -589 0
-38 -530 -590 0
-39 -531 -591 0
-40 -532 -592 0
-37 -533 -593 0
-38 -534 -594 0
-39 -535 -595 0
-40 -536 -596 0
-37 -537 -597 0
-38 -538 -598 0
-39 -539 -599 0
-40 -540 -600 0
-37 -541 -601 0
-38 -542 -602 0
-39 -543 -603 0
-40 -544 -604 0
-37 -545 -605 0
-38 -546 -606 0
-39 -547 -607 0
-40 -548 -608 0
-37 -549 -609 0
-38 -550 -610 0
-39 -551 -611 0
-40 -552 -612 0
-37 -553 -613 0
-38 -554 -614 0
-39 -555 -615 0
-40 -556 -616 0
-37 -557 -617 0
-38 -558 -618 0
-39 -559 -619 0
-40 -560 -620 0
-37 -561 -621 0
-38 -562 -622 0
-39 -563 -623 0
-40 -564 -624 0
-37 -565 -625 0
-38 -566 -626 0
-39 -567 -627 0
-40 -568 -628 0
-37 -569 -629 0
-38 -570 -630 0
-39 -571 -631 0
-40 -572 -632 0
-37 -573 -633 0
-38 -574 -634 0
-39 -575 -635 0
-40 -576 -636 0
-37 -577 -637 0
-38 -578 -638 0
-39 -579 -639 0
-40 -580 -640 0
-37 -581 -641 0
-38 -582 -642 0
-39 -583 -643 0
-40 -584 -644 0
-37 -585 -645 0
-38 -586 -646 0
-39 -587 -647 0
-40 -588 -648 0
-37 -589 -649 0
-38 -590 -650 0
-39 -591 -651 0
-40 -592 -652 0
-37 -593 -653 0
-38 -594 -654 0
-39 -595 -655 0
-40 -596 -656 0
-37 -597 -657 0
-38 -598 -658 0
-39 -599 -659 0
-40 -600 -660 0
-37 -601 -661 0
-38 -602 -662 0
-39 -603 -663 0
-40 -604 -664 0
-37 -605 -665 0
-38 -606 -666 0
-39 -607 -667 0
-40 -608 -668 0
-37 -609 -669 0
-38 -610 -670 0
-39 -611 -671 0
-40 -612 -672 0
-37 -613 -673 0
-38 -614 -674 0
-39 -615 -675 0
-40 -616 -676 0
-37 -617 -677 0
-38 -618 -678 0
-39 -619 -679 0
-40 -620 -680 0
-37 -621 -681 0
-38 -622 -682 0
-39 -623 -683 0
-40 -624 -684 0
-37 -625 -685 0
-38 -626 -686 0
-39 -627 -687 0
-40 -628 -688 0
-37 -629 -689 0
-38 -630 -690 0
-39 -631 -691 0
-40 -632 -692 0
-37 -633 -693 0
-38 -634 -694 0
-39 -635 -695 0
-40 -636 -696 0
-37 -637 -697 0
-38 -638 -698 0
-39 -639 -699 0
-40 -640 -700 0
-37 -641 -701 0
-38 -642 -702 0
-39 -643 -703 0
-40 -644 -704 0
-37 -645 -705 0
-38 -646 -706 0
-39 -647 -707 0
-40 -648 -708 0
-37 -649 -709 0
-38 -650 -710 0
-39 -651 -711 0
-40 -652 -712 0
-37 -653 -713 0
-38 -654 -714 0
-39 -655 -715 0
-40 -656 -716 0
-37 -657 -717 0
-38 -658 -718 0
-39 -659 -719 0
-40 -660 -720 0
-37 -661 -721 0
-38 -662 -722 0
-39 -663 -723 0
-40 -664 -724 0
-37 -665 -725 0
-38 -666 -726 0
-39 -667 -727 0
-40 -668 -728 0
-37 -669 -729 0
-38 -670 -730 0
-39 -671 -731 0
-40 -672 -732 0
-37 -673 -733 0
-38 -674 -734 0
-39 -675 -735 0
-40 -676 -736 0
-37 -677 -737 0
-38 -678 -738 0
-39 -679 -739 0
-40 -680 -740 0
-37 -681 -741 0
-38 -682 -742 0
-39 -683 -743 0
-40 -684 -744 0
-37 -685 -745 0
-38 -686 -746 0
-39 -687 -747 0
-40 -688 -748 0
-37 -689 -749 0
-38 -690 -750 0
-39 -691 -751 0
-40 -692 -752 0
-37 -693 -753 0
-38 -694 -754 0
-39 -695 -755 0
-40 -696 -756 0
-37 -697 -757 0
-38 -698 -758 0
-39 -699 -759 0
-40 -700 -760 0
-37 -701 -761 0
-38 -702 -762 0
-39 -703 -763 0
-40 -704 -764 0
-37 -705 -765 0
-38 -706 -766 0
-39 -707 -767 0
-40 -708 -768 0
-37 -709 -769 0
-38 -710 -770 0
-39 -711 -771 0
-40 -712 -772 0
-37 -713 -773 0
-38 -714 -774 0
-39 -715 -775 0
-40 -716 -776 0
-37 -717 -777 0
-38 -718 -778 0
-39 -719 -779 0
-40 -720 -780 0
-37 -721 -781 0
-38 -722 -782 0
-39 -723 -783 0
-40 -724 -784 0
-37 -725 -785 0
-38 -726 -786 0
-39 -727 -787 0
-40 -728 -788 0
-37 -729 -789 0
-38 -730 -790 0
-39 -731 -791 0
-40 -732 -792 0
-37 -733 -793 0
-38 -734 -794 0
-39 -735 -795 0
-40 -736 -796 0
-37 -737 -797 0
-38 -738 -798 0
-39 -739 -799 0
-40 -740 -800 0
-37 -741 -801 0
-38 -742 -802 0
-39 -743 -803 0
-40 -744 -804 0
-37 -745 -805 0
-38 -746 -806 0
-39 -747 -807 0
-40 -748 -808 0
-37 -749 -809 0
-38 -750 -810 0
-39 -751 -811 0
-40 -752 -812 0
-37 -753 -813 0
-38 -754 -814 0
-39 -755 -815 0
-40 -756 -816 0
-37 -757 -817 0
-38 -758 -818 0
-39 -759 -819 0
-40 -760 -820 0
-37 -761 -821 0
-38 -762 -822 0
-39 -763 -823 0
-40 -764 -824 0
-37 -765 -825 0
-38 -766 -826 0
-39 -767 -827 0
-40 -768 -828 0
-37 -769 -829 0
-38 -770 -830 0
-39 -771 -831 0
-40 -772 -832 0
-37 -773 -833 0
-38 -774 -834 0
-39 -775 -835 0
-40 -776 -836 0
-37 -777 -837 0
-38 -778 -838 0
-39 -779 -839 0
-40 -780 -840 0
-37 -781 -841 0
-38 -782 -842 0
-39 -783 -843 0
-40 -784 -844 0
-37 -785 -845 0
-38 -786 -846 0
-39 -787 -847 0
-40 -788 -848 0
-37 -789 -849 0
-38 -790 -850 0
-39 -791 -851 0
-40 -792 -852 0
-37 -793 -853 0
-38 -794 -854 0
-39 -795 -855 0
-40 -796 -856 0
-37 -797 -857 0
-38 -798 -858 0
-39 -799 -859 0
-40 -800 -860 0
-37 -801 -861 0
-38 -802 -862 0
-39 -803 -863 0
-40 -804 -864 0
-37 -805 -865 0
-38 -806 -866 0
-39 -807 -867 0
-40 -808 -868 0
-37 -809 -869 0
-38 -810 -870 0
-39 -811 -871 0
-40 -812 -872 0
-37 -813 -873 0
-38 -814 -874 0
-39 -815 -875 0
-40 -816 -876 0
-37 -817 -877 0
-38 -818 -878 0
-39 -819 -879 0
-40 -820 -880 0
-37 -821 -881 0
-38 -822 -882 0
-39 -823 -883 0
-40 -824 -884 0
-37 -825 -885 0
-38 -826 -886 0
-39 -827 -887 0
-40 -828 -888 0
-37 -829 -889 0
-38 -830 -890 0
-39 -831 -891 0
-40 -832 -892 0
-37 -833 -893 0
-38 -834 -894 0
-39 -835 -895 0
-40 -836 -896 0
-37 -837 -897 0
-38 -838 -898 0
-39 -839 -899 0
-40 -840 -900 0
-37 -841 -901 0
-38 -842 -902 0
-39 -843 -903 0
-40 -844 -904 0
-1 -45 -73 0
-2 -46 -74 0
-3 -47 -75 0
-4 -48 -76 0
-5 -45 -77 0
-6 -46 -78 0
-7 -47 -79 0
-8 -48 -80 0
-9 -45 -81 0
-10 -46 -82 0
-11 -47 -83 0
-12 -48 -84 0
-13 -45 -85 0
-14 -46 -86 0
-15 -47 -87 0
-16 -48 -88 0
-17 -45 -89 0
-18 -46 -90 0
-19 -47 -91 0
-20 -48 -92 0
-21 -45 -93 0
-22 -46 -94 0
-23 -47 -95 0
-24 -48 -96 0
-25 -45 -97 0
-26 -46 -98 0
-27 -47 -99 0
-28 -48 -100 0
-29 -45 -101 0
-30 -46 -102 0
-31 -47 -103 0
-32 -48 -104 0
-33 -45 -105 0
-34 -46 -106 0
-35 -47 -107 0
-36 -48 -108 0
-37 -45 -109 0
-38 -46 -110 0
-39 -47 -111 0
-40 -48 -112 0
-41 -45 -113 0
-42 -46 -114 0
-43 -47 -115 0
-44 -48 -116 0
-45 -117 0
-46 -118 0
-47 -119 0
-48 -120 0
-45 -49 -121 0
-46 -50 -122 0
-47 -51 -123 0
-48 -52 -124 0
-45 -53 -125 0
-46 -54 -126 0
-47 -55 -127 0
-48 -56 -128 0
-45 -57 -129 0
-46 -58 -130 0
-47 -59 -131 0
-48 -60 -132 0
-45 -61 -133 0
-46 -62 -134 0
-47 -63 -135 0
-48 -64 -136 0
-45 -65 -137 0
-46 -66 -138 0
-47 -67 -139 0
-48 -68 -140 0
-45 -69 -141 0
-46 -70 -142 0
-47 -71 -143 0
-48 -72 -144 0
-45 -73 -145 0
-46 -74 -146 0
-47 -75 -147 0
-48 -76 -148 0
-45 -77 -149 0
-46 -78 -150 0
-47 -79 -151 0
-48 -80 -152 0
-45 -81 -153 0
-46 -82 -154 0
-47 -83 -155 0
-48 -84 -156 0
-45 -85 -157 0
-46 -86 -158 0
-47 -87 -159 0
-48 -88 -160 0
-45 -89 -161 0
-46 -90 -162 0
-47 -91 -163 0
-48 -92 -164 0
-45 -93 -165 0
-46 -94 -166 0
-47 -95 -167 0
-48 -96 -168 0
-45 -97 -169 0
-46 -98 -170 0
-47 -99 -171 0
-48 -100 -172 0
-45 -101 -173 0
-46 -102 -174 0
-47 -103 -175 0
-48 -104 -176 0
-45 -105 -177 0
-46 -106 -178 0
-47 -107 -179 0
-48 -108 -180 0
-45 -109 -181 0
-46 -110 -182 0
-47 -111 -183 0
-48 -112 -184 0
-45 -113 -185 0
-46 -114 -186 0
-47 -115 -187 0
-48 -116 -188 0
-45 -117 -189 0
-46 -118 -190 0
-47 -119 -191 0
-48 -120 -192 0
-45 -121 -193 0
-46 -122 -194 0
-47 -123 -195 0
-48 -124 -196 0
-45 -125 -197 0
-46 -126 -198 0
-47 -127 -199 0
-48 -128 -200 0
-45 -129 -201 0
-46 -130 -202 0
-47 -131 -203 0
-48 -132 -204 0
-45 -133 -205 0
-46 -134 -206 0
-47 -135 -207 0
-48 -136 -208 0
-45 -137 -209 0
-46 -138 -210 0
-47 -139 -211 0
-48 -140 -212 0
-45 -141 -213 0
-46 -142 -214 0
-47 -143 -215 0
-48 -144 -216 0
-45 -145 -217 0
-46 -146 -218 0
-47 -147 -219 0
-48 -148 -220 0
-45 -149 -221 0
-46 -150 -222 0
-47 -151 -223 0
-48 -152 -224 0
-45 -153 -225 0
-46 -154 -226 0
-47 -155 -227 0
-48 -156 -228 0
-45 -157 -229 0
-46 -158 -230 0
-47 -159 -231 0
-48 -160 -232 0
-45 -161 -233 0
-46 -162 -234 0
-47 -163 -235 0
-48 -164 -236 0
-45 -165 -237 0
-46 -166 -238 0
-47 -167 -239 0
-48 -168 -240 0
-45 -169 -241 0
-46 -170 -242 0
-47 -171 -243 0
-48 -172 -244 0
-45 -173 -245 0
-46 -174 -246 0
-47 -175 -247 0
-48 -176 -248 0
-45 -177 -249 0
-46 -178 -250 0
-47 -179 -251 0
-48 -180 -252 0
-45 -181 -253 0
-46 -182 -254 0
-47 -183 -255 0
-48 -184 -256 0
-45 -185 -257 0
-46 -186 -258 0
-47 -187 -259 0
-48 -188 -260 0
-45 -189 -261 0
-46 -190 -262 0
-47 -191 -263 0
-48 -192 -264 0
-45 -193 -265 0
-46 -194 -266 0
-47 -195 -267 0
-48 -196 -268 0
-45 -197 -269 0
-46 -198 -270 0
-47 -199 -271 0
-48 -200 -272 0
-45 -201 -273 0
-46 -202 -274 0
-47 -203 -275 0
-48 -204 -276 0
-45 -205 -277 0
-46 -206 -278 0
-47 -207 -279 0
-48 -208 -280 0
-45 -209 -281 0
-46 -210 -282 0
-47 -211 -283 0
-48 -212 -284 0
-45 -213 -285 0
-46 -214 -286 0
-47 -215 -287 0
-48 -216 -288 0
-45 -217 -289 0
-46 -218 -290 0
-47 -219 -291 0
-48 -220 -292 0
-45 -221 -293 0
-46 -222 -294 0
-47 -223 -295 0
-48 -224 -296 0
-45 -225 -297 0
-46 -226 -298 0
-47 -227 -299 0
-48 -228 -300 0
-45 -229 -301 0
-46 -230 -302 0
-47 -231 -303 0
-48 -232 -304 0
-45 -233 -305 0
-46 -234 -306 0
-47 -235 -307 0
-48 -236 -308 0
-45 -237 -309 0
-46 -238 -310 0
-47 -239 -311 0
-48 -240 -312 0
-45 -241 -313 0
-46 -242 -314 0
-47 -243 -315 0
-48 -244 -316 0
-45 -245 -317 0
-46 -246 -318 0
-47 -247 -319 0
-48 -248 -320 0
-45 -249 -321 0
-46 -250 -322 0
-47 -251 -323 0
-48 -252 -324 0
-45 -253 -325 0
-46 -254 -326 0
-47 -255 -327 0
-48 -256 -328 0
-45 -257 -329 0
-46 -258 -330 0
-47 -259 -331 0
-48 -260 -332 0
-45 -261 -333 0
-46 -262 -334 0
-47 -263 -335 0
-48 -264 -336 0
-45 -265 -337 0
-46 -266 -338 0
-47 -267 -339 0
-48 -268 -340 0
-45 -269 -341 0
-46 -270 -342 0
-47 -271 -343 0
-48 -272 -344 0
-45 -273 -345 0
-46 -274 -346 0
-47 -275 -347 0
-48 -276 -348 0
-45 -277 -349 0
-46 -278 -350 0
-47 -279 -351 0
-48 -280 -352 0
-45 -281 -353 0
-46 -282 -354 0
-47 -283 -355 0
-48 -284 -356 0
-45 -285 -357 0
-46 -286 -358 0
-47 -287 -359 0
-48 -288 -360 0
-45 -289 -361 0
-46 -290 -362 0
-47 -291 -363 0
-48 -292 -364 0
-45 -293 -365 0
-46 -294 -366 0
-47 -295 -367 0
-48 -296 -368 0
-45 -297 -369 0
-46 -298 -370 0
-47 -299 -371 0
-48 -300 -372 0
-45 -301 -373 0
-46 -302 -374 0
-47 -303 -375 0
-48 -304 -376 0
-45 -305 -377 0
-46 -306 -378 0
-47 -307 -379 0
-48 -308 -380 0
-45 -309 -381 0
-46 -310 -382 0
-47 -311 -383 0
-48 -312 -384 0
-45 -313 -385 0
-46 -314 -386 0
-47 -315 -387 0
-48 -316 -388 0
-45 -317 -389 0
-46 -318 -390 0
-47 -319 -391 0
-48 -320 -392 0
-45 -321 -393 0
-46 -322 -394 0
-47 -323 -395 0
-48 -324 -396 0
-45 -325 -397 0
-46 -326 -398 0
-47 -327 -399 0
-48 -328 -400 0
-45 -329 -401 0
-46 -330 -402 0
-47 -331 -403 0
-48 -332 -404 0
-45 -333 -405 0
-46 -334 -406 0
-47 -335 -407 0
-48 -336 -408 0
-45 -337 -409 0
-46 -338 -410 0
-47 -339 -411 0
-48 -340 -412 0
-45 -341 -413 0
-46 -342 -414 0
-47 -343 -415 0
-48 -344 -416 0
-45 -345 -417 0
-46 -346 -418 0
-47 -347 -419 0
-48 -348 -420 0
-45 -349 -421 0
-46 -350 -422 0
-47 -351 -423 0
-48 -352 -424 0
-45 -353 -425 0
-46 -354 -426 0
-47 -355 -427 0
-48 -356 -428 0
-45 -357 -429 0
-46 -358 -430 0
-47 -359 -431 0
-48 -360 -432 0
-45 -361 -433 0
-46 -362 -434 0
-47 -363 -435 0
-48 -364 -436 0
-45 -365 -437 0
-46 -366 -438 0
-47 -367 -439 0
-48 -368 -440 0
-45 -369 -441 0
-46 -370 -442 0
-47 -371 -443 0
-48 -372 -444 0
-45 -373 -445 0
-46 -374 -446 0
-47 -375 -447 0
-48 -376 -448 0
-45 -377 -449 0
-46 -378 -450 0
-47 -379 -451 0
-48 -380 -452 0
-45 -381 -453 0
-46 -382 -454 0
-47 -383 -455 0
-48 -384 -456 0
-45 -385 -457 0
-46 -386 -458 0
-47 -387 -459 0
-48 -388 -460 0
-45 -389 -461 0
-46 -390 -462 0
-47 -391 -463 0
-48 -392 -464 0
-45 -393 -465 0
-46 -394 -466 0
-47 -395 -467 0
-48 -396 -468 0
-45 -397 -469 0
-46 -398 -470 0
-47 -399 -471 0
-48 -400 -472 0
-45 -401 -473 0
-46 -402 -474 0
-47 -403 -475 0
-48 -404 -476 0
-45 -405 -477 0
-46 -406 -478 0
-47 -407 -479 0
-48 -408 -480 0
-45 -409 -481 0
-46 -410 -482 0
-47 -411 -483 0
-48 -412 -484 0
-45 -413 -485 0
-46 -414 -486 0
-47 -415 -487 0
-48 -416 -488 0
-45 -417 -489 0
-46 -418 -490 0
-47 -419 -491 0
-48 -420 -492 0
-45 -421 -493 0
-46 -422 -494 0
-47 -423 -495 0
-48 -424 -496 0
-45 -425 -497 0
-46 -426 -498 0
-47 -427 -499 0
-48 -428 -500 0
-45 -429 -501 0
-46 -430 -502 0
-47 -431 -503 0
-48 -432 -504 0
-45 -433 -505 0
-46 -434 -506 0
-47 -435 -507 0
-48 -436 -508 0
-45 -437 -509 0
-46 -438 -510 0
-47 -439 -511 0
-48 -440 -512 0
-45 -441 -513 0
-46 -442 -514 0
-47 -443 -515 0
-48 -444 -516 0
-45 -445 -517 0
-46 -446 -518 0
-47 -447 -519 0
-48 -448 -520 0
-45 -449 -521 0
-46 -450 -522 0
-47 -451 -523 0
-48 -452 -524 0
-45 -453 -525 0
-46 -454 -526 0
-47 -455 -527 0
-48 -456 -528 0
-45 -457 -529 0
-46 -458 -530 0
-47 -459 -531 0
-48 -460 -532 0
-45 -461 -533 0
-46 -462 -534 0
-47 -463 -535 0
-48 -464 -536 0
-45 -465 -537 0
-46 -466 -538 0
-47 -467 -539 0
-48 -468 -540 0
-45 -469 -541 0
-46 -470 -542 0
-47 -471 -543 0
-48 -472 -544 0
-45 -473 -545 0
-46 -474 -546 0
-47 -475 -547 0
-48 -476 -548 0
-45 -477 -549 0
-46 -478 -550 0
-47 -479 -551 0
-48 -480 -552 0
-45 -481 -553 0
-46 -482 -554 0
-47 -483 -555 0
-48 -484 -556 0
-45 -485 -557 0
-46 -486 -558 0
-47 -487 -559 0
-48 -488 -560 0
-45 -489 -561 0
-46 -490 -562 0
-47 -491 -563 0
-48 -492 -564 0
-45 -493 -565 0
-46 -494 -566 0
-47 -495 -567 0
-48 -496 -568 0
-45 -497 -569 0
-46 -498 -570 0
-47 -499 -571 0
-48 -500 -572 0
-45 -501 -573 0
-46 -502 -574 0
-47 -503 -575 0
-48 -504 -576 0
-45 -505 -577 0
-46 -506 -578 0
-47 -507 -579 0
-48 -508 -580 0
-45 -509 -581 0
-46 -510 -582 0
-47 -511 -583 0
-48 -512 -584 0
-45 -513 -585 0
-46 -514 -586 0
-47 -515 -587 0
-48 -516 -588 0
-45 -517 -589 0
-46 -518 -590 0
-47 -519 -591 0
-48 -520 -592 0
-45 -521 -593 0
-46 -522 -594 0
-47 -523 -595 0
-48 -524 -596 0
-45 -525 -597 0
-46 -526 -598 0
-47 -527 -599 0
-48 -528 -600 0
-45 -529 -601 0
-46 -530 -602 0
-47 -531 -603 0
-48 -532 -604 0
-45 -533 -605 0
-46 -534 -606 0
-47 -535 -607 0
-48 -536 -608 0
-45 -537 -609 0
-46 -538 -610 0
-47 -539 -611 0
-48 -540 -612 0
-45 -541 -613 0
-46 -542 -614 0
-47 -543 -615 0
-48 -544 -616 0
-45 -545 -617 0
-46 -546 -618 0
-47 -547 -619 0
-48 -548 -620 0
-45 -549 -621 0
-46 -550 -622 0
-47 -551 -623 0
-48 -552 -624 0
-45 -553 -625 0
-46 -554 -626 0
-47 -555 -627 0
-48 -556 -628 0
-45 -557 -629 0
-46 -558 -630 0
-47 -559 -631 0
-48 -560 -632 0
-45 -561 -633 0
-46 -562 -634 0
-47 -563 -635 0
-48 -564 -636 0
-45 -565 -637 0
-46 -566 -638 0
-47 -567 -639 0
-48 -568 -640 0
-45 -569 -641 0
-46 -570 -642 0
-47 -571 -643 0
-48 -572 -644 0
-45 -573 -645 0
-46 -574 -646 0
-47 -575 -647 0
-48 -576 -648 0
-45 -577 -649 0
-46 -578 -650 0
-47 -579 -651 0
-48 -580 -652 0
-45 -581 -653 0
-46 -582 -654 0
-47 -583 -655 0
-48 -584 -656 0
-45 -585 -657 0
-46 -586 -658 0
-47 -587 -659 0
-48 -588 -660 0
-45 -589 -661 0
-46 -590 -662 0
-47 -591 -663 0
-48 -592 -664 0
-45 -593 -665 0
-46 -594 -666 0
-47 -595 -667 0
-48 -596 -668 0
-45 -597 -669 0
-46 -598 -670 0
-47 -599 -671 0
-48 -600 -672 0
-45 -601 -673 0
-46 -602 -674 0
-47 -603 -675 0
-48 -604 -676 0
-45 -605 -677 0
-46 -606 -678 0
-47 -607 -679 0
-48 -608 -680 0
-45 -609 -681 0
-46 -610 -682 0
-47 -611 -683 0
-48 -612 -684 0
-45 -613 -685 0
-46 -614 -686 0
-47 -615 -687 0
-48 -616 -688 0
-45 -617 -689 0
-46 -618 -690 0
-47 -619 -691 0
-48 -620 -692 0
-45 -621 -693 0
-46 -622 -694 0
-47 -623 -695 0
-48 -624 -696 0
-45 -625 -697 0
-46 -626 -698 0
-47 -627 -699 0
-48 -628 -700 0
-45 -629 -701 0
-46 -630 -702 0
-47 -631 -703 0
-48 -632 -704 0
-45 -633 -705 0
-46 -634 -706 0
-47 -635 -707 0
-48 -636 -708 0
-45 -637 -709 0
-46 -638 -710 0
-47 -639 -711 0
-48 -640 -712 0
-45 -641 -713 0
-46 -642 -714 0
-47 -643 -715 0
-48 -644 -716 0
-45 -645 -717 0
-46 -646 -718 0
-47 -647 -719 0
-48 -648 -720 0
-45 -649 -721 0
-46 -650 -722 0
-47 -651 -723 0
-48 -652 -724 0
-45 -653 -725 0
-46 -654 -726 0
-47 -655 -727 0
-48 -656 -728 0
-45 -657 -729 0
-46 -658 -730 0
-47 -659 -731 0
-48 -660 -732 0
-45 -661 -733 0
-46 -662 -734 0
-47 -663 -735 0
-48 -664 -736 0
-45 -665 -737 0
-46 -666 -738 0
-47 -667 -739 0
-48 -668 -740 0
-45 -669 -741 0
-46 -670 -742 0
-47 -671 -743 0
-48 -672 -744 0
-45 -673 -745 0
-46 -674 -746 0
-47 -675 -747 0
-48 -676 -748 0
-45 -677 -749 0
-46 -678 -750 0
-47 -679 -751 0
-48 -680 -752 0
-45 -681 -753 0
-46 -682 -754 0
-47 -683 -755 0
-48 -684 -756 0
-45 -685 -757 0
-46 -686 -758 0
-47 -687 -759 0
-48 -688 -760 0
-45 -689 -761 0
-46 -690 -762 0
-47 -691 -763 0
-48 -692 -764 0
-45 -693 -765 0
-46 -694 -766 0
-47 -695 -767 0
-48 -696 -768 0
-45 -697 -769 0
-46 -698 -770 0
-47 -699 -771 0
-48 -700 -772 0
-45 -701 -773 0
-46 -702 -774 0
-47 -703 -775 0
-48 -704 -776 0
-45 -705 -777 0
-46 -706 -778 0
-47 -707 -779 0
-48 -708 -780 0
-45 -709 -781 0
-46 -710 -782 0
-47 -711 -783 0
-48 -712 -784 0
-45 -713 -785 0
-46 -714 -786 0
-47 -715 -787 0
-48 -716 -788 0
-45 -717 -789 0
-46 -718 -790 0
-47 -719 -791 0
-48 -720 -792 0
-45 -721 -793 0
-46 -722 -794 0
-47 -723 -795 0
-48 -724 -796 0
-45 -725 -797 0
-46 -726 -798 0
-47 -727 -799 0
-48 -728 -800 0
-45 -729 -801 0
-46 -730 -802 0
-47 -731 -803 0
-48 -732 -804 0
-45 -733 -805 0
-46 -734 -806 0
-47 -735 -807 0
-48 -736 -808 0
-45 -737 -809 0
-46 -738 -810 0
-47 -739 -811 0
-48 -740 -812 0
-45 -741 -813 0
-46 -742 -814 0
-47 -743 -815 0
-48 -744 -816 0
-45 -745 -817 0
-46 -746 -818 0
-47 -747 -819 0
-48 -748 -820 0
-45 -749 -821 0
-46 -750 -822 0
-47 -751 -823 0
-48 -752 -824 0
-45 -753 -825 0
-46 -754 -826 0
-47 -755 -827 0
-48 -756 -828 0
-45 -757 -829 0
-46 -758 -830 0
-47 -759 -831 0
-48 -760 -832 0
-45 -761 -833 0
-46 -762 -834 0
-47 -763 -835 0
-48 -764 -836 0
-45 -765 -837 0
-46 -766 -838 0
-47 -767 -839 0
-48 -768 -840 0
-45 -769 -841 0
-46 -770 -842 0
-47 -771 -843 0
-48 -772 -844 0
-45 -773 -845 0
-46 -774 -846 0
-47 -775 -847 0
-48 -776 -848 0
-45 -777 -849 0
-46 -778 -850 0
-47 -779 -851 0
-48 -780 -852 0
-45 -781 -853 0
-46 -782 -854 0
-47 -783 -855 0
-48 -784 -856 0
-45 -785 -857 0
-46 -786 -858 0
-47 -787 -859 0
-48 -788 -860 0
-45 -789 -861 0
-46 -790 -862 0
-47 -791 -863 0
-48 -792 -864 0
-45 -793 -865 0
-46 -794 -866 0
-47 -795 -867 0
-48 -796 -868 0
-45 -797 -869 0
-46 -798 -870 0
-47 -799 -871 0
-48 -800 -872 0
-45 -801 -873 0
-46 -802 -874 0
-47 -803 -875 0
-48 -804 -876 0
-45 -805 -877 0
-46 -806 -878 0
-47 -807 -879 0
-48 -808 -880 0
-45 -809 -881 0
-46 -810 -882 0
-47 -811 -883 0
-48 -812 -884 0
-45 -813 -885 0
-46 -814 -886 0
-47 -815 -887 0
-48 -816 -888 0
-45 -817 -889 0
-46 -818 -890 0
-47 -819 -891 0
-48 -820 -892 0
-45 -821 -893 0
-46 -822 -894 0
-47 -823 -895 0
-48 -824 -896 0
-45 -825 -897 0
-46 -826 -898 0
-47 -827 -899 0
-48 -828 -900 0
-45 -829 -901 0
-46 -830 -902 0
-47 -831 -903 0
-48 -832 -904 0
-1 -53 -85 0
-2 -54 -86 0
-3 -55 -87 0
-4 -56 -88 0
-5 -53 -89 0
-6 -54 -90 0
-7 -55 -91 0
-8 -56 -92 0
-9 -53 -93 0
-10 -54 -94 0
-11 -55 -95 0
-12 -56 -96 0
-13 -53 -97 0
-14 -54 -98 0
-15 -55 -99 0
-16 -56 -100 0
-17 -53 -101 0
-18 -54 -102 0
-19 -55 -103 0
-20 -56 -104 0
-21 -53 -105 0
-22 -54 -106 0
-23 -55 -107 0
-24 -56 -108 0
-25 -53 -109 0
-26 -54 -110 0
-27 -55 -111 0
-28 -56 -112 0
-29 -53 -113 0
-30 -54 -114 0
-31 -55 -115 0
-32 -56 -116 0
-33 -53 -117 0
-34 -54 -118 0
-35 -55 -119 0
-36 -56 -120 0
-37 -53 -121 0
-38 -54 -122 0
-39 -55 -123 0
-40 -56 -124 0
-41 -53 -125 0
-42 -54 -126 0
-43 -55 -127 0
-44 -56 -128 0
-45 -53 -129 0
-46 -54 -130 0
-47 -55 -131 0
-48 -56 -132 0
-49 -53 -133 0
-50 -54 -134 0
-51 -55 -135 0
-52 -56 -136 0
-53 -137 0
-54 -138 0
-55 -139 0
-56 -140 0
-53 -57 -141 0
-54 -58 -142 0
-55 -59 -143 0
-56 -60 -144 0
-53 -61 -145 0
-54 -62 -146 0
-55 -63 -147 0
-56 -64 -148 0
-53 -65 -149 0
-54 -66 -150 0
-55 -67 -151 0
-56 -68 -152 0
-53 -69 -153 0
-54 -70 -154 0
-55 -71 -155 0
-56 -72 -156 0
-53 -73 -157 0
-54 -74 -158 0
-55 -75 -159 0
-56 -76 -160 0
-53 -77 -161 0
-54 -78 -162 0
-55 -79 -163 0
-56 -80 -164 0
-53 -81 -165 0
-54 -82 -166 0
-55 -83 -167 0
-56 -84 -168 0
-53 -85 -169 0
-54 -86 -170 0
-55 -87 -171 0
-56 -88 -172 0
-53 -89 -173 0
-54 -90 -174 0
-55 -91 -175 0
-56 -92 -176 0
-53 -93 -177 0
-54 -94 -178 0
-55 -95 -179 0
-56 -96 -180 0
-53 -97 -181 0
-54 -98 -182 0
-55 -99 -183 0
-56 -100 -184 0
-53 -101 -185 0
-54 -102 -186 0
-55 -103 -187 0
-56 -104 -188 0
-53 -105 -189 0
-54 -106 -190 0
-55 -107 -191 0
-56 -108 -192 0
-53 -109 -193 0
-54 -110 -194 0
-55 -111 -195 0
-56 -112 -196 0
-53 -113 -197 0
-54 -114 -198 0
-55 -115 -199 0
-56 -116 -200 0
-53 -117 -201 0
-54 -118 -202 0
-55 -119 -203 0
-56 -120 -204 0
-53 -121 -205 0
-54 -122 -206 0
-55 -123 -207 0
-56 -124 -208 0
-53 -125 -209 0
-54 -126 -210 0
-55 -127 -211 0
-56 -128 -212 0
-53 -129 -213 0
-54 -130 -214 0
-55 -131 -215 0
-56 -132 -216 0
-53 -133 -217 0
-54 -134 -218 0
-55 -135 -219 0
-56 -136 -220 0
-53 -137 -221 0
-54 -138 -222 0
-55 -139 -223 0
-56 -140 -224 0
-53 -141 -225 0
-54 -142 -226 0
-55 -143 -227 0
-56 -144 -228 0
-53 -145 -229 0
-54 -146 -230 0
-55 -147 -231 0
-56 -148 -232 0
-53 -149 -233 0
-54 -150 -234 0
-55 -151 -235 0
-56 -152 -236 0
-53 -153 -237 0
-54 -154 -238 0
-55 -155 -239 0
-56 -156 -240 0
-53 -157 -241 0
-54 -158 -242 0
-55 -159 -243 0
-56 -160 -244 0
-53 -161 -245 0
-54 -162 -246 0
-55 -163 -247 0
-56 -164 -248 0
-53 -165 -249 0
-54 -166 -250 0
-55 -167 -251 0
-56 -168 -252 0
-53 -169 -253 0
-54 -170 -254 0
-55 -171 -255 0
-56 -172 -256 0
-53 -173 -257 0
-54 -174 -258 0
-55 -175 -259 0
-56 -176 -260 0
-53 -177 -261 0
-54 -178 -262 0
-55 -179 -263 0
-56 -180 -264 0
-53 -181 -265 0
-54 -182 -266 0
-55 -183 -267 0
-56 -184 -268 0
-53 -185 -269 0
-54 -186 -270 0
-55 -187 -271 0
-56 -188 -272 0
-53 -189 -273 0
-54 -190 -274 0
-55 -191 -275 0
-56 -192 -276 0
-53 -193 -277 0
-54 -194 -278 0
-55 -195 -279 0
-56 -196 -280 0
-53 -197 -281 0
-54 -198 -282 0
-55 -199 -283 0
-56 -200 -284 0
-53 -201 -285 0
-54 -202 -286 0
-55 -203 -287 0
-56 -204 -288 0
-53 -205 -289 0
-54 -206 -290 0
-55 -207 -291 0
-56 -208 -292 0
-53 -209 -293 0
-54 -210 -294 0
-55 -211 -295 0
-56 -212 -296 0
-53 -213 -297 0
-54 -214 -298 0
-55 -215 -299 0
-56 -216 -300 0
-53 -217 -301 0
-54 -218 -302 0
-55 -219 -303 0
-56 -220 -304 0
-53 -221 -305 0
-54 -222 -306 0
-55 -223 -307 0
-56 -224 -308 0
-53 -225 -309 0
-54 -226 -310 0
-55 -227 -311 0
-56 -228 -312 0
-53 -229 -313 0
-54 -230 -314 0
-55 -231 -315 0
-56 -232 -316 0
-53 -233 -317 0
-54 -234 -318 0
-55 -235 -319 0
-56 -236 -320 0
-53 -237 -321 0
-54 -238 -322 0
-55 -239 -323 0
-56 -240 -324 0
-53 -241 -325 0
-54 -242 -326 0
-55 -243 -327 0
-56 -244 -328 0
-53 -245 -329 0
-54 -246 -330 0
-55 -247 -331 0
-56 -248 -332 0
-53 -249 -333 0
-54 -250 -334 0
-55 -251 -335 0
-56 -252 -336 0
-53 -253 -337 0
-54 -254 -338 0
-55 -255 -339 0
-56 -256 -340 0
-53 -257 -341 0
-54 -258 -342 0
-55 -259 -343 0
-56 -260 -344 0
-53 -261 -345 0
-54 -262 -346 0
-55 -263 -347 0
-56 -264 -348 0
-53 -265 -349 0
-54 -266 -350 0
-55 -267 -351 0
-56 -268 -352 0
-53 -269 -353 0
-54 -270 -354 0
-55 -271 -355 0
-56 -272 -356 0
-53 -273 -357 0
-54 -274 -358 0
-55 -275 -359 0
-56 -276 -360 0
-53 -277 -361 0
-54 -278 -362 0
-55 -279 -363 0
-56 -280 -364 0
-53 -281 -365 0
-54 -282 -366 0
-55 -283 -367 0
-56 -284 -368 0
-53 -285 -369 0
-54 -286 -370 0
-55 -287 -371 0
-56 -288 -372 0
-53 -289 -373 0
-54 -290 -374 0
-55 -291 -375 0
-56 -292 -376 0
-53 -293 -377 0
-54 -294 -378 0
-55 -295 -379 0
-56 -296 -380 0
-53 -297 -381 0
-54 -298 -382 0
-55 -299 -383 0
-56 -300 -384 0
-53 -301 -385 0
-54 -302 -386 0
-55 -303 -387 0
-56 -304 -388 0
-53 -305 -389 0
-54 -306 -390 0
-55 -307 -391 0
-56 -308 -392 0
-53 -309 -393 0
-54 -310 -394 0
-55 -311 -395 0
-56 -312 -396 0
-53 -313 -397 0
-54 -314 -398 0
-55 -315 -399 0
-56 -316 -400 0
-53 -317 -401 0
-54 -318 -402 0
-55 -319 -403 0
-56 -320 -404 0
-53 -321 -405 0
-54 -322 -406 0
-55 -323 -407 0
-56 -324 -408 0
-53 -325 -409 0
-54 -326 -410 0
-55 -327 -411 0
-56 -328 -412 0
-53 -329 -413 0
-54 -330 -414 0
-55 -331 -415 0
-56 -332 -416 0
-53 -333 -417 0
-54 -334 -418 0
-55 -335 -419 0
-56 -336 -420 0
-53 -337 -421 0
-54 -338 -422 0
-55 -339 -423 0
-56 -340 -424 0
-53 -341 -425 0
-54 -342 -426 0
-55 -343 -427 0
-56 -344 -428 0
-53 -345 -429 0
-54 -346 -430 0
-55 -347 -431 0
-56 -348 -432 0
-53 -349 -433 0
-54 -350 -434 0
-55 -351 -435 0
-56 -352 -436 0
-53 -353 -437 0
-54 -354 -438 0
-55 -355 -439 0
-56 -356 -440 0
-53 -357 -441 0
-54 -358 -442 0
-55 -359 -443 0
-56 -360 -444 0
-53 -361 -445 0
-54 -362 -446 0
-55 -363 -447 0
-56 -364 -448 0
-53 -365 -449 0
-54 -366 -450 0
-55 -367 -451 0
-56 -368 -452 0
-53 -369 -453 0
-54 -370 -454 0
-55 -371 -455 0
-56 -372 -456 0
-53 -373 -457 0
-54 -374 -458 0
-55 -375 -459 0
-56 -376 -460 0
-53 -377 -461 0
-54 -378 -462 0
-55 -379 -463 0
-56 -380 -464 0
-53 -381 -465 0
-54 -382 -466 0
-55 -383 -467 0
-56 -384 -468 0
-53 -385 -469 0
-54 -386 -470 0
-55 -387 -471 0
-56 -388 -472 0
-53 -389 -473 0
-54 -390 -474 0
-55 -391 -475 0
-56 -392 -476 0
-53 -393 -477 0
-54 -394 -478 0
-55 -395 -479 0
-56 -396 -480 0
-53 -397 -481 0
-54 -398 -482 0
-55 -399 -483 0
-56 -400 -484 0
-53 -401 -485 0
-54 -402 -486 0
-55 -403 -487 0
-56 -404 -488 0
-53 -405 -489 0
-54 -406 -490 0
-55 -407 -491 0
-56 -408 -492 0
-53 -409 -493 0
-54 -410 -494 0
-55 -411 -495 0
-56 -412 -496 0
-53 -413 -497 0
-54 -414 -498 0
-55 -415 -499 0
-56 -416 -500 0
-53 -417 -501 0
-54 -418 -502 0
-55 -419 -503 0
-56 -420 -504 0
-53 -421 -505 0
-54 -422 -506 0
-55 -423 -507 0
-56 -424 -508 0
-53 -425 -509 0
-54 -426 -510 0
-55 -427 -511 0
-56 -428 -512 0
-53 -429 -513 0
-54 -430 -514 0
-55 -431 -515 0
-56 -432 -516 0
-53 -433 -517 0
-54 -434 -518 0
-55 -435 -519 0
-56 -436 -520 0
-53 -437 -521 0
-54 -438 -522 0
-55 -439 -523 0
-56 -440 -524 0
-53 -441 -525 0
-54 -442 -526 0
-55 -443 -527 0
-56 -444 -528 0
-53 -445 -529 0
-54 -446 -530 0
-55 -447 -531 0
-56 -448 -532 0
-53 -449 -533 0
-54 -450 -534 0
-55 -451 -535 0
-56 -452 -536 0
-53 -453 -537 0
-54 -454 -538 0
-55 -455 -539 0
-56 -456 -540 0
-53 -457 -541 0
-54 -458 -542 0
-55 -459 -543 0
-56 -460 -544 0
-53 -461 -545 0
-54 -462 -546 0
-55 -463 -547 0
-56 -464 -548 0
-53 -465 -549 0
-54 -466 -550 0
-55 -467 -551 0
-56 -468 -552 0
-53 -469 -553 0
-54 -470 -554 0
-55 -471 -555 0
-56 -472 -556 0
-53 -473 -557 0
-54 -474 -558 0
-55 -475 -559 0
-56 -476 -560 0
-53 -477 -561 0
-54 -478 -562 0
-55 -479 -563 0
-56 -480 -564 0
-53 -481 -565 0
-54 -482 -566 0
-55 -483 -567 0
-56 -484 -568 0
-53 -485 -569 0
-54 -486 -570 0
-55 -487 -571 0
-56 -488 -572 0
-53 -489 -573 0
-54 -490 -574 0
-55 -491 -575 0
-56 -492 -576 0
-53 -493 -577 0
-54 -494 -578 0
-55 -495 -579 0
-56 -496 -580 0
-53 -497 -581 0
-54 -498 -582 0
-55 -499 -583 0
-56 -500 -584 0
-53 -501 -585 0
-54 -502 -586 0
-55 -503 -587 0
-56 -504 -588 0
-53 -505 -589 0
-54 -506 -590 0
-55 -507 -591 0
-56 -508 -592 0
-53 -509 -593 0
-54 -510 -594 0
-55 -511 -595 0
-56 -512 -596 0
-53 -513 -597 0
-54 -514 -598 0
-55 -515 -599 0
-56 -516 -600 0
-53 -517 -601 0
-54 -518 -602 0
-55 -519 -603 0
-56 -520 -604 0
-53 -521 -605 0
-54 -522 -606 0
-55 -523 -607 0
-56 -524 -608 0
-53 -525 -609 0
-54 -526 -610 0
-55 -527 -611 0
-56 -528 -612 0
-53 -529 -613 0
-54 -530 -614 0
-55 -531 -615 0
-56 -532 -616 0
-53 -533 -617 0
-54 -534 -618 0
-55 -535 -619 0
-56 -536 -620 0
-53 -537 -621 0
-54 -538 -622 0
-55 -539 -623 0
-56 -540 -624 0
-53 -541 -625 0
-54 -542 -626 0
-55 -543 -627 0
-56 -544 -628 0
-53 -545 -629 0
-54 -546 -630 0
-55 -547 -631 0
-56 -548 -632 0
-53 -549 -633 0
-54 -550 -634 0
-55 -551 -635 0
-56 -552 -636 0
-53 -553 -637 0
-54 -554 -638 0
-55 -555 -639 0
-56 -556 -640 0
-53 -557 -641 0
-54 -558 -642 0
-55 -559 -643 0
-56 -560 -644 0
-53 -561 -645 0
-54 -562 -646 0
-55 -563 -647 0
-56 -564 -648 0
-53 -565 -649 0
-54 -566 -650 0
-55 -567 -651 0
-56 -568 -652 0
-53 -569 -653 0
-54 -570 -654 0
-55 -571 -655 0
-56 -572 -656 0
-53 -573 -657 0
-54 -574 -658 0
-55 -575 -659 0
-56 -576 -660 0
-53 -577 -661 0
-54 -578 -662 0
-55 -579 -663 0
-56 -580 -664 0
-53 -581 -665 0
-54 -582 -666 0
-55 -583 -667 0
-56 -584 -668 0
-53 -585 -669 0
-54 -586 -670 0
-55 -587 -671 0
-56 -588 -672 0
-53 -589 -673 0
-54 -590 -674 0
-55 -591 -675 0
-56 -592 -676 0
-53 -593 -677 0
-54 -594 -678 0
-55 -595 -679 0
-56 -596 -680 0
-53 -597 -681 0
-54 -598 -682 0
-55 -599 -683 0
-56 -600 -684 0
-53 -601 -685 0
-54 -602 -686 0
-55 -603 -687 0
-56 -604 -688 0
-53 -605 -689 0
-54 -606 -690 0
-55 -607 -691 0
-56 -608 -692 0
-53 -609 -693 0
-54 -610 -694 0
-55 -611 -695 0
-56 -612 -696 0
-53 -613 -697 0
-54 -614 -698 0
-55 -615 -699 0
-56 -616 -700 0
-53 -617 -701 0
-54 -618 -702 0
-55 -619 -703 0
-56 -620 -704 0
-53 -621 -705 0
-54 -622 -706 0
-55 -623 -707 0
-56 -624 -708 0
-53 -625 -709 0
-54 -626 -710 0
-55 -627 -711 0
-56 -628 -712 0
-53 -629 -713 0
-54 -630 -714 0
-55 -631 -715 0
-56 -632 -716 0
-53 -633 -717 0
-54 -634 -718 0
-55 -635 -719 0
-56 -636 -720 0
-53 -637 -721 0
-54 -638 -722 0
-55 -639 -723 0
-56 -640 -724 0
-53 -641 -725 0
-54 -642 -726 0
-55 -643 -727 0
-56 -644 -728 0
-53 -645 -729 0
-54 -646 -730 0
-55 -647 -731 0
-56 -648 -732 0
-53 -649 -733 0
-54 -650 -734 0
-55 -651 -735 0
-56 -652 -736 0
-53 -653 -737 0
-54 -654 -738 0
-55 -655 -739 0
-56 -656 -740 0
-53 -657 -741 0
-54 -658 -742 0
-55 -659 -743 0
-56 -660 -744 0
-53 -661 -745 0
-54 -662 -746 0
-55 -663 -747 0
-56 -664 -748 0
-53 -665 -749 0
-54 -666 -750 0
-55 -667 -751 0
-56 -668 -752 0
-53 -669 -753 0
-54 -670 -754 0
-55 -671 -755 0
-56 -672 -756 0
-53 -673 -757 0
-54 -674 -758 0
-55 -675 -759 0
-56 -676 -760 0
-53 -677 -761 0
-54 -678 -762 0
-55 -679 -763 0
-56 -680 -764 0
-53 -681 -765 0
-54 -682 -766 0
-55 -683 -767 0
-56 -684 -768 0
-53 -685 -769 0
-54 -686 -770 0
-55 -687 -771 0
-56 -688 -772 0
-53 -689 -773 0
-54 -690 -774 0
-55 -691 -775 0
-56 -692 -776 0
-53 -693 -777 0
-54 -694 -778 0
-55 -695 -779 0
-56 -696 -780 0
-53 -697 -781 0
-54 -698 -782 0
-55 -699 -783 0
-56 -700 -784 0
-53 -701 -785 0
-54 -702 -786 0
-55 -703 -787 0
-56 -704 -788 0
-53 -705 -789 0
-54 -706 -790 0
-55 -707 -791 0
-56 -708 -792 0
-53 -709 -793 0
-54 -710 -794 0
-55 -711 -795 0
-56 -712 -796 0
-53 -713 -797 0
-54 -714 -798 0
-55 -715 -799 0
-56 -716 -800 0
-53 -717 -801 0
-54 -718 -802 0
-55 -719 -803 0
-56 -720 -804 0
-53 -721 -805 0
-54 -722 -806 0
-55 -723 -807 0
-56 -724 -808 0
-53 -725 -809 0
-54 -726 -810 0
-55 -727 -811 0
-56 -728 -812 0
-53 -729 -813 0
-54 -730 -814 0
-55 -731 -815 0
-56 -732 -816 0
-53 -733 -817 0
-54 -734 -818 0
-55 -735 -819 0
-56 -736 -820 0
-53 -737 -821 0
-54 -738 -822 0
-55 -739 -823 0
-56 -740 -824 0
-53 -741 -825 0
-54 -742 -826 0
-55 -743 -827 0
-56 -744 -828 0
-53 -745 -829 0
-54 -746 -830 0
-55 -747 -831 0
-56 -748 -832 0
-53 -749 -833 0
-54 -750 -834 0
-55 -751 -835 0
-56 -752 -836 0
-53 -753 -837 0
-54 -754 -838 0
-55 -755 -839 0
-56 -756 -840 0
-53 -757 -841 0
-54 -758 -842 0
-55 -759 -843 0
-56 -760 -844 0
-53 -761 -845 0
-54 -762 -846 0
-55 -763 -847 0
-56 -764 -848 0
-53 -765 -849 0
-54 -766 -850 0
-55 -767 -851 0
-56 -768 -852 0
-53 -769 -853 0
-54 -770 -854 0
-55 -771 -855 0
-56 -772 -856 0
-53 -773 -857 0
-54 -774 -858 0
-55 -775 -859 0
-56 -776 -860 0
-53 -777 -861 0
-54 -778 -862 0
-55 -779 -863 0
-56 -780 -864 0
-53 -781 -865 0
-54 -782 -866 0
-55 -783 -867 0
-56 -784 -868 0
-53 -785 -869 0
-54 -786 -870 0
-55 -787 -871 0
-56 -788 -872 0
-53 -789 -873 0
-54 -790 -874 0
-55 -791 -875 0
-56 -792 -876 0
-53 -793 -877 0
-54 -794 -878 0
-55 -795 -879 0
-56 -796 -880 0
-53 -797 -881 0
-54 -798 -882 0
-55 -799 -883 0
-56 -800 -884 0
-53 -801 -885 0
-54 -802 -886 0
-55 -803 -887 0
-56 -804 -888 0
-53 -805 -889 0
-54 -806 -890 0
-55 -807 -891 0
-56 -808 -892 0
-53 -809 -893 0
-54 -810 -894 0
-55 -811 -895 0
-56 -812 -896 0
-53 -813 -897 0
-54 -814 -898 0
-55 -815 -899 0
-56 -816 -900 0
-53 -817 -901 0
-54 -818 -902 0
-55 -819 -903 0
-56 -820 -904 0
-1 -61 -97 0
-2 -62 -98 0
-3 -63 -99 0
-4 -64 -100 0
-5 -61 -101 0
-6 -62 -102 0
-7 -63 -103 0
-8 -64 -104 0
-9 -61 -105 0
-10 -62 -106 0
-11 -63 -107 0
-12 -64 -108 0
-13 -61 -109 0
-14 -62 -110 0
-15 -63 -111 0
-16 -64 -112 0
-17 -61 -113 0
-18 -62 -114 0
-19 -63 -115 0
-20 -64 -116 0
-21 -61 -117 0
-22 -62 -118 0
-23 -63 -119 0
-24 -64 -120 0
-25 -61 -121 0
-26 -62 -122 0
-27 -63 -123 0
-28 -64 -124 0
-29 -61 -125 0
-30 -62 -126 0
-31 -63 -127 0
-32 -64 -128 0
-33 -61 -129 0
-34 -62 -130 0
-35 -63 -131 0
-36 -64 -132 0
-37 -61 -133 0
-38 -62 -134 0
-39 -63 -135 0
-40 -64 -136 0
-41 -61 -137 0
-42 -62 -138 0
-43 -63 -139 0
-44 -64 -140 0
-45 -61 -141 0
-46 -62 -142 0
-47 -63 -143 0
-48 -64 -144 0
-49 -61 -145 0
-50 -62 -146 0
-51 -63 -147 0
-52 -64 -148 0
-53 -61 -149 0
-54 -62 -150 0
-55 -63 -151 0
-56 -64 -152 0
-57 -61 -153 0
-58 -62 -154 0
-59 -63 -155 0
-60 -64 -156 0
-61 -157 0
-62 -158 0
-63 -159 0
-64 -160 0
-61 -65 -161 0
-62 -66 -162 0
-63 -67 -163 0
-64 -68 -164 0
-61 -69 -165 0
-62 -70 -166 0
-63 -71 -167 0
-64 -72 -168 0
-61 -73 -169 0
-62 -74 -170 0
-63 -75 -171 0
-64 -76 -172 0
-61 -77 -173 0
-62 -78 -174 0
-63 -79 -175 0
-64 -80 -176 0
-61 -81 -177 0
-62 -82 -178 0
-63 -83 -179 0
-64 -84 -180 0
-61 -85 -181 0
-62 -86 -182 0
-63 -87 -183 0
-64 -88 -184 0
-61 -89 -185 0
-62 -90 -186 0
-63 -91 -187 0
-64 -92 -188 0
-61 -93 -189 0
-62 -94 -190 0
-63 -95 -191 0
-64 -96 -192 0
-61 -97 -193 0
-62 -98 -194 0
-63 -99 -195 0
-64 -100 -196 0
-61 -101 -197 0
-62 -102 -198 0
-63 -103 -199 0
-64 -104 -200 0
-61 -105 -201 0
-62 -106 -202 0
-63 -107 -203 0
-64 -108 -204 0
-61 -109 -205 0
-62 -110 -206 0
-63 -111 -207 0
-64 -112 -208 0
-61 -113 -209 0
-62 -114 -210 0
-63 -115 -211 0
-64 -116 -212 0
-61 -117 -213 0
-62 -118 -214 0
-63 -119 -215 0
-64 -120 -216 0
-61 -121 -217 0
-62 -122 -218 0
-63 -123 -219 0
-64 -124 -220 0
-61 -125 -221 0
-62 -126 -222 0
-63 -127 -223 0
-64 -128 -224 0
-61 -129 -225 0
-62 -130 -226 0
-63 -131 -227 0
-64 -132 -228 0
-61 -133 -229 0
-62 -134 -230 0
-63 -135 -231 0
-64 -136 -232 0
-61 -137 -233 0
-62 -138 -234 0
-63 -139 -235 0
-64 -140 -236 0
-61 -141 -237 0
-62 -142 -238 0
-63 -143 -239 0
-64 -144 -240 0
-61 -145 -241 0
-62 -146 -242 0
-63 -147 -243 0
-64 -148 -244 0
-61 -149 -245 0
-62 -150 -246 0
-63 -151 -247 0
-64 -152 -248 0
-61 -153 -249 0
-62 -154 -250 0
-63 -155 -251 0
-64 -156 -252 0
-61 -157 -253 0
-62 -158 -254 0
-63 -159 -255 0
-64 -160 -256 0
-61 -161 -257 0
-62 -162 -258 0
-63 -163 -259 0
-64 -164 -260 0
-61 -165 -261 0
-62 -166 -262 0
-63 -167 -263 0
-64 -168 -264 0
-61 -169 -265 0
-62 -170 -266 0
-63 -171 -267 0
-64 -172 -268 0
-61 -173 -269 0
-62 -174 -270 0
-63 -175 -271 0
-64 -176 -272 0
-61 -177 -273 0
-62 -178 -274 0
-63 -179 -275 0
-64 -180 -276 0
-61 -181 -277 0
-62 -182 -278 0
-63 -183 -279 0
-64 -184 -280 0
-61 -185 -281 0
-62 -186 -282 0
-63 -187 -283 0
-64 -188 -284 0
-61 -189 -285 0
-62 -190 -286 0
-63 -191 -287 0
-64 -192 -288 0
-61 -193 -289 0
-62 -194 -290 0
-63 -195 -291 0
-64 -196 -292 0
-61 -197 -293 0
-62 -198 -294 0
-63 -199 -295 0
-64 -200 -296 0
-61 -201 -297 0
-62 -202 -298 0
-63 -203 -299 0
-64 -204 -300 0
-61 -205 -301 0
-62 -206 -302 0
-63 -207 -303 0
-64 -208 -304 0
-61 -209 -305 0
-62 -210 -306 0
-63 -211 -307 0
-64 -212 -308 0
-61 -213 -309 0
-62 -214 -310 0
-63 -215 -311 0
-64 -216 -312 0
-61 -217 -313 0
-62 -218 -314 0
-63 -219 -315 0
-64 -220 -316 0
-61 -221 -317 0
-62 -222 -318 0
-63 -223 -319 0
-64 -224 -320 0
-61 -225 -321 0
-62 -226 -322 0
-63 -227 -323 0
-64 -228 -324 0
-61 -229 -325 0
-62 -230 -326 0
-63 -231 -327 0
-64 -232 -328 0
-61 -233 -329 0
-62 -234 -330 0
-63 -235 -331 0
-64 -236 -332 0
-61 -237 -333 0
-62 -238 -334 0
-63 -239 -335 0
-64 -240 -336 0
-61 -241 -337 0
-62 -242 -338 0
-63 -243 -339 0
-64 -244 -340 0
-61 -245 -341 0
-62 -246 -342 0
-63 -247 -343 0
-64 -248 -344 0
-61 -249 -345 0
-62 -250 -346 0
-63 -251 -347 0
-64 -252 -348 0
-61 -253 -349 0
-62 -254 -350 0
-63 -255 -351 0
-64 -256 -352 0
-61 -257 -353 0
-62 -258 -354 0
-63 -259 -355 0
-64 -260 -356 0
-61 -261 -357 0
-62 -262 -358 0
-63 -263 -359 0
-64 -264 -360 0
-61 -265 -361 0
-62 -266 -362 0
-63 -267 -363 0
-64 -268 -364 0
-61 -269 -365 0
-62 -270 -366 0
-63 -271 -367 0
-64 -272 -368 0
-61 -273 -369 0
-62 -274 -370 0
-63 -275 -371 0
-64 -276 -372 0
-61 -277 -373 0
-62 -278 -374 0
-63 -279 -375 0
-64 -280 -376 0
-61 -281 -377 0
-62 -282 -378 0
-63 -283 -379 0
-64 -284 -380 0
-61 -285 -381 0
-62 -286 -382 0
-63 -287 -383 0
-64 -288 -384 0
-61 -289 -385 0
-62 -290 -386 0
-63 -291 -387 0
-64 -292 -388 0
-61 -293 -389 0
-62 -294 -390 0
-63 -295 -391 0
-64 -296 -392 0
-61 -297 -393 0
-62 -298 -394 0
-63 -299 -395 0
-64 -300 -396 0
-61 -301 -397 0
-62 -302 -398 0
-63 -303 -399 0
-64 -304 -400 0
-61 -305 -401 0
-62 -306 -402 0
-63 -307 -403 0
-64 -308 -404 0
-61 -309 -405 0
-62 -310 -406 0
-63 -311 -407 0
-64 -312 -408 0
-61 -313 -409 0
-62 -314 -410 0
-63 -315 -411 0
-64 -316 -412 0
-61 -317 -413 0
-62 -318 -414 0
-63 -319 -415 0
-64 -320 -416 0
-61 -321 -417 0
-62 -322 -418 0
-63 -323 -419 0
-64 -324 -420 0
-61 -325 -421 0
-62 -326 -422 0
-63 -327 -423 0
-64 -328 -424 0
-61 -329 -425 0
-62 -330 -426 0
-63 -331 -427 0
-64 -332 -428 0
-61 -333 -429 0
-62 -334 -430 0
-63 -335 -431 0
-64 -336 -432 0
-61 -337 -433 0
-62 -338 -434 0
-63 -339 -435 0
-64 -340 -436 0
-61 -341 -437 0
-62 -342 -438 0
-63 -343 -439 0
-64 -344 -440 0
-61 -345 -441 0
-62 -346 -442 0
-63 -347 -443 0
-64 -348 -444 0
-61 -349 -445 0
-62 -350 -446 0
-63 -351 -447 0
-64 -352 -448 0
-61 -353 -449 0
-62 -354 -450 0
-63 -355 -451 0
-64 -356 -452 0
-61 -357 -453 0
-62 -358 -454 0
-63 -359 -455 0
-64 -360 -456 0
-61 -361 -457 0
-62 -362 -458 0
-63 -363 -459 0
-64 -364 -460 0
-61 -365 -461 0
-62 -366 -462 0
-63 -367 -463 0
-64 -368 -464 0
-61 -369 -465 0
-62 -370 -466 0
-63 -371 -467 0
-64 -372 -468 0
-61 -373 -469 0
-62 -374 -470 0
-63 -375 -471 0
-64 -376 -472 0
-61 -377 -473 0
-62 -378 -474 0
-63 -379 -475 0
-64 -380 -476 0
-61 -381 -477 0
-62 -382 -478 0
-63 -383 -479 0
-64 -384 -480 0
-61 -385 -481 0
-62 -386 -482 0
-63 -387 -483 0
-64 -388 -484 0
-61 -389 -485 0
-62 -390 -486 0
-63 -391 -487 0
-64 -392 -488 0
-61 -393 -489 0
-62 -394 -490 0
-63 -395 -491 0
-64 -396 -492 0
-61 -397 -493 0
-62 -398 -494 0
-63 -399 -495 0
-64 -400 -496 0
-61 -401 -497 0
-62 -402 -498 0
-63 -403 -499 0
-64 -404 -500 0
-61 -405 -501 0
-62 -406 -502 0
-63 -407 -503 0
-64 -408 -504 0
-61 -409 -505 0
-62 -410 -506 0
-63 -411 -507 0
-64 -412 -508 0
-61 -413 -509 0
-62 -414 -510 0
-63 -415 -511 0
-64 -416 -512 0
-61 -417 -513 0
-62 -418 -514 0
-63 -419 -515 0
-64 -420 -516 0
-61 -421 -517 0
-62 -422 -518 0
-63 -423 -519 0
-64 -424 -520 0
-61 -425 -521 0
-62 -426 -522 0
-63 -427 -523 0
-64 -428 -524 0
-61 -429 -525 0
-62 -430 -526 0
-63 -431 -527 0
-64 -432 -528 0
-61 -433 -529 0
-62 -434 -530 0
-63 -435 -531 0
-64 -436 -532 0
-61 -437 -533 0
-62 -438 -534 0
-63 -439 -535 0
-64 -440 -536 0
-61 -441 -537 0
-62 -442 -538 0
-63 -443 -539 0
-64 -444 -540 0
-61 -445 -541 0
-62 -446 -542 0
-63 -447 -543 0
-64 -448 -544 0
-61 -449 -545 0
-62 -450 -546 0
-63 -451 -547 0
-64 -452 -548 0
-61 -453 -549 0
-62 -454 -550 0
-63 -455 -551 0
-64 -456 -552 0
-61 -457 -553 0
-62 -458 -554 0
-63 -459 -555 0
-64 -460 -556 0
-61 -461 -557 0
-62 -462 -558 0
-63 -463 -559 0
-64 -464 -560 0
-61 -465 -561 0
-62 -466 -562 0
-63 -467 -563 0
-64 -468 -564 0
-61 -469 -565 0
-62 -470 -566 0
-63 -471 -567 0
-64 -472 -568 0
-61 -473 -569 0
-62 -474 -570 0
-63 -475 -571 0
-64 -476 -572 0
-61 -477 -573 0
-62 -478 -574 0
-63 -479 -575 0
-64 -480 -576 0
-61 -481 -577 0
-62 -482 -578 0
-63 -483 -579 0
-64 -484 -580 0
-61 -485 -581 0
-62 -486 -582 0
-63 -487 -583 0
-64 -488 -584 0
-61 -489 -585 0
-62 -490 -586 0
-63 -491 -587 0
-64 -492 -588 0
-61 -493 -589 0
-62 -494 -590 0
-63 -495 -591 0
-64 -496 -592 0
-61 -497 -593 0
-62 -498 -594 0
-63 -499 -595 0
-64 -500 -596 0
-61 -501 -597 0
-62 -502 -598 0
-63 -503 -599 0
-64 -504 -600 0
-61 -505 -601 0
-62 -506 -602 0
-63 -507 -603 0
-64 -508 -604 0
-61 -509 -605 0
-62 -510 -606 0
-63 -511 -607 0
-64 -512 -608 0
-61 -513 -609 0
-62 -514 -610 0
-63 -515 -611 0
-64 -516 -612 0
-61 -517 -613 0
-62 -518 -614 0
-63 -519 -615 0
-64 -520 -616 0
-61 -521 -617 0
-62 -522 -618 0
-63 -523 -619 0
-64 -524 -620 0
-61 -525 -621 0
-62 -526 -622 0
-63 -527 -623 0
-64 -528 -624 0
-61 -529 -625 0
-62 -530 -626 0
-63 -531 -627 0
-64 -532 -628 0
-61 -533 -629 0
-62 -534 -630 0
-63 -535 -631 0
-64 -536 -632 0
-61 -537 -633 0
-62 -538 -634 0
-63 -539 -635 0
-64 -540 -636 0
-61 -541 -637 0
-62 -542 -638 0
-63 -543 -639 0
-64 -544 -640 0
-61 -545 -641 0
-62 -546 -642 0
-63 -547 -643 0
-64 -548 -644 0
-61 -549 -645 0
-62 -550 -646 0
-63 -551 -647 0
-64 -552 -648 0
-61 -553 -649 0
-62 -554 -650 0
-63 -555 -651 0
-64 -556 -652 0
-61 -557 -653 0
-62 -558 -654 0
-63 -559 -655 0
-64 -560 -656 0
-61 -561 -657 0
-62 -562 -658 0
-63 -563 -659 0
-64 -564 -660 0
-61 -565 -661 0
-62 -566 -662 0
-63 -567 -663 0
-64 -568 -664 0
-61 -569 -665 0
-62 -570 -666 0
-63 -571 -667 0
-64 -572 -668 0
-61 -573 -669 0
-62 -574 -670 0
-63 -575 -671 0
-64 -576 -672 0
-61 -577 -673 0
-62 -578 -674 0
-63 -579 -675 0
-64 -580 -676 0
-61 -581 -677 0
-62 -582 -678 0
-63 -583 -679 0
-64 -584 -680 0
-61 -585 -681 0
-62 -586 -682 0
-63 -587 -683 0
-64 -588 -684 0
-61 -589 -685 0
-62 -590 -686 0
-63 -591 -687 0
-64 -592 -688 0
-61 -593 -689 0
-62 -594 -690 0
-63 -595 -691 0
-64 -596 -692 0
-61 -597 -693 0
-62 -598 -694 0
-63 -599 -695 0
-64 -600 -696 0
-61 -601 -697 0
-62 -602 -698 0
-63 -603 -699 0
-64 -604 -700 0
-61 -605 -701 0
-62 -606 -702 0
-63 -607 -703 0
-64 -608 -704 0
-61 -609 -705 0
-62 -610 -706 0
-63 -611 -707 0
-64 -612 -708 0
-61 -613 -709 0
-62 -614 -710 0
-63 -615 -711 0
-64 -616 -712 0
-61 -617 -713 0
-62 -618 -714 0
-63 -619 -715 0
-64 -620 -716 0
-61 -621 -717 0
-62 -622 -718 0
-63 -623 -719 0
-64 -624 -720 0
-61 -625 -721 0
-62 -626 -722 0
-63 -627 -723 0
-64 -628 -724 0
-61 -629 -725 0
-62 -630 -726 0
-63 -631 -727 0
-64 -632 -728 0
-61 -633 -729 0
-62 -634 -730 0
-63 -635 -731 0
-64 -636 -732 0
-61 -637 -733 0
-62 -638 -734 0
-63 -639 -735 0
-64 -640 -736 0
-61 -641 -737 0
-62 -642 -738 0
-63 -643 -739 0
-64 -644 -740 0
-61 -645 -741 0
-62 -646 -742 0
-63 -647 -743 0
-64 -648 -744 0
-61 -649 -745 0
-62 -650 -746 0
-63 -651 -747 0
-64 -652 -748 0
-61 -653 -749 0
-62 -654 -750 0
-63 -655 -751 0
-64 -656 -752 0
-61 -657 -753 0
-62 -658 -754 0
-63 -659 -755 0
-64 -660 -756 0
-61 -661 -757 0
-62 -662 -758 0
-63 -663 -759 0
-64 -664 -760 0
-61 -665 -761 0
-62 -666 -762 0
-63 -667 -763 0
-64 -668 -764 0
-61 -669 -765 0
-62 -670 -766 0
-63 -671 -767 0
-64 -672 -768 0
-61 -673 -769 0
-62 -674 -770 0
-63 -675 -771 0
-64 -676 -772 0
-61 -677 -773 0
-62 -678 -774 0
-63 -679 -775 0
-64 -680 -776 0
-61 -681 -777 0
-62 -682 -778 0
-63 -683 -779 0
-64 -684 -780 0
-61 -685 -781 0
-62 -686 -782 0
-63 -687 -783 0
-64 -688 -784 0
-61 -689 -785 0
-62 -690 -786 0
-63 -691 -787 0
-64 -692 -788 0
-61 -693 -789 0
-62 -694 -790 0
-63 -695 -791 0
-64 -696 -792 0
-61 -697 -793 0
-62 -698 -794 0
-63 -699 -795 0
-64 -700 -796 0
-61 -701 -797 0
-62 -702 -798 0
-63 -703 -799 0
-64 -704 -800 0
-61 -705 -801 0
-62 -706 -802 0
-63 -707 -803 0
-64 -708 -804 0
-61 -709 -805 0
-62 -710 -806 0
-63 -711 -807 0
-64 -712 -808 0
-61 -713 -809 0
-62 -714 -810 0
-63 -715 -811 0
-64 -716 -812 0
-61 -717 -813 0
-62 -718 -814 0
-63 -719 -815 0
-64 -720 -816 0
-61 -721 -817 0
-62 -722 -818 0
-63 -723 -819 0
-64 -724 -820 0
-61 -725 -821 0
-62 -726 -822 0
-63 -727 -823 0
-64 -728 -824 0
-61 -729 -825 0
-62 -730 -826 0
-63 -731 -827 0
-64 -732 -828 0
-61 -733 -829 0
-62 -734 -830 0
-63 -735 -831 0
-64 -736 -832 0
-61 -737 -833 0
-62 -738 -834 0
-63 -739 -835 0
-64 -740 -836 0
-61 -741 -837 0
-62 -742 -838 0
-63 -743 -839 0
-64 -744 -840 0
-61 -745 -841 0
-62 -746 -842 0
-63 -747 -843 0
-64 -748 -844 0
-61 -749 -845 0
-62 -750 -846 0
-63 -751 -847 0
-64 -752 -848 0
-61 -753 -849 0
-62 -754 -850 0
-63 -755 -851 0
-64 -756 -852 0
-61 -757 -853 0
-62 -758 -854 0
-63 -759 -855 0
-64 -760 -856 0
-61 -761 -857 0
-62 -762 -858 0
-63 -763 -859 0
-64 -764 -860 0
-61 -765 -861 0
-62 -766 -862 0
-63 -767 -863 0
-64 -768 -864 0
-61 -769 -865 0
-62 -770 -866 0
-63 -771 -867 0
-64 -772 -868 0
-61 -773 -869 0
-62 -774 -870 0
-63 -775 -871 0
-64 -776 -872 0
-61 -777 -873 0
-62 -778 -874 0
-63 -779 -875 0
-64 -780 -876 0
-61 -781 -877 0
-62 -782 -878 0
-63 -783 -879 0
-64 -784 -880 0
-61 -785 -881 0
-62 -786 -882 0
-63 -787 -883 0
-64 -788 -884 0
-61 -789 -885 0
-62 -790 -886 0
-63 -791 -887 0
-64 -792 -888 0
-61 -793 -889 0
-62 -794 -890 0
-63 -795 -891 0
-64 -796 -892 0
-61 -797 -893 0
-62 -798 -894 0
-63 -799 -895 0
-64 -800 -896 0
-61 -801 -897 0
-62 -802 -898 0
-63 -803 -899 0
-64 -804 -900 0
-61 -805 -901 0
-62 -806 -902 0
-63 -807 -903 0
-64 -808 -904 0
-1 -69 -109 0
-2 -70 -110 0
-3 -71 -111 0
-4 -72 -112 0
-5 -69 -113 0
-6 -70 -114 0
-7 -71 -115 0
-8 -72 -116 0
-9 -69 -117 0
-10 -70 -118 0
-11 -71 -119 0
-12 -72 -120 0
-13 -69 -121 0
-14 -70 -122 0
-15 -71 -123 0
-16 -72 -124 0
-17 -69 -125 0
-18 -70 -126 0
-19 -71 -127 0
-20 -72 -128 0
-21 -69 -129 0
-22 -70 -130 0
-23 -71 -131 0
-24 -72 -132 0
-25 -69 -133 0
-26 -70 -134 0
-27 -71 -135 0
-28 -72 -136 0
-29 -69 -137 0
-30 -70 -138 0
-31 -71 -139 0
-32 -72 -140 0
-33 -69 -141 0
-34 -70 -142 0
-35 -71 -143 0
-36 -72 -144 0
-37 -69 -145 0
-38 -70 -146 0
-39 -71 -147 0
-40 -72 -148 0
-41 -69 -149 0
-42 -70 -150 0
-43 -71 -151 0
-44 -72 -152 0
-45 -69 -153 0
-46 -70 -154 0
-47 -71 -155 0
-48 -72 -156 0
-49 -69 -157 0
-50 -70 -158 0
-51 -71 -159 0
-52 -72 -160 0
-53 -69 -161 0
-54 -70 -162 0
-55 -71 -163 0
-56 -72 -164 0
-57 -69 -165 0
-58 -70 -166 0
-59 -71 -167 0
-60 -72 -168 0
-61 -69 -169 0
-62 -70 -170 0
-63 -71 -171 0
-64 -72 -172 0
-65 -69 -173 0
-66 -70 -174 0
-67 -71 -175 0
-68 -72 -176 0
-69 -177 0
-70 -178 0
-71 -179 0
-72 -180 0
-69 -73 -181 0
-70 -74 -182 0
-71 -75 -183 0
-72 -76 -184 0
-69 -77 -185 0
-70 -78 -186 0
-71 -79 -187 0
-72 -80 -188 0
-69 -81 -189 0
-70 -82 -190 0
-71 -83 -191 0
-72 -84 -192 0
-69 -85 -193 0
-70 -86 -194 0
-71 -87 -195 0
-72 -88 -196 0
-69 -89 -197 0
-70 -90 -198 0
-71 -91 -199 0
-72 -92 -200 0
-69 -93 -201 0
-70 -94 -202 0
-71 -95 -203 0
-72 -96 -204 0
-69 -97 -205 0
-70 -98 -206 0
-71 -99 -207 0
-72 -100 -208 0
-69 -101 -209 0
-70 -102 -210 0
-71 -103 -211 0
-72 -104 -212 0
-69 -105 -213 0
-70 -106 -214 0
-71 -107 -215 0
-72 -108 -216 0
-69 -109 -217 0
-70 -110 -218 0
-71 -111 -219 0
-72 -112 -220 0
-69 -113 -221 0
-70 -114 -222 0
-71 -115 -223 0
-72 -116 -224 0
-69 -117 -225 0
-70 -118 -226 0
-71 -119 -227 0
-72 -120 -228 0
-69 -121 -229 0
-70 -122 -230 0
-71 -123 -231 0
-72 -124 -232 0
-69 -125 -233 0
-70 -126 -234 0
-71 -127 -235 0
-72 -128 -236 0
-69 -129 -237 0
-70 -130 -238 0
-71 -131 -239 0
-72 -132 -240 0
-69 -133 -241 0
-70 -134 -242 0
-71 -135 -243 0
-72 -136 -244 0
-69 -137 -245 0
-70 -138 -246 0
-71 -139 -247 0
-72 -140 -248 0
-69 -141 -249 0
-70 -142 -250 0
-71 -143 -251 0
-72 -144 -252 0
-69 -145 -253 0
-70 -146 -254 0
-71 -147 -255 0
-72 -148 -256 0
-69 -149 -257 0
-70 -150 -258 0
-71 -151 -259 0
-72 -152 -260 0
-69 -153 -261 0
-70 -154 -262 0
-71 -155 -263 0
-72 -156 -264 0
-69 -157 -265 0
-70 -158 -266 0
-71 -159 -267 0
-72 -160 -268 0
-69 -161 -269 0
-70 -162 -270 0
-71 -163 -271 0
-72 -164 -272 0
-69 -165 -273 0
-70 -166 -274 0
-71 -167 -275 0
-72 -168 -276 0
-69 -169 -277 0
-70 -170 -278 0
-71 -171 -279 0
-72 -172 -280 0
-69 -173 -281 0
-70 -174 -282 0
-71 -175 -283 0
-72 -176 -284 0
-69 -177 -285 0
-70 -178 -286 0
-71 -179 -287 0
-72 -180 -288 0
-69 -181 -289 0
-70 -182 -290 0
-71 -183 -291 0
-72 -184 -292 0
-69 -185 -293 0
-70 -186 -294 0
-71 -187 -295 0
-72 -188 -296 0
-69 -189 -297 0
-70 -190 -298 0
-71 -191 -299 0
-72 -192 -300 0
-69 -193 -301 0
-70 -194 -302 0
-71 -195 -303 0
-72 -196 -304 0
-69 -197 -305 0
-70 -198 -306 0
-71 -199 -307 0
-72 -200 -308 0
-69 -201 -309 0
-70 -202 -310 0
-71 -203 -311 0
-72 -204 -312 0
-69 -205 -313 0
-70 -206 -314 0
-71 -207 -315 0
-72 -208 -316 0
-69 -209 -317 0
-70 -210 -318 0
-71 -211 -319 0
-72 -212 -320 0
-69 -213 -321 0
-70 -214 -322 0
-71 -215 -323 0
-72 -216 -324 0
-69 -217 -325 0
-70 -218 -326 0
-71 -219 -327 0
-72 -220 -328 0
-69 -221 -329 0
-70 -222 -330 0
-71 -223 -331 0
-72 -224 -332 0
-69 -225 -333 0
-70 -226 -334 0
-71 -227 -335 0
-72 -228 -336 0
-69 -229 -337 0
-70 -230 -338 0
-71 -231 -339 0
-72 -232 -340 0
-69 -233 -341 0
-70 -234 -342 0
-71 -235 -343 0
-72 -236 -344 0
-69 -237 -345 0
-70 -238 -346 0
-71 -239 -347 0
-72 -240 -348 0
-69 -241 -349 0
-70 -242 -350 0
-71 -243 -351 0
-72 -244 -352 0
-69 -245 -353 0
-70 -246 -354 0
-71 -247 -355 0
-72 -248 -356 0
-69 -249 -357 0
-70 -250 -358 0
-71 -251 -359 0
-72 -252 -360 0
-69 -253 -361 0
-70 -254 -362 0
-71 -255 -363 0
-72 -256 -364 0
-69 -257 -365 0
-70 -258 -366 0
-71 -259 -367 0
-72 -260 -368 0
-69 -261 -369 0
-70 -262 -370 0
-71 -263 -371 0
-72 -264 -372 0
-69 -265 -373 0
-70 -266 -374 0
-71 -267 -375 0
-72 -268 -376 0
-69 -269 -377 0
-70 -270 -378 0
-71 -271 -379 0
-72 -272 -380 0
-69 -273 -381 0
-70 -274 -382 0
-71 -275 -383 0
-72 -276 -384 0
-69 -277 -385 0
-70 -278 -386 0
-71 -279 -387 0
-72 -280 -388 0
-69 -281 -389 0
-70 -282 -390 0
-71 -283 -391 0
-72 -284 -392 0
-69 -285 -393 0
-70 -286 -394 0
-71 -287 -395 0
-72 -288 -396 0
-69 -289 -397 0
-70 -290 -398 0
-71 -291 -399 0
-72 -292 -400 0
-69 -293 -401 0
-70 -294 -402 0
-71 -295 -403 0
-72 -296 -404 0
-69 -297 -405 0
-70 -298 -406 0
-71 -299 -407 0
-72 -300 -408 0
-69 -301 -409 0
-70 -302 -410 0
-71 -303 -411 0
-72 -304 -412 0
-69 -305 -413 0
-70 -306 -414 0
-71 -307 -415 0
-72 -308 -416 0
-69 -309 -417 0
-70 -310 -418 0
-71 -311 -419 0
-72 -312 -420 0
-69 -313 -421 0
-70 -314 -422 0
-71 -315 -423 0
-72 -316 -424 0
-69 -317 -425 0
-70 -318 -426 0
-71 -319 -427 0
-72 -320 -428 0
-69 -321 -429 0
-70 -322 -430 0
-71 -323 -431 0
-72 -324 -432 0
-69 -325 -433 0
-70 -326 -434 0
-71 -327 -435 0
-72 -328 -436 0
-69 -329 -437 0
-70 -330 -438 0
-71 -331 -439 0
-72 -332 -440 0
-69 -333 -441 0
-70 -334 -442 0
-71 -335 -443 0
-72 -336 -444 0
-69 -337 -445 0
-70 -338 -446 0
-71 -339 -447 0
-72 -340 -448 0
-69 -341 -449 0
-70 -342 -450 0
-71 -343 -451 0
-72 -344 -452 0
-69 -345 -453 0
-70 -346 -454 0
-71 -347 -455 0
-72 -348 -456 0
-69 -349 -457 0
-70 -350 -458 0
-71 -351 -459 0
-72 -352 -460 0
-69 -353 -461 0
-70 -354 -462 0
-71 -355 -463 0
-72 -356 -464 0
-69 -357 -465 0
-70 -358 -466 0
-71 -359 -467 0
-72 -360 -468 0
-69 -361 -469 0
-70 -362 -470 0
-71 -363 -471 0
-72 -364 -472 0
-69 -365 -473 0
-70 -366 -474 0
-71 -367 -475 0
-72 -368 -476 0
-69 -369 -477 0
-70 -370 -478 0
-71 -371 -479 0
-72 -372 -480 0
-69 -373 -481 0
-70 -374 -482 0
-71 -375 -483 0
-72 -376 -484 0
-69 -377 -485 0
-70 -378 -486 0
-71 -379 -487 0
-72 -380 -488 0
-69 -381 -489 0
-70 -382 -490 0
-71 -383 -491 0
-72 -384 -492 0
-69 -385 -493 0
-70 -386 -494 0
-71 -387 -495 0
-72 -388 -496 0
-69 -389 -497 0
-70 -390 -498 0
-71 -391 -499 0
-72 -392 -500 0
-69 -393 -501 0
-70 -394 -502 0
-71 -395 -503 0
-72 -396 -504 0
-69 -397 -505 0
-70 -398 -506 0
-71 -399 -507 0
-72 -400 -508 0
-69 -401 -509 0
-70 -402 -510 0
-71 -403 -511 0
-72 -404 -512 0
-69 -405 -513 0
-70 -406 -514 0
-71 -407 -515 0
-72 -408 -516 0
-69 -409 -517 0
-70 -410 -518 0
-71 -411 -519 0
-72 -412 -520 0
-69 -413 -521 0
-70 -414 -522 0
-71 -415 -523 0
-72 -416 -524 0
-69 -417 -525 0
-70 -418 -526 0
-71 -419 -527 0
-72 -420 -528 0
-69 -421 -529 0
-70 -422 -530 0
-71 -423 -531 0
-72 -424 -532 0
-69 -425 -533 0
-70 -426 -534 0
-71 -427 -535 0
-72 -428 -536 0
-69 -429 -537 0
-70 -430 -538 0
-71 -431 -539 0
-72 -432 -540 0
-69 -433 -541 0
-70 -434 -542 0
-71 -435 -543 0
-72 -436 -544 0
-69 -437 -545 0
-70 -438 -546 0
-71 -439 -547 0
-72 -440 -548 0
-69 -441 -549 0
-70 -442 -550 0
-71 -443 -551 0
-72 -444 -552 0
-69 -445 -553 0
-70 -446 -554 0
-71 -447 -555 0
-72 -448 -556 0
-69 -449 -557 0
-70 -450 -558 0
-71 -451 -559 0
-72 -452 -560 0
-69 -453 -561 0
-70 -454 -562 0
-71 -455 -563 0
-72 -456 -564 0
-69 -457 -565 0
-70 -458 -566 0
-71 -459 -567 0
-72 -460 -568 0
-69 -461 -569 0
-70 -462 -570 0
-71 -463 -571 0
-72 -464 -572 0
-69 -465 -573 0
-70 -466 -574 0
-71 -467 -575 0
-72 -468 -576 0
-69 -469 -577 0
-70 -470 -578 0
-71 -471 -579 0
-72 -472 -580 0
-69 -473 -581 0
-70 -474 -582 0
-71 -475 -583 0
-72 -476 -584 0
-69 -477 -585 0
-70 -478 -586 0
-71 -479 -587 0
-72 -480 -588 0
-69 -481 -589 0
-70 -482 -590 0
-71 -483 -591 0
-72 -484 -592 0
-69 -485 -593 0
-70 -486 -594 0
-71 -487 -595 0
-72 -488 -596 0
-69 -489 -597 0
-70 -490 -598 0
-71 -491 -599 0
-72 -492 -600 0
-69 -493 -601 0
-70 -494 -602 0
-71 -495 -603 0
-72 -496 -604 0
-69 -497 -605 0
-70 -498 -606 0
-71 -499 -607 0
-72 -500 -608 0
-69 -501 -609 0
-70 -502 -610 0
-71 -503 -611 0
-72 -504 -612 0
-69 -505 -613 0
-70 -506 -614 0
-71 -507 -615 0
-72 -508 -616 0
-69 -509 -617 0
-70 -510 -618 0
-71 -511 -619 0
-72 -512 -620 0
-69 -513 -621 0
-70 -514 -622 0
-71 -515 -623 0
-72 -516 -624 0
-69 -517 -625 0
-70 -518 -626 0
-71 -519 -627 0
-72 -520 -628 0
-69 -521 -629 0
-70 -522 -630 0
-71 -523 -631 0
-72 -524 -632 0
-69 -525 -633 0
-70 -526 -634 0
-71 -527 -635 0
-72 -528 -636 0
-69 -529 -637 0
-70 -530 -638 0
-71 -531 -639 0
-72 -532 -640 0
-69 -533 -641 0
-70 -534 -642 0
-71 -535 -643 0
-72 -536 -644 0
-69 -537 -645 0
-70 -538 -646 0
-71 -539 -647 0
-72 -540 -648 0
-69 -541 -649 0
-70 -542 -650 0
-71 -543 -651 0
-72 -544 -652 0
-69 -545 -653 0
-70 -546 -654 0
-71 -547 -655 0
-72 -548 -656 0
-69 -549 -657 0
-70 -550 -658 0
-71 -551 -659 0
-72 -552 -660 0
-69 -553 -661 0
-70 -554 -662 0
-71 -555 -663 0
-72 -556 -664 0
-69 -557 -665 0
-70 -558 -666 0
-71 -559 -667 0
-72 -560 -668 0
-69 -561 -669 0
-70 -562 -670 0
-71 -563 -671 0
-72 -564 -672 0
-69 -565 -673 0
-70 -566 -674 0
-71 -567 -675 0
-72 -568 -676 0
-69 -569 -677 0
-70 -570 -678 0
-71 -571 -679 0
-72 -572 -680 0
-69 -573 -681 0
-70 -574 -682 0
-71 -575 -683 0
-72 -576 -684 0
-69 -577 -685 0
-70 -578 -686 0
-71 -579 -687 0
-72 -580 -688 0
-69 -581 -689 0
-70 -582 -690 0
-71 -583 -691 0
-72 -584 -692 0
-69 -585 -693 0
-70 -586 -694 0
-71 -587 -695 0
-72 -588 -696 0
-69 -589 -697 0
-70 -590 -698 0
-71 -591 -699 0
-72 -592 -700 0
-69 -593 -701 0
-70 -594 -702 0
-71 -595 -703 0
-72 -596 -704 0
-69 -597 -705 0
-70 -598 -706 0
-71 -599 -707 0
-72 -600 -708 0
-69 -601 -709 0
-70 -602 -710 0
-71 -603 -711 0
-72 -604 -712 0
-69 -605 -713 0
-70 -606 -714 0
-71 -607 -715 0
-72 -608 -716 0
-69 -609 -717 0
-70 -610 -718 0
-71 -611 -719 0
-72 -612 -720 0
-69 -613 -721 0
-70 -614 -722 0
-71 -615 -723 0
-72 -616 -724 0
-69 -617 -725 0
-70 -618 -726 0
-71 -619 -727 0
-72 -620 -728 0
-69 -621 -729 0
-70 -622 -730 0
-71 -623 -731 0
-72 -624 -732 0
-69 -625 -733 0
-70 -626 -734 0
-71 -627 -735 0
-72 -628 -736 0
-69 -629 -737 0
-70 -630 -738 0
-71 -631 -739 0
-72 -632 -740 0
-69 -633 -741 0
-70 -634 -742 0
-71 -635 -743 0
-72 -636 -744 0
-69 -637 -745 0
-70 -638 -746 0
-71 -639 -747 0
-72 -640 -748 0
-69 -641 -749 0
-70 -642 -750 0
-71 -643 -751 0
-72 -644 -752 0
-69 -645 -753 0
-70 -646 -754 0
-71 -647 -755 0
-72 -648 -756 0
-69 -649 -757 0
-70 -650 -758 0
-71 -651 -759 0
-72 -652 -760 0
-69 -653 -761 0
-70 -654 -762 0
-71 -655 -763 0
-72 -656 -764 0
-69 -657 -765 0
-70 -658 -766 0
-71 -659 -767 0
-72 -660 -768 0
-69 -661 -769 0
-70 -662 -770 0
-71 -663 -771 0
-72 -664 -772 0
-69 -665 -773 0
-70 -666 -774 0
-71 -667 -775 0
-72 -668 -776 0
-69 -669 -777 0
-70 -670 -778 0
-71 -671 -779 0
-72 -672 -780 0
-69 -673 -781 0
-70 -674 -782 0
-71 -675 -783 0
-72 -676 -784 0
-69 -677 -785 0
-70 -678 -786 0
-71 -679 -787 0
-72 -680 -788 0
-69 -681 -789 0
-70 -682 -790 0
-71 -683 -791 0
-72 -684 -792 0
-69 -685 -793 0
-70 -686 -794 0
-71 -687 -795 0
-72 -688 -796 0
-69 -689 -797 0
-70 -690 -798 0
-71 -691 -799 0
-72 -692 -800 0
-69 -693 -801 0
-70 -694 -802 0
-71 -695 -803 0
-72 -696 -804 0
-69 -697 -805 0
-70 -698 -806 0
-71 -699 -807 0
-72 -700 -808 0
-69 -701 -809 0
-70 -702 -810 0
-71 -703 -811 0
-72 -704 -812 0
-69 -705 -813 0
-70 -706 -814 0
-71 -707 -815 0
-72 -708 -816 0
-69 -709 -817 0
-70 -710 -818 0
-71 -711 -819 0
-72 -712 -820 0
-69 -713 -821 0
-70 -714 -822 0
-71 -715 -823 0
-72 -716 -824 0
-69 -717 -825 0
-70 -718 -826 0
-71 -719 -827 0
-72 -720 -828 0
-69 -721 -829 0
-70 -722 -830 0
-71 -723 -831 0
-72 -724 -832 0
-69 -725 -833 0
-70 -726 -834 0
-71 -727 -835 0
-72 -728 -836 0
-69 -729 -837 0
-70 -730 -838 0
-71 -731 -839 0
-72 -732 -840 0
-69 -733 -841 0
-70 -734 -842 0
-71 -735 -843 0
-72 -736 -844 0
-69 -737 -845 0
-70 -738 -846 0
-71 -739 -847 0
-72 -740 -848 0
-69 -741 -849 0
-70 -742 -850 0
-71 -743 -851 0
-72 -744 -852 0
-69 -745 -853 0
-70 -746 -854 0
-71 -747 -855 0
-72 -748 -856 0
-69 -749 -857 0
-70 -750 -858 0
-71 -751 -859 0
-72 -752 -860 0
-69 -753 -861 0
-70 -754 -862 0
-71 -755 -863 0
-72 -756 -864 0
-69 -757 -865 0
-70 -758 -866 0
-71 -759 -867 0
-72 -760 -868 0
-69 -761 -869 0
-70 -762 -870 0
-71 -763 -871 0
-72 -764 -872 0
-69 -765 -873 0
-70 -766 -874 0
-71 -767 -875 0
-72 -768 -876 0
-69 -769 -877 0
-70 -770 -878 0
-71 -771 -879 0
-72 -772 -880 0
-69 -773 -881 0
-70 -774 -882 0
-71 -775 -883 0
-72 -776 -884 0
-69 -777 -885 0
-70 -778 -886 0
-71 -779 -887 0
-72 -780 -888 0
-69 -781 -889 0
-70 -782 -890 0
-71 -783 -891 0
-72 -784 -892 0
-69 -785 -893 0
-70 -786 -894 0
-71 -787 -895 0
-72 -788 -896 0
-69 -789 -897 0
-70 -790 -898 0
-71 -791 -899 0
-72 -792 -900 0
-69 -793 -901 0
-70 -794 -902 0
-71 -795 -903 0
-72 -796 -904 0
-1 -77 -121 0
-2 -78 -122 0
-3 -79 -123 0
-4 -80 -124 0
-5 -77 -125 0
-6 -78 -126 0
-7 -79 -127 0
-8 -80 -128 0
-9 -77 -129 0
-10 -78 -130 0
-11 -79 -131 0
-12 -80 -132 0
-13 -77 -133 0
-14 -78 -134 0
-15 -79 -135 0
-16 -80 -136 0
-17 -77 -137 0
-18 -78 -138 0
-19 -79 -139 0
-20 -80 -140 0
-21 -77 -141 0
-22 -78 -142 0
-23 -79 -143 0
-24 -80 -144 0
-25 -77 -145 0
-26 -78 -146 0
-27 -79 -147 0
-28 -80 -148 0
-29 -77 -149 0
-30 -78 -150 0
-31 -79 -151 0
-32 -80 -152 0
-33 -77 -153 0
-34 -78 -154 0
-35 -79 -155 0
-36 -80 -156 0
-37 -77 -157 0
-38 -78 -158 0
-39 -79 -159 0
-40 -80 -160 0
-41 -77 -161 0
-42 -78 -162 0
-43 -79 -163 0
-44 -80 -164 0
-45 -77 -165 0
-46 -78 -166 0
-47 -79 -167 0
-48 -80 -168 0
-49 -77 -169 0
-50 -78 -170 0
-51 -79 -171 0
-52 -80 -172 0
-53 -77 -173 0
-54 -78 -174 0
-55 -79 -175 0
-56 -80 -176 0
-57 -77 -177 0
-58 -78 -178 0
-59 -79 -179 0
-60 -80 -180 0
-61 -77 -181 0
-62 -78 -182 0
-63 -79 -183 0
-64 -80 -184 0
-65 -77 -185 0
-66 -78 -186 0
-67 -79 -187 0
-68 -80 -188 0
-69 -77 -189 0
-70 -78 -190 0
-71 -79 -191 0
-72 -80 -192 0
-73 -77 -193 0
-74 -78 -194 0
-75 -79 -195 0
-76 -80 -196 0
-77 -197 0
-78 -198 0
-79 -199 0
-80 -200 0
-77 -81 -201 0
-78 -82 -202 0
-79 -83 -203 0
-80 -84 -204 0
-77 -85 -205 0
-78 -86 -206 0
-79 -87 -207 0
-80 -88 -208 0
-77 -89 -209 0
-78 -90 -210 0
-79 -91 -211 0
-80 -92 -212 0
-77 -93 -213 0
-78 -94 -214 0
-79 -95 -215 0
-80 -96 -216 0
-77 -97 -217 0
-78 -98 -218 0
-79 -99 -219 0
-80 -100 -220 0
-77 -101 -221 0
-78 -102 -222 0
-79 -103 -223 0
-80 -104 -224 0
-77 -105 -225 0
-78 -106 -226 0
-79 -107 -227 0
-80 -108 -228 0
-77 -109 -229 0
-78 -110 -230 0
-79 -111 -231 0
-80 -112 -232 0
-77 -113 -233 0
-78 -114 -234 0
-79 -115 -235 0
-80 -116 -236 0
-77 -117 -237 0
-78 -118 -238 0
-79 -119 -239 0
-80 -120 -240 0
-77 -121 -241 0
-78 -122 -242 0
-79 -123 -243 0
-80 -124 -244 0
-77 -125 -245 0
-78 -126 -246 0
-79 -127 -247 0
-80 -128 -248 0
-77 -129 -249 0
-78 -130 -250 0
-79 -131 -251 0
-80 -132 -252 0
-77 -133 -253 0
-78 -134 -254 0
-79 -135 -255 0
-80 -136 -256 0
-77 -137 -257 0
-78 -138 -258 0
-79 -139 -259 0
-80 -140 -260 0
-77 -141 -261 0
-78 -142 -262 0
-79 -143 -263 0
-80 -144 -264 0
-77 -145 -265 0
-78 -146 -266 0
-79 -147 -267 0
-80 -148 -268 0
-77 -149 -269 0
-78 -150 -270 0
-79 -151 -271 0
-80 -152 -272 0
-77 -153 -273 0
-78 -154 -274 0
-79 -155 -275 0
-80 -156 -276 0
-77 -157 -277 0
-78 -158 -278 0
-79 -159 -279 0
-80 -160 -280 0
-77 -161 -281 0
-78 -162 -282 0
-79 -163 -283 0
-80 -164 -284 0
-77 -165 -285 0
-78 -166 -286 0
-79 -167 -287 0
-80 -168 -288 0
-77 -169 -289 0
-78 -170 -290 0
-79 -171 -291 0
-80 -172 -292 0
-77 -173 -293 0
-78 -174 -294 0
-79 -175 -295 0
-80 -176 -296 0
-77 -177 -297 0
-78 -178 -298 0
-79 -179 -299 0
-80 -180 -300 0
-77 -181 -301 0
-78 -182 -302 0
-79 -183 -303 0
-80 -184 -304 0
-77 -185 -305 0
-78 -186 -306 0
-79 -187 -307 0
-80 -188 -308 0
-77 -189 -309 0
-78 -190 -310 0
-79 -191 -311 0
-80 -192 -312 0
-77 -193 -313 0
-78 -194 -314 0
-79 -195 -315 0
-80 -196 -316 0
-77 -197 -317 0
-78 -198 -318 0
-79 -199 -319 0
-80 -200 -320 0
-77 -201 -321 0
-78 -202 -322 0
-79 -203 -323 0
-80 -204 -324 0
-77 -205 -325 0
-78 -206 -326 0
-79 -207 -327 0
-80 -208 -328 0
-77 -209 -329 0
-78 -210 -330 0
-79 -211 -331 0
-80 -212 -332 0
-77 -213 -333 0
-78 -214 -334 0
-79 -215 -335 0
-80 -216 -336 0
-77 -217 -337 0
-78 -218 -338 0
-79 -219 -339 0
-80 -220 -340 0
-77 -221 -341 0
-78 -222 -342 0
-79 -223 -343 0
-80 -224 -344 0
-77 -225 -345 0
-78 -226 -346 0
-79 -227 -347 0
-80 -228 -348 0
-77 -229 -349 0
-78 -230 -350 0
-79 -231 -351 0
-80 -232 -352 0
-77 -233 -353 0
-78 -234 -354 0
-79 -235 -355 0
-80 -236 -356 0
-77 -237 -357 0
-78 -238 -358 0
-79 -239 -359 0
-80 -240 -360 0
-77 -241 -361 0
-78 -242 -362 0
-79 -243 -363 0
-80 -244 -364 0
-77 -245 -365 0
-78 -246 -366 0
-79 -247 -367 0
-80 -248 -368 0
-77 -249 -369 0
-78 -250 -370 0
-79 -251 -371 0
-80 -252 -372 0
-77 -253 -373 0
-78 -254 -374 0
-79 -255 -375 0
-80 -256 -376 0
-77 -257 -377 0
-78 -258 -378 0
-79 -259 -379 0
-80 -260 -380 0
-77 -261 -381 0
-78 -262 -382 0
-79 -263 -383 0
-80 -264 -384 0
-77 -265 -385 0
-78 -266 -386 0
-79 -267 -387 0
-80 -268 -388 0
-77 -269 -389 0
-78 -270 -390 0
-79 -271 -391 0
-80 -272 -392 0
-77 -273 -393 0
-78 -274 -394 0
-79 -275 -395 0
-80 -276 -396 0
-77 -277 -397 0
-78 -278 -398 0
-79 -279 -399 0
-80 -280 -400 0
-77 -281 -401 0
-78 -282 -402 0
-79 -283 -403 0
-80 -284 -404 0
-77 -285 -405 0
-78 -286 -406 0
-79 -287 -407 0
-80 -288 -408 0
-77 -289 -409 0
-78 -290 -410 0
-79 -291 -411 0
-80 -292 -412 0
-77 -293 -413 0
-78 -294 -414 0
-79 -295 -415 0
-80 -296 -416 0
-77 -297 -417 0
-78 -298 -418 0
-79 -299 -419 0
-80 -300 -420 0
-77 -301 -421 0
-78 -302 -422 0
-79 -303 -423 0
-80 -304 -424 0
-77 -305 -425 0
-78 -306 -426 0
-79 -307 -427 0
-80 -308 -428 0
-77 -309 -429 0
-78 -310 -430 0
-79 -311 -431 0
-80 -312 -432 0
-77 -313 -433 0
-78 -314 -434 0
-79 -315 -435 0
-80 -316 -436 0
-77 -317 -437 0
-78 -318 -438 0
-79 -319 -439 0
-80 -320 -440 0
-77 -321 -441 0
-78 -322 -442 0
-79 -323 -443 0
-80 -324 -444 0
-77 -325 -445 0
-78 -326 -446 0
-79 -327 -447 0
-80 -328 -448 0
-77 -329 -449 0
-78 -330 -450 0
-79 -331 -451 0
-80 -332 -452 0
-77 -333 -453 0
-78 -334 -454 0
-79 -335 -455 0
-80 -336 -456 0
-77 -337 -457 0
-78 -338 -458 0
-79 -339 -459 0
-80 -340 -460 0
-77 -341 -461 0
-78 -342 -462 0
-79 -343 -463 0
-80 -344 -464 0
-77 -345 -465 0
-78 -346 -466 0
-79 -347 -467 0
-80 -348 -468 0
-77 -349 -469 0
-78 -350 -470 0
-79 -351 -471 0
-80 -352 -472 0
-77 -353 -473 0
-78 -354 -474 0
-79 -355 -475 0
-80 -356 -476 0
-77 -357 -477 0
-78 -358 -478 0
-79 -359 -479 0
-80 -360 -480 0
-77 -361 -481 0
-78 -362 -482 0
-79 -363 -483 0
-80 -364 -484 0
-77 -365 -485 0
-78 -366 -486 0
-79 -367 -487 0
-80 -368 -488 0
-77 -369 -489 0
-78 -370 -490 0
-79 -371 -491 0
-80 -372 -492 0
-77 -373 -493 0
-78 -374 -494 0
-79 -375 -495 0
-80 -376 -496 0
-77 -377 -497 0
-78 -378 -498 0
-79 -379 -499 0
-80 -380 -500 0
-77 -381 -501 0
-78 -382 -502 0
-79 -383 -503 0
-80 -384 -504 0
-77 -385 -505 0
-78 -386 -506 0
-79 -387 -507 0
-80 -388 -508 0
-77 -389 -509 0
-78 -390 -510 0
-79 -391 -511 0
-80 -392 -512 0
-77 -393 -513 0
-78 -394 -514 0
-79 -395 -515 0
-80 -396 -516 0
-77 -397 -517 0
-78 -398 -518 0
-79 -399 -519 0
-80 -400 -520 0
-77 -401 -521 0
-78 -402 -522 0
-79 -403 -523 0
-80 -404 -524 0
-77 -405 -525 0
-78 -406 -526 0
-79 -407 -527 0
-80 -408 -528 0
-77 -409 -529 0
-78 -410 -530 0
-79 -411 -531 0
-80 -412 -532 0
-77 -413 -533 0
-78 -414 -534 0
-79 -415 -535 0
-80 -416 -536 0
-77 -417 -537 0
-78 -418 -538 0
-79 -419 -539 0
-80 -420 -540 0
-77 -421 -541 0
-78 -422 -542 0
-79 -423 -543 0
-80 -424 -544 0
-77 -425 -545 0
-78 -426 -546 0
-79 -427 -547 0
-80 -428 -548 0
-77 -429 -549 0
-78 -430 -550 0
-79 -431 -551 0
-80 -432 -552 0
-77 -433 -553 0
-78 -434 -554 0
-79 -435 -555 0
-80 -436 -556 0
-77 -437 -557 0
-78 -438 -558 0
-79 -439 -559 0
-80 -440 -560 0
-77 -441 -561 0
-78 -442 -562 0
-79 -443 -563 0
-80 -444 -564 0
-77 -445 -565 0
-78 -446 -566 0
-79 -447 -567 0
-80 -448 -568 0
-77 -449 -569 0
-78 -450 -570 0
-79 -451 -571 0
-80 -452 -572 0
-77 -453 -573 0
-78 -454 -574 0
-79 -455 -575 0
-80 -456 -576 0
-77 -457 -577 0
-78 -458 -578 0
-79 -459 -579 0
-80 -460 -580 0
-77 -461 -581 0
-78 -462 -582 0
-79 -463 -583 0
-80 -464 -584 0
-77 -465 -585 0
-78 -466 -586 0
-79 -467 -587 0
-80 -468 -588 0
-77 -469 -589 0
-78 -470 -590 0
-79 -471 -591 0
-80 -472 -592 0
-77 -473 -593 0
-78 -474 -594 0
-79 -475 -595 0
-80 -476 -596 0
-77 -477 -597 0
-78 -478 -598 0
-79 -479 -599 0
-80 -480 -600 0
-77 -481 -601 0
-78 -482 -602 0
-79 -483 -603 0
-80 -484 -604 0
-77 -485 -605 0
-78 -486 -606 0
-79 -487 -607 0
-80 -488 -608 0
-77 -489 -609 0
-78 -490 -610 0
-79 -491 -611 0
-80 -492 -612 0
-77 -493 -613 0
-78 -494 -614 0
-79 -495 -615 0
-80 -496 -616 0
-77 -497 -617 0
-78 -498 -618 0
-79 -499 -619 0
-80 -500 -620 0
-77 -501 -621 0
-78 -502 -622 0
-79 -503 -623 0
-80 -504 -624 0
-77 -505 -625 0
-78 -506 -626 0
-79 -507 -627 0
-80 -508 -628 0
-77 -509 -629 0
-78 -510 -630 0
-79 -511 -631 0
-80 -512 -632 0
-77 -513 -633 0
-78 -514 -634 0
-79 -515 -635 0
-80 -516 -636 0
-77 -517 -637 0
-78 -518 -638 0
-79 -519 -639 0
-80 -520 -640 0
-77 -521 -641 0
-78 -522 -642 0
-79 -523 -643 0
-80 -524 -644 0
-77 -525 -645 0
-78 -526 -646 0
-79 -527 -647 0
-80 -528 -648 0
-77 -529 -649 0
-78 -530 -650 0
-79 -531 -651 0
-80 -532 -652 0
-77 -533 -653 0
-78 -534 -654 0
-79 -535 -655 0
-80 -536 -656 0
-77 -537 -657 0
-78 -538 -658 0
-79 -539 -659 0
-80 -540 -660 0
-77 -541 -661 0
-78 -542 -662 0
-79 -543 -663 0
-80 -544 -664 0
-77 -545 -665 0
-78 -546 -666 0
-79 -547 -667 0
-80 -548 -668 0
-77 -549 -669 0
-78 -550 -670 0
-79 -551 -671 0
-80 -552 -672 0
-77 -553 -673 0
-78 -554 -674 0
-79 -555 -675 0
-80 -556 -676 0
-77 -557 -677 0
-78 -558 -678 0
-79 -559 -679 0
-80 -560 -680 0
-77 -561 -681 0
-78 -562 -682 0
-79 -563 -683 0
-80 -564 -684 0
-77 -565 -685 0
-78 -566 -686 0
-79 -567 -687 0
-80 -568 -688 0
-77 -569 -689 0
-78 -570 -690 0
-79 -571 -691 0
-80 -572 -692 0
-77 -573 -693 0
-78 -574 -694 0
-79 -575 -695 0
-80 -576 -696 0
-77 -577 -697 0
-78 -578 -698 0
-79 -579 -699 0
-80 -580 -700 0
-77 -581 -701 0
-78 -582 -702 0
-79 -583 -703 0
-80 -584 -704 0
-77 -585 -705 0
-78 -586 -706 0
-79 -587 -707 0
-80 -588 -708 0
-77 -589 -709 0
-78 -590 -710 0
-79 -591 -711 0
-80 -592 -712 0
-77 -593 -713 0
-78 -594 -714 0
-79 -595 -715 0
-80 -596 -716 0
-77 -597 -717 0
-78 -598 -718 0
-79 -599 -719 0
-80 -600 -720 0
-77 -601 -721 0
-78 -602 -722 0
-79 -603 -723 0
-80 -604 -724 0
-77 -605 -725 0
-78 -606 -726 0
-79 -607 -727 0
-80 -608 -728 0
-77 -609 -729 0
-78 -610 -730 0
-79 -611 -731 0
-80 -612 -732 0
-77 -613 -733 0
-78 -614 -734 0
-79 -615 -735 0
-80 -616 -736 0
-77 -617 -737 0
-78 -618 -738 0
-79 -619 -739 0
-80 -620 -740 0
-77 -621 -741 0
-78 -622 -742 0
-79 -623 -743 0
-80 -624 -744 0
-77 -625 -745 0
-78 -626 -746 0
-79 -627 -747 0
-80 -628 -748 0
-77 -629 -749 0
-78 -630 -750 0
-79 -631 -751 0
-80 -632 -752 0
-77 -633 -753 0
-78 -634 -754 0
-79 -635 -755 0
-80 -636 -756 0
-77 -637 -757 0
-78 -638 -758 0
-79 -639 -759 0
-80 -640 -760 0
-77 -641 -761 0
-78 -642 -762 0
-79 -643 -763 0
-80 -644 -764 0
-77 -645 -765 0
-78 -646 -766 0
-79 -647 -767 0
-80 -648 -768 0
-77 -649 -769 0
-78 -650 -770 0
-79 -651 -771 0
-80 -652 -772 0
-77 -653 -773 0
-78 -654 -774 0
-79 -655 -775 0
-80 -656 -776 0
-77 -657 -777 0
-78 -658 -778 0
-79 -659 -779 0
-80 -660 -780 0
-77 -661 -781 0
-78 -662 -782 0
-79 -663 -783 0
-80 -664 -784 0
-77 -665 -785 0
-78 -666 -786 0
-79 -667 -787 0
-80 -668 -788 0
-77 -669 -789 0
-78 -670 -790 0
-79 -671 -791 0
-80 -672 -792 0
-77 -673 -793 0
-78 -674 -794 0
-79 -675 -795 0
-80 -676 -796 0
-77 -677 -797 0
-78 -678 -798 0
-79 -679 -799 0
-80 -680 -800 0
-77 -681 -801 0
-78 -682 -802 0
-79 -683 -803 0
-80 -684 -804 0
-77 -685 -805 0
-78 -686 -806 0
-79 -687 -807 0
-80 -688 -808 0
-77 -689 -809 0
-78 -690 -810 0
-79 -691 -811 0
-80 -692 -812 0
-77 -693 -813 0
-78 -694 -814 0
-79 -695 -815 0
-80 -696 -816 0
-77 -697 -817 0
-78 -698 -818 0
-79 -699 -819 0
-80 -700 -820 0
-77 -701 -821 0
-78 -702 -822 0
-79 -703 -823 0
-80 -704 -824 0
-77 -705 -825 0
-78 -706 -826 0
-79 -707 -827 0
-80 -708 -828 0
-77 -709 -829 0
-78 -710 -830 0
-79 -711 -831 0
-80 -712 -832 0
-77 -713 -833 0
-78 -714 -834 0
-79 -715 -835 0
-80 -716 -836 0
-77 -717 -837 0
-78 -718 -838 0
-79 -719 -839 0
-80 -720 -840 0
-77 -721 -841 0
-78 -722 -842 0
-79 -723 -843 0
-80 -724 -844 0
-77 -725 -845 0
-78 -726 -846 0
-79 -727 -847 0
-80 -728 -848 0
-77 -729 -849 0
-78 -730 -850 0
-79 -731 -851 0
-80 -732 -852 0
-77 -733 -853 0
-78 -734 -854 0
-79 -735 -855 0
-80 -736 -856 0
-77 -737 -857 0
-78 -738 -858 0
-79 -739 -859 0
-80 -740 -860 0
-77 -741 -861 0
-78 -742 -862 0
-79 -743 -863 0
-80 -744 -864 0
-77 -745 -865 0
-78 -746 -866 0
-79 -747 -867 0
-80 -748 -868 0
-77 -749 -869 0
-78 -750 -870 0
-79 -751 -871 0
-80 -752 -872 0
-77 -753 -873 0
-78 -754 -874 0
-79 -755 -875 0
-80 -756 -876 0
-77 -757 -877 0
-78 -758 -878 0
-79 -759 -879 0
-80 -760 -880 0
-77 -761 -881 0
-78 -762 -882 0
-79 -763 -883 0
-80 -764 -884 0
-77 -765 -885 0
-78 -766 -886 0
-79 -767 -887 0
-80 -768 -888 0
-77 -769 -889 0
-78 -770 -890 0
-79 -771 -891 0
-80 -772 -892 0
-77 -773 -893 0
-78 -774 -894 0
-79 -775 -895 0
-80 -776 -896 0
-77 -777 -897 0
-78 -778 -898 0
-79 -779 -899 0
-80 -780 -900 0
-77 -781 -901 0
-78 -782 -902 0
-79 -783 -903 0
-80 -784 -904 0
-1 -85 -133 0
-2 -86 -134 0
-3 -87 -135 0
-4 -88 -136 0
-5 -85 -137 0
-6 -86 -138 0
-7 -87 -139 0
-8 -88 -140 0
-9 -85 -141 0
-10 -86 -142 0
-11 -87 -143 0
-12 -88 -144 0
-13 -85 -145 0
-14 -86 -146 0
-15 -87 -147 0
-16 -88 -148 0
-17 -85 -149 0
-18 -86 -150 0
-19 -87 -151 0
-20 -88 -152 0
-21 -85 -153 0
-22 -86 -154 0
-23 -87 -155 0
-24 -88 -156 0
-25 -85 -157 0
-26 -86 -158 0
-27 -87 -159 0
-28 -88 -160 0
-29 -85 -161 0
-30 -86 -162 0
-31 -87 -163 0
-32 -88 -164 0
-33 -85 -165 0
-34 -86 -166 0
-35 -87 -167 0
-36 -88 -168 0
-37 -85 -169 0
-38 -86 -170 0
-39 -87 -171 0
-40 -88 -172 0
-41 -85 -173 0
-42 -86 -174 0
-43 -87 -175 0
-44 -88 -176 0
-45 -85 -177 0
-46 -86 -178 0
-47 -87 -179 0
-48 -88 -180 0
-49 -85 -181 0
-50 -86 -182 0
-51 -87 -183 0
-52 -88 -184 0
-53 -85 -185 0
-54 -86 -186 0
-55 -87 -187 0
-56 -88 -188 0
-57 -85 -189 0
-58 -86 -190 0
-59 -87 -191 0
-60 -88 -192 0
-61 -85 -193 0
-62 -86 -194 0
-63 -87 -195 0
-64 -88 -196 0
-65 -85 -197 0
-66 -86 -198 0
-67 -87 -199 0
-68 -88 -200 0
-69 -85 -201 0
-70 -86 -202 0
-71 -87 -203 0
-72 -88 -204 0
-73 -85 -205 0
-74 -86 -206 0
-75 -87 -207 0
-76 -88 -208 0
-77 -85 -209 0
-78 -86 -210 0
-79 -87 -211 0
-80 -88 -212 0
-81 -85 -213 0
-82 -86 -214 0
-83 -87 -215 0
-84 -88 -216 0
-85 -217 0
-86 -218 0
-87 -219 0
-88 -220 0
-85 -89 -221 0
-86 -90 -222 0
-87 -91 -223 0
-88 -92 -224 0
-85 -93 -225 0
-86 -94 -226 0
-87 -95 -227 0
-88 -96 -228 0
-85 -97 -229 0
-86 -98 -230 0
-87 -99 -231 0
-88 -100 -232 0
-85 -101 -233 0
-86 -102 -234 0
-87 -103 -235 0
-88 -104 -236 0
-85 -105 -237 0
-86 -106 -238 0
-87 -107 -239 0
-88 -108 -240 0
-85 -109 -241 0
-86 -110 -242 0
-87 -111 -243 0
-88 -112 -244 0
-85 -113 -245 0
-86 -114 -246 0
-87 -115 -247 0
-88 -116 -248 0
-85 -117 -249 0
-86 -118 -250 0
-87 -119 -251 0
-88 -120 -252 0
-85 -121 -253 0
-86 -122 -254 0
-87 -123 -255 0
-88 -124 -256 0
-85 -125 -257 0
-86 -126 -258 0
-87 -127 -259 0
-88 -128 -260 0
-85 -129 -261 0
-86 -130 -262 0
-87 -131 -263 0
-88 -132 -264 0
-85 -133 -265 0
-86 -134 -266 0
-87 -135 -267 0
-88 -136 -268 0
-85 -137 -269 0
-86 -138 -270 0
-87 -139 -271 0
-88 -140 -272 0
-85 -141 -273 0
-86 -142 -274 0
-87 -143 -275 0
-88 -144 -276 0
-85 -145 -277 0
-86 -146 -278 0
-87 -147 -279 0
-88 -148 -280 0
-85 -149 -281 0
-86 -150 -282 0
-87 -151 -283 0
-88 -152 -284 0
-85 -153 -285 0
-86 -154 -286 0
-87 -155 -287 0
-88 -156 -288 0
-85 -157 -289 0
-86 -158 -290 0
-87 -159 -291 0
-88 -160 -292 0
-85 -161 -293 0
-86 -162 -294 0
-87 -163 -295 0
-88 -164 -296 0
-85 -165 -297 0
-86 -166 -298 0
-87 -167 -299 0
-88 -168 -300 0
-85 -169 -301 0
-86 -170 -302 0
-87 -171 -303 0
-88 -172 -304 0
-85 -173 -305 0
-86 -174 -306 0
-87 -175 -307 0
-88 -176 -308 0
-85 -177 -309 0
-86 -178 -310 0
-87 -179 -311 0
-88 -180 -312 0
-85 -181 -313 0
-86 -182 -314 0
-87 -183 -315 0
-88 -184 -316 0
-85 -185 -317 0
-86 -186 -318 0
-87 -187 -319 0
-88 -188 -320 0
-85 -189 -321 0
-86 -190 -322 0
-87 -191 -323 0
-88 -192 -324 0
-85 -193 -325 0
-86 -194 -326 0
-87 -195 -327 0
-88 -196 -328 0
-85 -197 -329 0
-86 -198 -330 0
-87 -199 -331 0
-88 -200 -332 0
-85 -201 -333 0
-86 -202 -334 0
-87 -203 -335 0
-88 -204 -336 0
-85 -205 -337 0
-86 -206 -338 0
-87 -207 -339 0
-88 -208 -340 0
-85 -209 -341 0
-86 -210 -342 0
-87 -211 -343 0
-88 -212 -344 0
-85 -213 -345 0
-86 -214 -346 0
-87 -215 -347 0
-88 -216 -348 0
-85 -217 -349 0
-86 -218 -350 0
-87 -219 -351 0
-88 -220 -352 0
-85 -221 -353 0
-86 -222 -354 0
-87 -223 -355 0
-88 -224 -356 0
-85 -225 -357 0
-86 -226 -358 0
-87 -227 -359 0
-88 -228 -360 0
-85 -229 -361 0
-86 -230 -362 0
-87 -231 -363 0
-88 -232 -364 0
-85 -233 -365 0
-86 -234 -366 0
-87 -235 -367 0
-88 -236 -368 0
-85 -237 -369 0
-86 -238 -370 0
-87 -239 -371 0
-88 -240 -372 0
-85 -241 -373 0
-86 -242 -374 0
-87 -243 -375 0
-88 -244 -376 0
-85 -245 -377 0
-86 -246 -378 0
-87 -247 -379 0
-88 -248 -380 0
-85 -249 -381 0
-86 -250 -382 0
-87 -251 -383 0
-88 -252 -384 0
-85 -253 -385 0
-86 -254 -386 0
-87 -255 -387 0
-88 -256 -388 0
-85 -257 -389 0
-86 -258 -390 0
-87 -259 -391 0
-88 -260 -392 0
-85 -261 -393 0
-86 -262 -394 0
-87 -263 -395 0
-88 -264 -396 0
-85 -265 -397 0
-86 -266 -398 0
-87 -267 -399 0
-88 -268 -400 0
-85 -269 -401 0
-86 -270 -402 0
-87 -271 -403 0
-88 -272 -404 0
-85 -273 -405 0
-86 -274 -406 0
-87 -275 -407 0
-88 -276 -408 0
-85 -277 -409 0
-86 -278 -410 0
-87 -279 -411 0
-88 -280 -412 0
-85 -281 -413 0
-86 -282 -414 0
-87 -283 -415 0
-88 -284 -416 0
-85 -285 -417 0
-86 -286 -418 0
-87 -287 -419 0
-88 -288 -420 0
-85 -289 -421 0
-86 -290 -422 0
-87 -291 -423 0
-88 -292 -424 0
-85 -293 -425 0
-86 -294 -426 0
-87 -295 -427 0
-88 -296 -428 0
-85 -297 -429 0
-86 -298 -430 0
-87 -299 -431 0
-88 -300 -432 0
-85 -301 -433 0
-86 -302 -434 0
-87 -303 -435 0
-88 -304 -436 0
-85 -305 -437 0
-86 -306 -438 0
-87 -307 -439 0
-88 -308 -440 0
-85 -309 -441 0
-86 -310 -442 0
-87 -311 -443 0
-88 -312 -444 0
-85 -313 -445 0
-86 -314 -446 0
-87 -315 -447 0
-88 -316 -448 0
-85 -317 -449 0
-86 -318 -450 0
-87 -319 -451 0
-88 -320 -452 0
-85 -321 -453 0
-86 -322 -454 0
-87 -323 -455 0
-88 -324 -456 0
-85 -325 -457 0
-86 -326 -458 0
-87 -327 -459 0
-88 -328 -460 0
-85 -329 -461 0
-86 -330 -462 0
-87 -331 -463 0
-88 -332 -464 0
-85 -333 -465 0
-86 -334 -466 0
-87 -335 -467 0
-88 -336 -468 0
-85 -337 -469 0
-86 -338 -470 0
-87 -339 -471 0
-88 -340 -472 0
-85 -341 -473 0
-86 -342 -474 0
-87 -343 -475 0
-88 -344 -476 0
-85 -345 -477 0
-86 -346 -478 0
-87 -347 -479 0
-88 -348 -480 0
-85 -349 -481 0
-86 -350 -482 0
-87 -351 -483 0
-88 -352 -484 0
-85 -353 -485 0
-86 -354 -486 0
-87 -355 -487 0
-88 -356 -488 0
-85 -357 -489 0
-86 -358 -490 0
-87 -359 -491 0
-88 -360 -492 0
-85 -361 -493 0
-86 -362 -494 0
-87 -363 -495 0
-88 -364 -496 0
-85 -365 -497 0
-86 -366 -498 0
-87 -367 -499 0
-88 -368 -500 0
-85 -369 -501 0
-86 -370 -502 0
-87 -371 -503 0
-88 -372 -504 0
-85 -373 -505 0
-86 -374 -506 0
-87 -375 -507 0
-88 -376 -508 0
-85 -377 -509 0
-86 -378 -510 0
-87 -379 -511 0
-88 -380 -512 0
-85 -381 -513 0
-86 -382 -514 0
-87 -383 -515 0
-88 -384 -516 0
-85 -385 -517 0
-86 -386 -518 0
-87 -387 -519 0
-88 -388 -520 0
-85 -389 -521 0
-86 -390 -522 0
-87 -391 -523 0
-88 -392 -524 0
-85 -393 -525 0
-86 -394 -526 0
-87 -395 -527 0
-88 -396 -528 0
-85 -397 -529 0
-86 -398 -530 0
-87 -399 -531 0
-88 -400 -532 0
-85 -401 -533 0
-86 -402 -534 0
-87 -403 -535 0
-88 -404 -536 0
-85 -405 -537 0
-86 -406 -538 0
-87 -407 -539 0
-88 -408 -540 0
-85 -409 -541 0
-86 -410 -542 0
-87 -411 -543 0
-88 -412 -544 0
-85 -413 -545 0
-86 -414 -546 0
-87 -415 -547 0
-88 -416 -548 0
-85 -417 -549 0
-86 -418 -550 0
-87 -419 -551 0
-88 -420 -552 0
-85 -421 -553 0
-86 -422 -554 0
-87 -423 -555 0
-88 -424 -556 0
-85 -425 -557 0
-86 -426 -558 0
-87 -427 -559 0
-88 -428 -560 0
-85 -429 -561 0
-86 -430 -562 0
-87 -431 -563 0
-88 -432 -564 0
-85 -433 -565 0
-86 -434 -566 0
-87 -435 -567 0
-88 -436 -568 0
-85 -437 -569 0
-86 -438 -570 0
-87 -439 -571 0
-88 -440 -572 0
-85 -441 -573 0
-86 -442 -574 0
-87 -443 -575 0
-88 -444 -576 0
-85 -445 -577 0
-86 -446 -578 0
-87 -447 -579 0
-88 -448 -580 0
-85 -449 -581 0
-86 -450 -582 0
-87 -451 -583 0
-88 -452 -584 0
-85 -453 -585 0
-86 -454 -586 0
-87 -455 -587 0
-88 -456 -588 0
-85 -457 -589 0
-86 -458 -590 0
-87 -459 -591 0
-88 -460 -592 0
-85 -461 -593 0
-86 -462 -594 0
-87 -463 -595 0
-88 -464 -596 0
-85 -465 -597 0
-86 -466 -598 0
-87 -467 -599 0
-88 -468 -600 0
-85 -469 -601 0
-86 -470 -602 0
-87 -471 -603 0
-88 -472 -604 0
-85 -473 -605 0
-86 -474 -606 0
-87 -475 -607 0
-88 -476 -608 0
-85 -477 -609 0
-86 -478 -610 0
-87 -479 -611 0
-88 -480 -612 0
-85 -481 -613 0
-86 -482 -614 0
-87 -483 -615 0
-88 -484 -616 0
-85 -485 -617 0
-86 -486 -618 0
-87 -487 -619 0
-88 -488 -620 0
-85 -489 -621 0
-86 -490 -622 0
-87 -491 -623 0
-88 -492 -624 0
-85 -493 -625 0
-86 -494 -626 0
-87 -495 -627 0
-88 -496 -628 0
-85 -497 -629 0
-86 -498 -630 0
-87 -499 -631 0
-88 -500 -632 0
-85 -501 -633 0
-86 -502 -634 0
-87 -503 -635 0
-88 -504 -636 0
-85 -505 -637 0
-86 -506 -638 0
-87 -507 -639 0
-88 -508 -640 0
-85 -509 -641 0
-86 -510 -642 0
-87 -511 -643 0
-88 -512 -644 0
-85 -513 -645 0
-86 -514 -646 0
-87 -515 -647 0
-88 -516 -648 0
-85 -517 -649 0
-86 -518 -650 0
-87 -519 -651 0
-88 -520 -652 0
-85 -521 -653 0
-86 -522 -654 0
-87 -523 -655 0
-88 -524 -656 0
-85 -525 -657 0
-86 -526 -658 0
-87 -527 -659 0
-88 -528 -660 0
-85 -529 -661 0
-86 -530 -662 0
-87 -531 -663 0
-88 -532 -664 0
-85 -533 -665 0
-86 -534 -666 0
-87 -535 -667 0
-88 -536 -668 0
-85 -537 -669 0
-86 -538 -670 0
-87 -539 -671 0
-88 -540 -672 0
-85 -541 -673 0
-86 -542 -674 0
-87 -543 -675 0
-88 -544 -676 0
-85 -545 -677 0
-86 -546 -678 0
-87 -547 -679 0
-88 -548 -680 0
-85 -549 -681 0
-86 -550 -682 0
-87 -551 -683 0
-88 -552 -684 0
-85 -553 -685 0
-86 -554 -686 0
-87 -555 -687 0
-88 -556 -688 0
-85 -557 -689 0
-86 -558 -690 0
-87 -559 -691 0
-88 -560 -692 0
-85 -561 -693 0
-86 -562 -694 0
-87 -563 -695 0
-88 -564 -696 0
-85 -565 -697 0
-86 -566 -698 0
-87 -567 -699 0
-88 -568 -700 0
-85 -569 -701 0
-86 -570 -702 0
-87 -571 -703 0
-88 -572 -704 0
-85 -573 -705 0
-86 -574 -706 0
-87 -575 -707 0
-88 -576 -708 0
-85 -577 -709 0
-86 -578 -710 0
-87 -579 -711 0
-88 -580 -712 0
-85 -581 -713 0
-86 -582 -714 0
-87 -583 -715 0
-88 -584 -716 0
-85 -585 -717 0
-86 -586 -718 0
-87 -587 -719 0
-88 -588 -720 0
-85 -589 -721 0
-86 -590 -722 0
-87 -591 -723 0
-88 -592 -724 0
-85 -593 -725 0
-86 -594 -726 0
-87 -595 -727 0
-88 -596 -728 0
-85 -597 -729 0
-86 -598 -730 0
-87 -599 -731 0
-88 -600 -732 0
-85 -601 -733 0
-86 -602 -734 0
-87 -603 -735 0
-88 -604 -736 0
-85 -605 -737 0
-86 -606 -738 0
-87 -607 -739 0
-88 -608 -740 0
-85 -609 -741 0
-86 -610 -742 0
-87 -611 -743 0
-88 -612 -744 0
-85 -613 -745 0
-86 -614 -746 0
-87 -615 -747 0
-88 -616 -748 0
-85 -617 -749 0
-86 -618 -750 0
-87 -619 -751 0
-88 -620 -752 0
-85 -621 -753 0
-86 -622 -754 0
-87 -623 -755 0
-88 -624 -756 0
-85 -625 -757 0
-86 -626 -758 0
-87 -627 -759 0
-88 -628 -760 0
-85 -629 -761 0
-86 -630 -762 0
-87 -631 -763 0
-88 -632 -764 0
-85 -633 -765 0
-86 -634 -766 0
-87 -635 -767 0
-88 -636 -768 0
-85 -637 -769 0
-86 -638 -770 0
-87 -639 -771 0
-88 -640 -772 0
-85 -641 -773 0
-86 -642 -774 0
-87 -643 -775 0
-88 -644 -776 0
-85 -645 -777 0
-86 -646 -778 0
-87 -647 -779 0
-88 -648 -780 0
-85 -649 -781 0
-86 -650 -782 0
-87 -651 -783 0
-88 -652 -784 0
-85 -653 -785 0
-86 -654 -786 0
-87 -655 -787 0
-88 -656 -788 0
-85 -657 -789 0
-86 -658 -790 0
-87 -659 -791 0
-88 -660 -792 0
-85 -661 -793 0
-86 -662 -794 0
-87 -663 -795 0
-88 -664 -796 0
-85 -665 -797 0
-86 -666 -798 0
-87 -667 -799 0
-88 -668 -800 0
-85 -669 -801 0
-86 -670 -802 0
-87 -671 -803 0
-88 -672 -804 0
-85 -673 -805 0
-86 -674 -806 0
-87 -675 -807 0
-88 -676 -808 0
-85 -677 -809 0
-86 -678 -810 0
-87 -679 -811 0
-88 -680 -812 0
-85 -681 -813 0
-86 -682 -814 0
-87 -683 -815 0
-88 -684 -816 0
-85 -685 -817 0
-86 -686 -818 0
-87 -687 -819 0
-88 -688 -820 0
-85 -689 -821 0
-86 -690 -822 0
-87 -691 -823 0
-88 -692 -824 0
-85 -693 -825 0
-86 -694 -826 0
-87 -695 -827 0
-88 -696 -828 0
-85 -697 -829 0
-86 -698 -830 0
-87 -699 -831 0
-88 -700 -832 0
-85 -701 -833 0
-86 -702 -834 0
-87 -703 -835 0
-88 -704 -836 0
-85 -705 -837 0
-86 -706 -838 0
-87 -707 -839 0
-88 -708 -840 0
-85 -709 -841 0
-86 -710 -842 0
-87 -711 -843 0
-88 -712 -844 0
-85 -713 -845 0
-86 -714 -846 0
-87 -715 -847 0
-88 -716 -848 0
-85 -717 -849 0
-86 -718 -850 0
-87 -719 -851 0
-88 -720 -852 0
-85 -721 -853 0
-86 -722 -854 0
-87 -723 -855 0
-88 -724 -856 0
-85 -725 -857 0
-86 -726 -858 0
-87 -727 -859 0
-88 -728 -860 0
-85 -729 -861 0
-86 -730 -862 0
-87 -731 -863 0
-88 -732 -864 0
-85 -733 -865 0
-86 -734 -866 0
-87 -735 -867 0
-88 -736 -868 0
-85 -737 -869 0
-86 -738 -870 0
-87 -739 -871 0
-88 -740 -872 0
-85 -741 -873 0
-86 -742 -874 0
-87 -743 -875 0
-88 -744 -876 0
-85 -745 -877 0
-86 -746 -878 0
-87 -747 -879 0
-88 -748 -880 0
-85 -749 -881 0
-86 -750 -882 0
-87 -751 -883 0
-88 -752 -884 0
-85 -753 -885 0
-86 -754 -886 0
-87 -755 -887 0
-88 -756 -888 0
-85 -757 -889 0
-86 -758 -890 0
-87 -759 -891 0
-88 -760 -892 0
-85 -761 -893 0
-86 -762 -894 0
-87 -763 -895 0
-88 -764 -896 0
-85 -765 -897 0
-86 -766 -898 0
-87 -767 -899 0
-88 -768 -900 0
-85 -769 -901 0
-86 -770 -902 0
-87 -771 -903 0
-88 -772 -904 0
-1 -93 -145 0
-2 -94 -146 0
-3 -95 -147 0
-4 -96 -148 0
-5 -93 -149 0
-6 -94 -150 0
-7 -95 -151 0
-8 -96 -152 0
-9 -93 -153 0
-10 -94 -154 0
-11 -95 -155 0
-12 -96 -156 0
-13 -93 -157 0
-14 -94 -158 0
-15 -95 -159 0
-16 -96 -160 0
-17 -93 -161 0
-18 -94 -162 0
-19 -95 -163 0
-20 -96 -164 0
-21 -93 -165 0
-22 -94 -166 0
-23 -95 -167 0
-24 -96 -168 0
-25 -93 -169 0
-26 -94 -170 0
-27 -95 -171 0
-28 -96 -172 0
-29 -93 -173 0
-30 -94 -174 0
-31 -95 -175 0
-32 -96 -176 0
-33 -93 -177 0
-34 -94 -178 0
-35 -95 -179 0
-36 -96 -180 0
-37 -93 -181 0
-38 -94 -182 0
-39 -95 -183 0
-40 -96 -184 0
-41 -93 -185 0
-42 -94 -186 0
-43 -95 -187 0
-44 -96 -188 0
-45 -93 -189 0
-46 -94 -190 0
-47 -95 -191 0
-48 -96 -192 0
-49 -93 -193 0
-50 -94 -194 0
-51 -95 -195 0
-52 -96 -196 0
-53 -93 -197 0
-54 -94 -198 0
-55 -95 -199 0
-56 -96 -200 0
-57 -93 -201 0
-58 -94 -202 0
-59 -95 -203 0
-60 -96 -204 0
-61 -93 -205 0
-62 -94 -206 0
-63 -95 -207 0
-64 -96 -208 0
-65 -93 -209 0
-66 -94 -210 0
-67 -95 -211 0
-68 -96 -212 0
-69 -93 -213 0
-70 -94 -214 0
-71 -95 -215 0
-72 -96 -216 0
-73 -93 -217 0
-74 -94 -218 0
-75 -95 -219 0
-76 -96 -220 0
-77 -93 -221 0
-78 -94 -222 0
-79 -95 -223 0
-80 -96 -224 0
-81 -93 -225 0
-82 -94 -226 0
-83 -95 -227 0
-84 -96 -228 0
-85 -93 -229 0
-86 -94 -230 0
-87 -95 -231 0
-88 -96 -232 0
-89 -93 -233 0
-90 -94 -234 0
-91 -95 -235 0
-92 -96 -236 0
-93 -237 0
-94 -238 0
-95 -239 0
-96 -240 0
-93 -97 -241 0
-94 -98 -242 0
-95 -99 -243 0
-96 -100 -244 0
-93 -101 -245 0
-94 -102 -246 0
-95 -103 -247 0
-96 -104 -248 0
-93 -105 -249 0
-94 -106 -250 0
-95 -107 -251 0
-96 -108 -252 0
-93 -109 -253 0
-94 -110 -254 0
-95 -111 -255 0
-96 -112 -256 0
-93 -113 -257 0
-94 -114 -258 0
-95 -115 -259 0
-96 -116 -260 0
-93 -117 -261 0
-94 -118 -262 0
-95 -119 -263 0
-96 -120 -264 0
-93 -121 -265 0
-94 -122 -266 0
-95 -123 -267 0
-96 -124 -268 0
-93 -125 -269 0
-94 -126 -270 0
-95 -127 -271 0
-96 -128 -272 0
-93 -129 -273 0
-94 -130 -274 0
-95 -131 -275 0
-96 -132 -276 0
-93 -133 -277 0
-94 -134 -278 0
-95 -135 -279 0
-96 -136 -280 0
-93 -137 -281 0
-94 -138 -282 0
-95 -139 -283 0
-96 -140 -284 0
-93 -141 -285 0
-94 -142 -286 0
-95 -143 -287 0
-96 -144 -288 0
-93 -145 -289 0
-94 -146 -290 0
-95 -147 -291 0
-96 -148 -292 0
-93 -149 -293 0
-94 -150 -294 0
-95 -151 -295 0
-96 -152 -296 0
-93 -153 -297 0
-94 -154 -298 0
-95 -155 -299 0
-96 -156 -300 0
-93 -157 -301 0
-94 -158 -302 0
-95 -159 -303 0
-96 -160 -304 0
-93 -161 -305 0
-94 -162 -306 0
-95 -163 -307 0
-96 -164 -308 0
-93 -165 -309 0
-94 -166 -310 0
-95 -167 -311 0
-96 -168 -312 0
-93 -169 -313 0
-94 -170 -314 0
-95 -171 -315 0
-96 -172 -316 0
-93 -173 -317 0
-94 -174 -318 0
-95 -175 -319 0
-96 -176 -320 0
-93 -177 -321 0
-94 -178 -322 0
-95 -179 -323 0
-96 -180 -324 0
-93 -181 -325 0
-94 -182 -326 0
-95 -183 -327 0
-96 -184 -328 0
-93 -185 -329 0
-94 -186 -330 0
-95 -187 -331 0
-96 -188 -332 0
-93 -189 -333 0
-94 -190 -334 0
-95 -191 -335 0
-96 -192 -336 0
-93 -193 -337 0
-94 -194 -338 0
-95 -195 -339 0
-96 -196 -340 0
-93 -197 -341 0
-94 -198 -342 0
-95 -199 -343 0
-96 -200 -344 0
-93 -201 -345 0
-94 -202 -346 0
-95 -203 -347 0
-96 -204 -348 0
-93 -205 -349 0
-94 -206 -350 0
-95 -207 -351 0
-96 -208 -352 0
-93 -209 -353 0
-94 -210 -354 0
-95 -211 -355 0
-96 -212 -356 0
-93 -213 -357 0
-94 -214 -358 0
-95 -215 -359 0
-96 -216 -360 0
-93 -217 -361 0
-94 -218 -362 0
-95 -219 -363 0
-96 -220 -364 0
-93 -221 -365 0
-94 -222 -366 0
-95 -223 -367 0
-96 -224 -368 0
-93 -225 -369 0
-94 -226 -370 0
-95 -227 -371 0
-96 -228 -372 0
-93 -229 -373 0
-94 -230 -374 0
-95 -231 -375 0
-96 -232 -376 0
-93 -233 -377 0
-94 -234 -378 0
-95 -235 -379 0
-96 -236 -380 0
-93 -237 -381 0
-94 -238 -382 0
-95 -239 -383 0
-96 -240 -384 0
-93 -241 -385 0
-94 -242 -386 0
-95 -243 -387 0
-96 -244 -388 0
-93 -245 -389 0
-94 -246 -390 0
-95 -247 -391 0
-96 -248 -392 0
-93 -249 -393 0
-94 -250 -394 0
-95 -251 -395 0
-96 -252 -396 0
-93 -253 -397 0
-94 -254 -398 0
-95 -255 -399 0
-96 -256 -400 0
-93 -257 -401 0
-94 -258 -402 0
-95 -259 -403 0
-96 -260 -404 0
-93 -261 -405 0
-94 -262 -406 0
-95 -263 -407 0
-96 -264 -408 0
-93 -265 -409 0
-94 -266 -410 0
-95 -267 -411 0
-96 -268 -412 0
-93 -269 -413 0
-94 -270 -414 0
-95 -271 -415 0
-96 -272 -416 0
-93 -273 -417 0
-94 -274 -418 0
-95 -275 -419 0
-96 -276 -420 0
-93 -277 -421 0
-94 -278 -422 0
-95 -279 -423 0
-96 -280 -424 0
-93 -281 -425 0
-94 -282 -426 0
-95 -283 -427 0
-96 -284 -428 0
-93 -285 -429 0
-94 -286 -430 0
-95 -287 -431 0
-96 -288 -432 0
-93 -289 -433 0
-94 -290 -434 0
-95 -291 -435 0
-96 -292 -436 0
-93 -293 -437 0
-94 -294 -438 0
-95 -295 -439 0
-96 -296 -440 0
-93 -297 -441 0
-94 -298 -442 0
-95 -299 -443 0
-96 -300 -444 0
-93 -301 -445 0
-94 -302 -446 0
-95 -303 -447 0
-96 -304 -448 0
-93 -305 -449 0
-94 -306 -450 0
-95 -307 -451 0
-96 -308 -452 0
-93 -309 -453 0
-94 -310 -454 0
-95 -311 -455 0
-96 -312 -456 0
-93 -313 -457 0
-94 -314 -458 0
-95 -315 -459 0
-96 -316 -460 0
-93 -317 -461 0
-94 -318 -462 0
-95 -319 -463 0
-96 -320 -464 0
-93 -321 -465 0
-94 -322 -466 0
-95 -323 -467 0
-96 -324 -468 0
-93 -325 -469 0
-94 -326 -470 0
-95 -327 -471 0
-96 -328 -472 0
-93 -329 -473 0
-94 -330 -474 0
-95 -331 -475 0
-96 -332 -476 0
-93 -333 -477 0
-94 -334 -478 0
-95 -335 -479 0
-96 -336 -480 0
-93 -337 -481 0
-94 -338 -482 0
-95 -339 -483 0
-96 -340 -484 0
-93 -341 -485 0
-94 -342 -486 0
-95 -343 -487 0
-96 -344 -488 0
-93 -345 -489 0
-94 -346 -490 0
-95 -347 -491 0
-96 -348 -492 0
-93 -349 -493 0
-94 -350 -494 0
-95 -351 -495 0
-96 -352 -496 0
-93 -353 -497 0
-94 -354 -498 0
-95 -355 -499 0
-96 -356 -500 0
-93 -357 -501 0
-94 -358 -502 0
-95 -359 -503 0
-96 -360 -504 0
-93 -361 -505 0
-94 -362 -506 0
-95 -363 -507 0
-96 -364 -508 0
-93 -365 -509 0
-94 -366 -510 0
-95 -367 -511 0
-96 -368 -512 0
-93 -369 -513 0
-94 -370 -514 0
-95 -371 -515 0
-96 -372 -516 0
-93 -373 -517 0
-94 -374 -518 0
-95 -375 -519 0
-96 -376 -520 0
-93 -377 -521 0
-94 -378 -522 0
-95 -379 -523 0
-96 -380 -524 0
-93 -381 -525 0
-94 -382 -526 0
-95 -383 -527 0
-96 -384 -528 0
-93 -385 -529 0
-94 -386 -530 0
-95 -387 -531 0
-96 -388 -532 0
-93 -389 -533 0
-94 -390 -534 0
-95 -391 -535 0
-96 -392 -536 0
-93 -393 -537 0
-94 -394 -538 0
-95 -395 -539 0
-96 -396 -540 0
-93 -397 -541 0
-94 -398 -542 0
-95 -399 -543 0
-96 -400 -544 0
-93 -401 -545 0
-94 -402 -546 0
-95 -403 -547 0
-96 -404 -548 0
-93 -405 -549 0
-94 -406 -550 0
-95 -407 -551 0
-96 -408 -552 0
-93 -409 -553 0
-94 -410 -554 0
-95 -411 -555 0
-96 -412 -556 0
-93 -413 -557 0
-94 -414 -558 0
-95 -415 -559 0
-96 -416 -560 0
-93 -417 -561 0
-94 -418 -562 0
-95 -419 -563 0
-96 -420 -564 0
-93 -421 -565 0
-94 -422 -566 0
-95 -423 -567 0
-96 -424 -568 0
-93 -425 -569 0
-94 -426 -570 0
-95 -427 -571 0
-96 -428 -572 0
-93 -429 -573 0
-94 -430 -574 0
-95 -431 -575 0
-96 -432 -576 0
-93 -433 -577 0
-94 -434 -578 0
-95 -435 -579 0
-96 -436 -580 0
-93 -437 -581 0
-94 -438 -582 0
-95 -439 -583 0
-96 -440 -584 0
-93 -441 -585 0
-94 -442 -586 0
-95 -443 -587 0
-96 -444 -588 0
-93 -445 -589 0
-94 -446 -590 0
-95 -447 -591 0
-96 -448 -592 0
-93 -449 -593 0
-94 -450 -594 0
-95 -451 -595 0
-96 -452 -596 0
-93 -453 -597 0
-94 -454 -598 0
-95 -455 -599 0
-96 -456 -600 0
-93 -457 -601 0
-94 -458 -602 0
-95 -459 -603 0
-96 -460 -604 0
-93 -461 -605 0
-94 -462 -606 0
-95 -463 -607 0
-96 -464 -608 0
-93 -465 -609 0
-94 -466 -610 0
-95 -467 -611 0
-96 -468 -612 0
-93 -469 -613 0
-94 -470 -614 0
-95 -471 -615 0
-96 -472 -616 0
-93 -473 -617 0
-94 -474 -618 0
-95 -475 -619 0
-96 -476 -620 0
-93 -477 -621 0
-94 -478 -622 0
-95 -479 -623 0
-96 -480 -624 0
-93 -481 -625 0
-94 -482 -626 0
-95 -483 -627 0
-96 -484 -628 0
-93 -485 -629 0
-94 -486 -630 0
-95 -487 -631 0
-96 -488 -632 0
-93 -489 -633 0
-94 -490 -634 0
-95 -491 -635 0
-96 -492 -636 0
-93 -493 -637 0
-94 -494 -638 0
-95 -495 -639 0
-96 -496 -640 0
-93 -497 -641 0
-94 -498 -642 0
-95 -499 -643 0
-96 -500 -644 0
-93 -501 -645 0
-94 -502 -646 0
-95 -503 -647 0
-96 -504 -648 0
-93 -505 -649 0
-94 -506 -650 0
-95 -507 -651 0
-96 -508 -652 0
-93 -509 -653 0
-94 -510 -654 0
-95 -511 -655 0
-96 -512 -656 0
-93 -513 -657 0
-94 -514 -658 0
-95 -515 -659 0
-96 -516 -660 0
-93 -517 -661 0
-94 -518 -662 0
-95 -519 -663 0
-96 -520 -664 0
-93 -521 -665 0
-94 -522 -666 0
-95 -523 -667 0
-96 -524 -668 0
-93 -525 -669 0
-94 -526 -670 0
-95 -527 -671 0
-96 -528 -672 0
-93 -529 -673 0
-94 -530 -674 0
-95 -531 -675 0
-96 -532 -676 0
-93 -533 -677 0
-94 -534 -678 0
-95 -535 -679 0
-96 -536 -680 0
-93 -537 -681 0
-94 -538 -682 0
-95 -539 -683 0
-96 -540 -684 0
-93 -541 -685 0
-94 -542 -686 0
-95 -543 -687 0
-96 -544 -688 0
-93 -545 -689 0
-94 -546 -690 0
-95 -547 -691 0
-96 -548 -692 0
-93 -549 -693 0
-94 -550 -694 0
-95 -551 -695 0
-96 -552 -696 0
-93 -553 -697 0
-94 -554 -698 0
-95 -555 -699 0
-96 -556 -700 0
-93 -557 -701 0
-94 -558 -702 0
-95 -559 -703 0
-96 -560 -704 0
-93 -561 -705 0
-94 -562 -706 0
-95 -563 -707 0
-96 -564 -708 0
-93 -565 -709 0
-94 -566 -710 0
-95 -567 -711 0
-96 -568 -712 0
-93 -569 -713 0
-94 -570 -714 0
-95 -571 -715 0
-96 -572 -716 0
-93 -573 -717 0
-94 -574 -718 0
-95 -575 -719 0
-96 -576 -720 0
-93 -577 -721 0
-94 -578 -722 0
-95 -579 -723 0
-96 -580 -724 0
-93 -581 -725 0
-94 -582 -726 0
-95 -583 -727 0
-96 -584 -728 0
-93 -585 -729 0
-94 -586 -730 0
-95 -587 -731 0
-96 -588 -732 0
-93 -589 -733 0
-94 -590 -734 0
-95 -591 -735 0
-96 -592 -736 0
-93 -593 -737 0
-94 -594 -738 0
-95 -595 -739 0
-96 -596 -740 0
-93 -597 -741 0
-94 -598 -742 0
-95 -599 -743 0
-96 -600 -744 0
-93 -601 -745 0
-94 -602 -746 0
-95 -603 -747 0
-96 -604 -748 0
-93 -605 -749 0
-94 -606 -750 0
-95 -607 -751 0
-96 -608 -752 0
-93 -609 -753 0
-94 -610 -754 0
-95 -611 -755 0
-96 -612 -756 0
-93 -613 -757 0
-94 -614 -758 0
-95 -615 -759 0
-96 -616 -760 0
-93 -617 -761 0
-94 -618 -762 0
-95 -619 -763 0
-96 -620 -764 0
-93 -621 -765 0
-94 -622 -766 0
-95 -623 -767 0
-96 -624 -768 0
-93 -625 -769 0
-94 -626 -770 0
-95 -627 -771 0
-96 -628 -772 0
-93 -629 -773 0
-94 -630 -774 0
-95 -631 -775 0
-96 -632 -776 0
-93 -633 -777 0
-94 -634 -778 0
-95 -635 -779 0
-96 -636 -780 0
-93 -637 -781 0
-94 -638 -782 0
-95 -639 -783 0
-96 -640 -784 0
-93 -641 -785 0
-94 -642 -786 0
-95 -643 -787 0
-96 -644 -788 0
-93 -645 -789 0
-94 -646 -790 0
-95 -647 -791 0
-96 -648 -792 0
-93 -649 -793 0
-94 -650 -794 0
-95 -651 -795 0
-96 -652 -796 0
-93 -653 -797 0
-94 -654 -798 0
-95 -655 -799 0
-96 -656 -800 0
-93 -657 -801 0
-94 -658 -802 0
-95 -659 -803 0
-96 -660 -804 0
-93 -661 -805 0
-94 -662 -806 0
-95 -663 -807 0
-96 -664 -808 0
-93 -665 -809 0
-94 -666 -810 0
-95 -667 -811 0
-96 -668 -812 0
-93 -669 -813 0
-94 -670 -814 0
-95 -671 -815 0
-96 -672 -816 0
-93 -673 -817 0
-94 -674 -818 0
-95 -675 -819 0
-96 -676 -820 0
-93 -677 -821 0
-94 -678 -822 0
-95 -679 -823 0
-96 -680 -824 0
-93 -681 -825 0
-94 -682 -826 0
-95 -683 -827 0
-96 -684 -828 0
-93 -685 -829 0
-94 -686 -830 0
-95 -687 -831 0
-96 -688 -832 0
-93 -689 -833 0
-94 -690 -834 0
-95 -691 -835 0
-96 -692 -836 0
-93 -693 -837 0
-94 -694 -838 0
-95 -695 -839 0
-96 -696 -840 0
-93 -697 -841 0
-94 -698 -842 0
-95 -699 -843 0
-96 -700 -844 0
-93 -701 -845 0
-94 -702 -846 0
-95 -703 -847 0
-96 -704 -848 0
-93 -705 -849 0
-94 -706 -850 0
-95 -707 -851 0
-96 -708 -852 0
-93 -709 -853 0
-94 -710 -854 0
-95 -711 -855 0
-96 -712 -856 0
-93 -713 -857 0
-94 -714 -858 0
-95 -715 -859 0
-96 -716 -860 0
-93 -717 -861 0
-94 -718 -862 0
-95 -719 -863 0
-96 -720 -864 0
-93 -721 -865 0
-94 -722 -866 0
-95 -723 -867 0
-96 -724 -868 0
-93 -725 -869 0
-94 -726 -870 0
-95 -727 -871 0
-96 -728 -872 0
-93 -729 -873 0
-94 -730 -874 0
-95 -731 -875 0
-96 -732 -876 0
-93 -733 -877 0
-94 -734 -878 0
-95 -735 -879 0
-96 -736 -880 0
-93 -737 -881 0
-94 -738 -882 0
-95 -739 -883 0
-96 -740 -884 0
-93 -741 -885 0
-94 -742 -886 0
-95 -743 -887 0
-96 -744 -888 0
-93 -745 -889 0
-94 -746 -890 0
-95 -747 -891 0
-96 -748 -892 0
-93 -749 -893 0
-94 -750 -894 0
-95 -751 -895 0
-96 -752 -896 0
-93 -753 -897 0
-94 -754 -898 0
-95 -755 -899 0
-96 -756 -900 0
-93 -757 -901 0
-94 -758 -902 0
-95 -759 -903 0
-96 -760 -904 0
-1 -101 -157 0
-2 -102 -158 0
-3 -103 -159 0
-4 -104 -160 0
-5 -101 -161 0
-6 -102 -162 0
-7 -103 -163 0
-8 -104 -164 0
-9 -101 -165 0
-10 -102 -166 0
-11 -103 -167 0
-12 -104 -168 0
-13 -101 -169 0
-14 -102 -170 0
-15 -103 -171 0
-16 -104 -172 0
-17 -101 -173 0
-18 -102 -174 0
-19 -103 -175 0
-20 -104 -176 0
-21 -101 -177 0
-22 -102 -178 0
-23 -103 -179 0
-24 -104 -180 0
-25 -101 -181 0
-26 -102 -182 0
-27 -103 -183 0
-28 -104 -184 0
-29 -101 -185 0
-30 -102 -186 0
-31 -103 -187 0
-32 -104 -188 0
-33 -101 -189 0
-34 -102 -190 0
-35 -103 -191 0
-36 -104 -192 0
-37 -101 -193 0
-38 -102 -194 0
-39 -103 -195 0
-40 -104 -196 0
-41 -101 -197 0
-42 -102 -198 0
-43 -103 -199 0
-44 -104 -200 0
-45 -101 -201 0
-46 -102 -202 0
-47 -103 -203 0
-48 -104 -204 0
-49 -101 -205 0
-50 -102 -206 0
-51 -103 -207 0
-52 -104 -208 0
-53 -101 -209 0
-54 -102 -210 0
-55 -103 -211 0
-56 -104 -212 0
-57 -101 -213 0
-58 -102 -214 0
-59 -103 -215 0
-60 -104 -216 0
-61 -101 -217 0
-62 -102 -218 0
-63 -103 -219 0
-64 -104 -220 0
-65 -101 -221 0
-66 -102 -222 0
-67 -103 -223 0
-68 -104 -224 0
-69 -101 -225 0
-70 -102 -226 0
-71 -103 -227 0
-72 -104 -228 0
-73 -101 -229 0
-74 -102 -230 0
-75 -103 -231 0
-76 -104 -232 0
-77 -101 -233 0
-78 -102 -234 0
-79 -103 -235 0
-80 -104 -236 0
-81 -101 -237 0
-82 -102 -238 0
-83 -103 -239 0
-84 -104 -240 0
-85 -101 -241 0
-86 -102 -242 0
-87 -103 -243 0
-88 -104 -244 0
-89 -101 -245 0
-90 -102 -246 0
-91 -103 -247 0
-92 -104 -248 0
-93 -101 -249 0
-94 -102 -250 0
-95 -103 -251 0
-96 -104 -252 0
-97 -101 -253 0
-98 -102 -254 0
-99 -103 -255 0
-100 -104 -256 0
-101 -257 0
-102 -258 0
-103 -259 0
-104 -260 0
-101 -105 -261 0
-102 -106 -262 0
-103 -107 -263 0
-104 -108 -264 0
-101 -109 -265 0
-102 -110 -266 0
-103 -111 -267 0
-104 -112 -268 0
-101 -113 -269 0
-102 -114 -270 0
-103 -115 -271 0
-104 -116 -272 0
-101 -117 -273 0
-102 -118 -274 0
-103 -119 -275 0
-104 -120 -276 0
-101 -121 -277 0
-102 -122 -278 0
-103 -123 -279 0
-104 -124 -280 0
-101 -125 -281 0
-102 -126 -282 0
-103 -127 -283 0
-104 -128 -284 0
-101 -129 -285 0
-102 -130 -286 0
-103 -131 -287 0
-104 -132 -288 0
-101 -133 -289 0
-102 -134 -290 0
-103 -135 -291 0
-104 -136 -292 0
-101 -137 -293 0
-102 -138 -294 0
-103 -139 -295 0
-104 -140 -296 0
-101 -141 -297 0
-102 -142 -298 0
-103 -143 -299 0
-104 -144 -300 0
-101 -145 -301 0
-102 -146 -302 0
-103 -147 -303 0
-104 -148 -304 0
-101 -149 -305 0
-102 -150 -306 0
-103 -151 -307 0
-104 -152 -308 0
-101 -153 -309 0
-102 -154 -310 0
-103 -155 -311 0
-104 -156 -312 0
-101 -157 -313 0
-102 -158 -314 0
-103 -159 -315 0
-104 -160 -316 0
-101 -161 -317 0
-102 -162 -318 0
-103 -163 -319 0
-104 -164 -320 0
-101 -165 -321 0
-102 -166 -322 0
-103 -167 -323 0
-104 -168 -324 0
-101 -169 -325 0
-102 -170 -326 0
-103 -171 -327 0
-104 -172 -328 0
-101 -173 -329 0
-102 -174 -330 0
-103 -175 -331 0
-104 -176 -332 0
-101 -177 -333 0
-102 -178 -334 0
-103 -179 -335 0
-104 -180 -336 0
-101 -181 -337 0
-102 -182 -338 0
-103 -183 -339 0
-104 -184 -340 0
-101 -185 -341 0
-102 -186 -342 0
-103 -187 -343 0
-104 -188 -344 0
-101 -189 -345 0
-102 -190 -346 0
-103 -191 -347 0
-104 -192 -348 0
-101 -193 -349 0
-102 -194 -350 0
-103 -195 -351 0
-104 -196 -352 0
-101 -197 -353 0
-102 -198 -354 0
-103 -199 -355 0
-104 -200 -356 0
-101 -201 -357 0
-102 -202 -358 0
-103 -203 -359 0
-104 -204 -360 0
-101 -205 -361 0
-102 -206 -362 0
-103 -207 -363 0
-104 -208 -364 0
-101 -209 -365 0
-102 -210 -366 0
-103 -211 -367 0
-104 -212 -368 0
-101 -213 -369 0
-102 -214 -370 0
-103 -215 -371 0
-104 -216 -372 0
-101 -217 -373 0
-102 -218 -374 0
-103 -219 -375 0
-104 -220 -376 0
-101 -221 -377 0
-102 -222 -378 0
-103 -223 -379 0
-104 -224 -380 0
-101 -225 -381 0
-102 -226 -382 0
-103 -227 -383 0
-104 -228 -384 0
-101 -229 -385 0
-102 -230 -386 0
-103 -231 -387 0
-104 -232 -388 0
-101 -233 -389 0
-102 -234 -390 0
-103 -235 -391 0
-104 -236 -392 0
-101 -237 -393 0
-102 -238 -394 0
-103 -239 -395 0
-104 -240 -396 0
-101 -241 -397 0
-102 -242 -398 0
-103 -243 -399 0
-104 -244 -400 0
-101 -245 -401 0
-102 -246 -402 0
-103 -247 -403 0
-104 -248 -404 0
-101 -249 -405 0
-102 -250 -406 0
-103 -251 -407 0
-104 -252 -408 0
-101 -253 -409 0
-102 -254 -410 0
-103 -255 -411 0
-104 -256 -412 0
-101 -257 -413 0
-102 -258 -414 0
-103 -259 -415 0
-104 -260 -416 0
-101 -261 -417 0
-102 -262 -418 0
-103 -263 -419 0
-104 -264 -420 0
-101 -265 -421 0
-102 -266 -422 0
-103 -267 -423 0
-104 -268 -424 0
-101 -269 -425 0
-102 -270 -426 0
-103 -271 -427 0
-104 -272 -428 0
-101 -273 -429 0
-102 -274 -430 0
-103 -275 -431 0
-104 -276 -432 0
-101 -277 -433 0
-102 -278 -434 0
-103 -279 -435 0
-104 -280 -436 0
-101 -281 -437 0
-102 -282 -438 0
-103 -283 -439 0
-104 -284 -440 0
-101 -285 -441 0
-102 -286 -442 0
-103 -287 -443 0
-104 -288 -444 0
-101 -289 -445 0
-102 -290 -446 0
-103 -291 -447 0
-104 -292 -448 0
-101 -293 -449 0
-102 -294 -450 0
-103 -295 -451 0
-104 -296 -452 0
-101 -297 -453 0
-102 -298 -454 0
-103 -299 -455 0
-104 -300 -456 0
-101 -301 -457 0
-102 -302 -458 0
-103 -303 -459 0
-104 -304 -460 0
-101 -305 -461 0
-102 -306 -462 0
-103 -307 -463 0
-104 -308 -464 0
-101 -309 -465 0
-102 -310 -466 0
-103 -311 -467 0
-104 -312 -468 0
-101 -313 -469 0
-102 -314 -470 0
-103 -315 -471 0
-104 -316 -472 0
-101 -317 -473 0
-102 -318 -474 0
-103 -319 -475 0
-104 -320 -476 0
-101 -321 -477 0
-102 -322 -478 0
-103 -323 -479 0
-104 -324 -480 0
-101 -325 -481 0
-102 -326 -482 0
-103 -327 -483 0
-104 -328 -484 0
-101 -329 -485 0
-102 -330 -486 0
-103 -331 -487 0
-104 -332 -488 0
-101 -333 -489 0
-102 -334 -490 0
-103 -335 -491 0
-104 -336 -492 0
-101 -337 -493 0
-102 -338 -494 0
-103 -339 -495 0
-104 -340 -496 0
-101 -341 -497 0
-102 -342 -498 0
-103 -343 -499 0
-104 -344 -500 0
-101 -345 -501 0
-102 -346 -502 0
-103 -347 -503 0
-104 -348 -504 0
-101 -349 -505 0
-102 -350 -506 0
-103 -351 -507 0
-104 -352 -508 0
-101 -353 -509 0
-102 -354 -510 0
-103 -355 -511 0
-104 -356 -512 0
-101 -357 -513 0
-102 -358 -514 0
-103 -359 -515 0
-104 -360 -516 0
-101 -361 -517 0
-102 -362 -518 0
-103 -363 -519 0
-104 -364 -520 0
-101 -365 -521 0
-102 -366 -522 0
-103 -367 -523 0
-104 -368 -524 0
-101 -369 -525 0
-102 -370 -526 0
-103 -371 -527 0
-104 -372 -528 0
-101 -373 -529 0
-102 -374 -530 0
-103 -375 -531 0
-104 -376 -532 0
-101 -377 -533 0
-102 -378 -534 0
-103 -379 -535 0
-104 -380 -536 0
-101 -381 -537 0
-102 -382 -538 0
-103 -383 -539 0
-104 -384 -540 0
-101 -385 -541 0
-102 -386 -542 0
-103 -387 -543 0
-104 -388 -544 0
-101 -389 -545 0
-102 -390 -546 0
-103 -391 -547 0
-104 -392 -548 0
-101 -393 -549 0
-102 -394 -550 0
-103 -395 -551 0
-104 -396 -552 0
-101 -397 -553 0
-102 -398 -554 0
-103 -399 -555 0
-104 -400 -556 0
-101 -401 -557 0
-102 -402 -558 0
-103 -403 -559 0
-104 -404 -560 0
-101 -405 -561 0
-102 -406 -562 0
-103 -407 -563 0
-104 -408 -564 0
-101 -409 -565 0
-102 -410 -566 0
-103 -411 -567 0
-104 -412 -568 0
-101 -413 -569 0
-102 -414 -570 0
-103 -415 -571 0
-104 -416 -572 0
-101 -417 -573 0
-102 -418 -574 0
-103 -419 -575 0
-104 -420 -576 0
-101 -421 -577 0
-102 -422 -578 0
-103 -423 -579 0
-104 -424 -580 0
-101 -425 -581 0
-102 -426 -582 0
-103 -427 -583 0
-104 -428 -584 0
-101 -429 -585 0
-102 -430 -586 0
-103 -431 -587 0
-104 -432 -588 0
-101 -433 -589 0
-102 -434 -590 0
-103 -435 -591 0
-104 -436 -592 0
-101 -437 -593 0
-102 -438 -594 0
-103 -439 -595 0
-104 -440 -596 0
-101 -441 -597 0
-102 -442 -598 0
-103 -443 -599 0
-104 -444 -600 0
-101 -445 -601 0
-102 -446 -602 0
-103 -447 -603 0
-104 -448 -604 0
-101 -449 -605 0
-102 -450 -606 0
-103 -451 -607 0
-104 -452 -608 0
-101 -453 -609 0
-102 -454 -610 0
-103 -455 -611 0
-104 -456 -612 0
-101 -457 -613 0
-102 -458 -614 0
-103 -459 -615 0
-104 -460 -616 0
-101 -461 -617 0
-102 -462 -618 0
-103 -463 -619 0
-104 -464 -620 0
-101 -465 -621 0
-102 -466 -622 0
-103 -467 -623 0
-104 -468 -624 0
-101 -469 -625 0
-102 -470 -626 0
-103 -471 -627 0
-104 -472 -628 0
-101 -473 -629 0
-102 -474 -630 0
-103 -475 -631 0
-104 -476 -632 0
-101 -477 -633 0
-102 -478 -634 0
-103 -479 -635 0
-104 -480 -636 0
-101 -481 -637 0
-102 -482 -638 0
-103 -483 -639 0
-104 -484 -640 0
-101 -485 -641 0
-102 -486 -642 0
-103 -487 -643 0
-104 -488 -644 0
-101 -489 -645 0
-102 -490 -646 0
-103 -491 -647 0
-104 -492 -648 0
-101 -493 -649 0
-102 -494 -650 0
-103 -495 -651 0
-104 -496 -652 0
-101 -497 -653 0
-102 -498 -654 0
-103 -499 -655 0
-104 -500 -656 0
-101 -501 -657 0
-102 -502 -658 0
-103 -503 -659 0
-104 -504 -660 0
-101 -505 -661 0
-102 -506 -662 0
-103 -507 -663 0
-104 -508 -664 0
-101 -509 -665 0
-102 -510 -666 0
-103 -511 -667 0
-104 -512 -668 0
-101 -513 -669 0
-102 -514 -670 0
-103 -515 -671 0
-104 -516 -672 0
-101 -517 -673 0
-102 -518 -674 0
-103 -519 -675 0
-104 -520 -676 0
-101 -521 -677 0
-102 -522 -678 0
-103 -523 -679 0
-104 -524 -680 0
-101 -525 -681 0
-102 -526 -682 0
-103 -527 -683 0
-104 -528 -684 0
-101 -529 -685 0
-102 -530 -686 0
-103 -531 -687 0
-104 -532 -688 0
-101 -533 -689 0
-102 -534 -690 0
-103 -535 -691 0
-104 -536 -692 0
-101 -537 -693 0
-102 -538 -694 0
-103 -539 -695 0
-104 -540 -696 0
-101 -541 -697 0
-102 -542 -698 0
-103 -543 -699 0
-104 -544 -700 0
-101 -545 -701 0
-102 -546 -702 0
-103 -547 -703 0
-104 -548 -704 0
-101 -549 -705 0
-102 -550 -706 0
-103 -551 -707 0
-104 -552 -708 0
-101 -553 -709 0
-102 -554 -710 0
-103 -555 -711 0
-104 -556 -712 0
-101 -557 -713 0
-102 -558 -714 0
-103 -559 -715 0
-104 -560 -716 0
-101 -561 -717 0
-102 -562 -718 0
-103 -563 -719 0
-104 -564 -720 0
-101 -565 -721 0
-102 -566 -722 0
-103 -567 -723 0
-104 -568 -724 0
-101 -569 -725 0
-102 -570 -726 0
-103 -571 -727 0
-104 -572 -728 0
-101 -573 -729 0
-102 -574 -730 0
-103 -575 -731 0
-104 -576 -732 0
-101 -577 -733 0
-102 -578 -734 0
-103 -579 -735 0
-104 -580 -736 0
-101 -581 -737 0
-102 -582 -738 0
-103 -583 -739 0
-104 -584 -740 0
-101 -585 -741 0
-102 -586 -742 0
-103 -587 -743 0
-104 -588 -744 0
-101 -589 -745 0
-102 -590 -746 0
-103 -591 -747 0
-104 -592 -748 0
-101 -593 -749 0
-102 -594 -750 0
-103 -595 -751 0
-104 -596 -752 0
-101 -597 -753 0
-102 -598 -754 0
-103 -599 -755 0
-104 -600 -756 0
-101 -601 -757 0
-102 -602 -758 0
-103 -603 -759 0
-104 -604 -760 0
-101 -605 -761 0
-102 -606 -762 0
-103 -607 -763 0
-104 -608 -764 0
-101 -609 -765 0
-102 -610 -766 0
-103 -611 -767 0
-104 -612 -768 0
-101 -613 -769 0
-102 -614 -770 0
-103 -615 -771 0
-104 -616 -772 0
-101 -617 -773 0
-102 -618 -774 0
-103 -619 -775 0
-104 -620 -776 0
-101 -621 -777 0
-102 -622 -778 0
-103 -623 -779 0
-104 -624 -780 0
-101 -625 -781 0
-102 -626 -782 0
-103 -627 -783 0
-104 -628 -784 0
-101 -629 -785 0
-102 -630 -786 0
-103 -631 -787 0
-104 -632 -788 0
-101 -633 -789 0
-102 -634 -790 0
-103 -635 -791 0
-104 -636 -792 0
-101 -637 -793 0
-102 -638 -794 0
-103 -639 -795 0
-104 -640 -796 0
-101 -641 -797 0
-102 -642 -798 0
-103 -643 -799 0
-104 -644 -800 0
-101 -645 -801 0
-102 -646 -802 0
-103 -647 -803 0
-104 -648 -804 0
-101 -649 -805 0
-102 -650 -806 0
-103 -651 -807 0
-104 -652 -808 0
-101 -653 -809 0
-102 -654 -810 0
-103 -655 -811 0
-104 -656 -812 0
-101 -657 -813 0
-102 -658 -814 0
-103 -659 -815 0
-104 -660 -816 0
-101 -661 -817 0
-102 -662 -818 0
-103 -663 -819 0
-104 -664 -820 0
-101 -665 -821 0
-102 -666 -822 0
-103 -667 -823 0
-104 -668 -824 0
-101 -669 -825 0
-102 -670 -826 0
-103 -671 -827 0
-104 -672 -828 0
-101 -673 -829 0
-102 -674 -830 0
-103 -675 -831 0
-104 -676 -832 0
-101 -677 -833 0
-102 -678 -834 0
-103 -679 -835 0
-104 -680 -836 0
-101 -681 -837 0
-102 -682 -838 0
-103 -683 -839 0
-104 -684 -840 0
-101 -685 -841 0
-102 -686 -842 0
-103 -687 -843 0
-104 -688 -844 0
-101 -689 -845 0
-102 -690 -846 0
-103 -691 -847 0
-104 -692 -848 0
-101 -693 -849 0
-102 -694 -850 0
-103 -695 -851 0
-104 -696 -852 0
-101 -697 -853 0
-102 -698 -854 0
-103 -699 -855 0
-104 -700 -856 0
-101 -701 -857 0
-102 -702 -858 0
-103 -703 -859 0
-104 -704 -860 0
-101 -705 -861 0
-102 -706 -862 0
-103 -707 -863 0
-104 -708 -864 0
-101 -709 -865 0
-102 -710 -866 0
-103 -711 -867 0
-104 -712 -868 0
-101 -713 -869 0
-102 -714 -870 0
-103 -715 -871 0
-104 -716 -872 0
-101 -717 -873 0
-102 -718 -874 0
-103 -719 -875 0
-104 -720 -876 0
-101 -721 -877 0
-102 -722 -878 0
-103 -723 -879 0
-104 -724 -880 0
-101 -725 -881 0
-102 -726 -882 0
-103 -727 -883 0
-104 -728 -884 0
-101 -729 -885 0
-102 -730 -886 0
-103 -731 -887 0
-104 -732 -888 0
-101 -733 -889 0
-102 -734 -890 0
-103 -735 -891 0
-104 -736 -892 0
-101 -737 -893 0
-102 -738 -894 0
-103 -739 -895 0
-104 -740 -896 0
-101 -741 -897 0
-102 -742 -898 0
-103 -743 -899 0
-104 -744 -900 0
-101 -745 -901 0
-102 -746 -902 0
-103 -747 -903 0
-104 -748 -904 0
-1 -109 -169 0
-2 -110 -170 0
-3 -111 -171 0
-4 -112 -172 0
-5 -109 -173 0
-6 -110 -174 0
-7 -111 -175 0
-8 -112 -176 0
-9 -109 -177 0
-10 -110 -178 0
-11 -111 -179 0
-12 -112 -180 0
-13 -109 -181 0
-14 -110 -182 0
-15 -111 -183 0
-16 -112 -184 0
-17 -109 -185 0
-18 -110 -186 0
-19 -111 -187 0
-20 -112 -188 0
-21 -109 -189 0
-22 -110 -190 0
-23 -111 -191 0
-24 -112 -192 0
-25 -109 -193 0
-26 -110 -194 0
-27 -111 -195 0
-28 -112 -196 0
-29 -109 -197 0
-30 -110 -198 0
-31 -111 -199 0
-32 -112 -200 0
-33 -109 -201 0
-34 -110 -202 0
-35 -111 -203 0
-36 -112 -204 0
-37 -109 -205 0
-38 -110 -206 0
-39 -111 -207 0
-40 -112 -208 0
-41 -109 -209 0
-42 -110 -210 0
-43 -111 -211 0
-44 -112 -212 0
-45 -109 -213 0
-46 -110 -214 0
-47 -111 -215 0
-48 -112 -216 0
-49 -109 -217 0
-50 -110 -218 0
-51 -111 -219 0
-52 -112 -220 0
-53 -109 -221 0
-54 -110 -222 0
-55 -111 -223 0
-56 -112 -224 0
-57 -109 -225 0
-58 -110 -226 0
-59 -111 -227 0
-60 -112 -228 0
-61 -109 -229 0
-62 -110 -230 0
-63 -111 -231 0
-64 -112 -232 0
-65 -109 -233 0
-66 -110 -234 0
-67 -111 -235 0
-68 -112 -236 0
-69 -109 -237 0
-70 -110 -238 0
-71 -111 -239 0
-72 -112 -240 0
-73 -109 -241 0
-74 -110 -242 0
-75 -111 -243 0
-76 -112 -244 0
-77 -109 -245 0
-78 -110 -246 0
-79 -111 -247 0
-80 -112 -248 0
-81 -109 -249 0
-82 -110 -250 0
-83 -111 -251 0
-84 -112 -252 0
-85 -109 -253 0
-86 -110 -254 0
-87 -111 -255 0
-88 -112 -256 0
-89 -109 -257 0
-90 -110 -258 0
-91 -111 -259 0
-92 -112 -260 0
-93 -109 -261 0
-94 -110 -262 0
-95 -111 -263 0
-96 -112 -264 0
-97 -109 -265 0
-98 -110 -266 0
-99 -111 -267 0
-100 -112 -268 0
-101 -109 -269 0
-102 -110 -270 0
-103 -111 -271 0
-104 -112 -272 0
-105 -109 -273 0
-106 -110 -274 0
-107 -111 -275 0
-108 -112 -276 0
-109 -277 0
-110 -278 0
-111 -279 0
-112 -280 0
-109 -113 -281 0
-110 -114 -282 0
-111 -115 -283 0
-112 -116 -284 0
-109 -117 -285 0
-110 -118 -286 0
-111 -119 -287 0
-112 -120 -288 0
-109 -121 -289 0
-110 -122 -290 0
-111 -123 -291 0
-112 -124 -292 0
-109 -125 -293 0
-110 -126 -294 0
-111 -127 -295 0
-112 -128 -296 0
-109 -129 -297 0
-110 -130 -298 0
-111 -131 -299 0
-112 -132 -300 0
-109 -133 -301 0
-110 -134 -302 0
-111 -135 -303 0
-112 -136 -304 0
-109 -137 -305 0
-110 -138 -306 0
-111 -139 -307 0
-112 -140 -308 0
-109 -141 -309 0
-110 -142 -310 0
-111 -143 -311 0
-112 -144 -312 0
-109 -145 -313 0
-110 -146 -314 0
-111 -147 -315 0
-112 -148 -316 0
-109 -149 -317 0
-110 -150 -318 0
-111 -151 -319 0
-112 -152 -320 0
-109 -153 -321 0
-110 -154 -322 0
-111 -155 -323 0
-112 -156 -324 0
-109 -157 -325 0
-110 -158 -326 0
-111 -159 -327 0
-112 -160 -328 0
-109 -161 -329 0
-110 -162 -330 0
-111 -163 -331 0
-112 -164 -332 0
-109 -165 -333 0
-110 -166 -334 0
-111 -167 -335 0
-112 -168 -336 0
-109 -169 -337 0
-110 -170 -338 0
-111 -171 -339 0
-112 -172 -340 0
-109 -173 -341 0
-110 -174 -342 0
-111 -175 -343 0
-112 -176 -344 0
-109 -177 -345 0
-110 -178 -346 0
-111 -179 -347 0
-112 -180 -348 0
-109 -181 -349 0
-110 -182 -350 0
-111 -183 -351 0
-112 -184 -352 0
-109 -185 -353 0
-110 -186 -354 0
-111 -187 -355 0
-112 -188 -356 0
-109 -189 -357 0
-110 -190 -358 0
-111 -191 -359 0
-112 -192 -360 0
-109 -193 -361 0
-110 -194 -362 0
-111 -195 -363 0
-112 -196 -364 0
-109 -197 -365 0
-110 -198 -366 0
-111 -199 -367 0
-112 -200 -368 0
-109 -201 -369 0
-110 -202 -370 0
-111 -203 -371 0
-112 -204 -372 0
-109 -205 -373 0
-110 -206 -374 0
-111 -207 -375 0
-112 -208 -376 0
-109 -209 -377 0
-110 -210 -378 0
-111 -211 -379 0
-112 -212 -380 0
-109 -213 -381 0
-110 -214 -382 0
-111 -215 -383 0
-112 -216 -384 0
-109 -217 -385 0
-110 -218 -386 0
-111 -219 -387 0
-112 -220 -388 0
-109 -221 -389 0
-110 -222 -390 0
-111 -223 -391 0
-112 -224 -392 0
-109 -225 -393 0
-110 -226 -394 0
-111 -227 -395 0
-112 -228 -396 0
-109 -229 -397 0
-110 -230 -398 0
-111 -231 -399 0
-112 -232 -400 0
-109 -233 -401 0
-110 -234 -402 0
-111 -235 -403 0
-112 -236 -404 0
-109 -237 -405 0
-110 -238 -406 0
-111 -239 -407 0
-112 -240 -408 0
-109 -241 -409 0
-110 -242 -410 0
-111 -243 -411 0
-112 -244 -412 0
-109 -245 -413 0
-110 -246 -414 0
-111 -247 -415 0
-112 -248 -416 0
-109 -249 -417 0
-110 -250 -418 0
-111 -251 -419 0
-112 -252 -420 0
-109 -253 -421 0
-110 -254 -422 0
-111 -255 -423 0
-112 -256 -424 0
-109 -257 -425 0
-110 -258 -426 0
-111 -259 -427 0
-112 -260 -428 0
-109 -261 -429 0
-110 -262 -430 0
-111 -263 -431 0
-112 -264 -432 0
-109 -265 -433 0
-110 -266 -434 0
-111 -267 -435 0
-112 -268 -436 0
-109 -269 -437 0
-110 -270 -438 0
-111 -271 -439 0
-112 -272 -440 0
-109 -273 -441 0
-110 -274 -442 0
-111 -275 -443 0
-112 -276 -444 0
-109 -277 -445 0
-110 -278 -446 0
-111 -279 -447 0
-112 -280 -448 0
-109 -281 -449 0
-110 -282 -450 0
-111 -283 -451 0
-112 -284 -452 0
-109 -285 -453 0
-110 -286 -454 0
-111 -287 -455 0
-112 -288 -456 0
-109 -289 -457 0
-110 -290 -458 0
-111 -291 -459 0
-112 -292 -460 0
-109 -293 -461 0
-110 -294 -462 0
-111 -295 -463 0
-112 -296 -464 0
-109 -297 -465 0
-110 -298 -466 0
-111 -299 -467 0
-112 -300 -468 0
-109 -301 -469 0
-110 -302 -470 0
-111 -303 -471 0
-112 -304 -472 0
-109 -305 -473 0
-110 -306 -474 0
-111 -307 -475 0
-112 -308 -476 0
-109 -309 -477 0
-110 -310 -478 0
-111 -311 -479 0
-112 -312 -480 0
-109 -313 -481 0
-110 -314 -482 0
-111 -315 -483 0
-112 -316 -484 0
-109 -317 -485 0
-110 -318 -486 0
-111 -319 -487 0
-112 -320 -488 0
-109 -321 -489 0
-110 -322 -490 0
-111 -323 -491 0
-112 -324 -492 0
-109 -325 -493 0
-110 -326 -494 0
-111 -327 -495 0
-112 -328 -496 0
-109 -329 -497 0
-110 -330 -498 0
-111 -331 -499 0
-112 -332 -500 0
-109 -333 -501 0
-110 -334 -502 0
-111 -335 -503 0
-112 -336 -504 0
-109 -337 -505 0
-110 -338 -506 0
-111 -339 -507 0
-112 -340 -508 0
-109 -341 -509 0
-110 -342 -510 0
-111 -343 -511 0
-112 -344 -512 0
-109 -345 -513 0
-110 -346 -514 0
-111 -347 -515 0
-112 -348 -516 0
-109 -349 -517 0
-110 -350 -518 0
-111 -351 -519 0
-112 -352 -520 0
-109 -353 -521 0
-110 -354 -522 0
-111 -355 -523 0
-112 -356 -524 0
-109 -357 -525 0
-110 -358 -526 0
-111 -359 -527 0
-112 -360 -528 0
-109 -361 -529 0
-110 -362 -530 0
-111 -363 -531 0
-112 -364 -532 0
-109 -365 -533 0
-110 -366 -534 0
-111 -367 -535 0
-112 -368 -536 0
-109 -369 -537 0
-110 -370 -538 0
-111 -371 -539 0
-112 -372 -540 0
-109 -373 -541 0
-110 -374 -542 0
-111 -375 -543 0
-112 -376 -544 0
-109 -377 -545 0
-110 -378 -546 0
-111 -379 -547 0
-112 -380 -548 0
-109 -381 -549 0
-110 -382 -550 0
-111 -383 -551 0
-112 -384 -552 0
-109 -385 -553 0
-110 -386 -554 0
-111 -387 -555 0
-112 -388 -556 0
-109 -389 -557 0
-110 -390 -558 0
-111 -391 -559 0
-112 -392 -560 0
-109 -393 -561 0
-110 -394 -562 0
-111 -395 -563 0
-112 -396 -564 0
-109 -397 -565 0
-110 -398 -566 0
-111 -399 -567 0
-112 -400 -568 0
-109 -401 -569 0
-110 -402 -570 0
-111 -403 -571 0
-112 -404 -572 0
-109 -405 -573 0
-110 -406 -574 0
-111 -407 -575 0
-112 -408 -576 0
-109 -409 -577 0
-110 -410 -578 0
-111 -411 -579 0
-112 -412 -580 0
-109 -413 -581 0
-110 -414 -582 0
-111 -415 -583 0
-112 -416 -584 0
-109 -417 -585 0
-110 -418 -586 0
-111 -419 -587 0
-112 -420 -588 0
-109 -421 -589 0
-110 -422 -590 0
-111 -423 -591 0
-112 -424 -592 0
-109 -425 -593 0
-110 -426 -594 0
-111 -427 -595 0
-112 -428 -596 0
-109 -429 -597 0
-110 -430 -598 0
-111 -431 -599 0
-112 -432 -600 0
-109 -433 -601 0
-110 -434 -602 0
-111 -435 -603 0
-112 -436 -604 0
-109 -437 -605 0
-110 -438 -606 0
-111 -439 -607 0
-112 -440 -608 0
-109 -441 -609 0
-110 -442 -610 0
-111 -443 -611 0
-112 -444 -612 0
-109 -445 -613 0
-110 -446 -614 0
-111 -447 -615 0
-112 -448 -616 0
-109 -449 -617 0
-110 -450 -618 0
-111 -451 -619 0
-112 -452 -620 0
-109 -453 -621 0
-110 -454 -622 0
-111 -455 -623 0
-112 -456 -624 0
-109 -457 -625 0
-110 -458 -626 0
-111 -459 -627 0
-112 -460 -628 0
-109 -461 -629 0
-110 -462 -630 0
-111 -463 -631 0
-112 -464 -632 0
-109 -465 -633 0
-110 -466 -634 0
-111 -467 -635 0
-112 -468 -636 0
-109 -469 -637 0
-110 -470 -638 0
-111 -471 -639 0
-112 -472 -640 0
-109 -473 -641 0
-110 -474 -642 0
-111 -475 -643 0
-112 -476 -644 0
-109 -477 -645 0
-110 -478 -646 0
-111 -479 -647 0
-112 -480 -648 0
-109 -481 -649 0
-110 -482 -650 0
-111 -483 -651 0
-112 -484 -652 0
-109 -485 -653 0
-110 -486 -654 0
-111 -487 -655 0
-112 -488 -656 0
-109 -489 -657 0
-110 -490 -658 0
-111 -491 -659 0
-112 -492 -660 0
-109 -493 -661 0
-110 -494 -662 0
-111 -495 -663 0
-112 -496 -664 0
-109 -497 -665 0
-110 -498 -666 0
-111 -499 -667 0
-112 -500 -668 0
-109 -501 -669 0
-110 -502 -670 0
-111 -503 -671 0
-112 -504 -672 0
-109 -505 -673 0
-110 -506 -674 0
-111 -507 -675 0
-112 -508 -676 0
-109 -509 -677 0
-110 -510 -678 0
-111 -511 -679 0
-112 -512 -680 0
-109 -513 -681 0
-110 -514 -682 0
-111 -515 -683 0
-112 -516 -684 0
-109 -517 -685 0
-110 -518 -686 0
-111 -519 -687 0
-112 -520 -688 0
-109 -521 -689 0
-110 -522 -690 0
-111 -523 -691 0
-112 -524 -692 0
-109 -525 -693 0
-110 -526 -694 0
-111 -527 -695 0
-112 -528 -696 0
-109 -529 -697 0
-110 -530 -698 0
-111 -531 -699 0
-112 -532 -700 0
-109 -533 -701 0
-110 -534 -702 0
-111 -535 -703 0
-112 -536 -704 0
-109 -537 -705 0
-110 -538 -706 0
-111 -539 -707 0
-112 -540 -708 0
-109 -541 -709 0
-110 -542 -710 0
-111 -543 -711 0
-112 -544 -712 0
-109 -545 -713 0
-110 -546 -714 0
-111 -547 -715 0
-112 -548 -716 0
-109 -549 -717 0
-110 -550 -718 0
-111 -551 -719 0
-112 -552 -720 0
-109 -553 -721 0
-110 -554 -722 0
-111 -555 -723 0
-112 -556 -724 0
-109 -557 -725 0
-110 -558 -726 0
-111 -559 -727 0
-112 -560 -728 0
-109 -561 -729 0
-110 -562 -730 0
-111 -563 -731 0
-112 -564 -732 0
-109 -565 -733 0
-110 -566 -734 0
-111 -567 -735 0
-112 -568 -736 0
-109 -569 -737 0
-110 -570 -738 0
-111 -571 -739 0
-112 -572 -740 0
-109 -573 -741 0
-110 -574 -742 0
-111 -575 -743 0
-112 -576 -744 0
-109 -577 -745 0
-110 -578 -746 0
-111 -579 -747 0
-112 -580 -748 0
-109 -581 -749 0
-110 -582 -750 0
-111 -583 -751 0
-112 -584 -752 0
-109 -585 -753 0
-110 -586 -754 0
-111 -587 -755 0
-112 -588 -756 0
-109 -589 -757 0
-110 -590 -758 0
-111 -591 -759 0
-112 -592 -760 0
-109 -593 -761 0
-110 -594 -762 0
-111 -595 -763 0
-112 -596 -764 0
-109 -597 -765 0
-110 -598 -766 0
-111 -599 -767 0
-112 -600 -768 0
-109 -601 -769 0
-110 -602 -770 0
-111 -603 -771 0
-112 -604 -772 0
-109 -605 -773 0
-110 -606 -774 0
-111 -607 -775 0
-112 -608 -776 0
-109 -609 -777 0
-110 -610 -778 0
-111 -611 -779 0
-112 -612 -780 0
-109 -613 -781 0
-110 -614 -782 0
-111 -615 -783 0
-112 -616 -784 0
-109 -617 -785 0
-110 -618 -786 0
-111 -619 -787 0
-112 -620 -788 0
-109 -621 -789 0
-110 -622 -790 0
-111 -623 -791 0
-112 -624 -792 0
-109 -625 -793 0
-110 -626 -794 0
-111 -627 -795 0
-112 -628 -796 0
-109 -629 -797 0
-110 -630 -798 0
-111 -631 -799 0
-112 -632 -800 0
-109 -633 -801 0
-110 -634 -802 0
-111 -635 -803 0
-112 -636 -804 0
-109 -637 -805 0
-110 -638 -806 0
-111 -639 -807 0
-112 -640 -808 0
-109 -641 -809 0
-110 -642 -810 0
-111 -643 -811 0
-112 -644 -812 0
-109 -645 -813 0
-110 -646 -814 0
-111 -647 -815 0
-112 -648 -816 0
-109 -649 -817 0
-110 -650 -818 0
-111 -651 -819 0
-112 -652 -820 0
-109 -653 -821 0
-110 -654 -822 0
-111 -655 -823 0
-112 -656 -824 0
-109 -657 -825 0
-110 -658 -826 0
-111 -659 -827 0
-112 -660 -828 0
-109 -661 -829 0
-110 -662 -830 0
-111 -663 -831 0
-112 -664 -832 0
-109 -665 -833 0
-110 -666 -834 0
-111 -667 -835 0
-112 -668 -836 0
-109 -669 -837 0
-110 -670 -838 0
-111 -671 -839 0
-112 -672 -840 0
-109 -673 -841 0
-110 -674 -842 0
-111 -675 -843 0
-112 -676 -844 0
-109 -677 -845 0
-110 -678 -846 0
-111 -679 -847 0
-112 -680 -848 0
-109 -681 -849 0
-110 -682 -850 0
-111 -683 -851 0
-112 -684 -852 0
-109 -685 -853 0
-110 -686 -854 0
-111 -687 -855 0
-112 -688 -856 0
-109 -689 -857 0
-110 -690 -858 0
-111 -691 -859 0
-112 -692 -860 0
-109 -693 -861 0
-110 -694 -862 0
-111 -695 -863 0
-112 -696 -864 0
-109 -697 -865 0
-110 -698 -866 0
-111 -699 -867 0
-112 -700 -868 0
-109 -701 -869 0
-110 -702 -870 0
-111 -703 -871 0
-112 -704 -872 0
-109 -705 -873 0
-110 -706 -874 0
-111 -707 -875 0
-112 -708 -876 0
-109 -709 -877 0
-110 -710 -878 0
-111 -711 -879 0
-112 -712 -880 0
-109 -713 -881 0
-110 -714 -882 0
-111 -715 -883 0
-112 -716 -884 0
-109 -717 -885 0
-110 -718 -886 0
-111 -719 -887 0
-112 -720 -888 0
-109 -721 -889 0
-110 -722 -890 0
-111 -723 -891 0
-112 -724 -892 0
-109 -725 -893 0
-110 -726 -894 0
-111 -727 -895 0
-112 -728 -896 0
-109 -729 -897 0
-110 -730 -898 0
-111 -731 -899 0
-112 -732 -900 0
-109 -733 -901 0
-110 -734 -902 0
-111 -735 -903 0
-112 -736 -904 0
-1 -117 -181 0
-2 -118 -182 0
-3 -119 -183 0
-4 -120 -184 0
-5 -117 -185 0
-6 -118 -186 0
-7 -119 -187 0
-8 -120 -188 0
-9 -117 -189 0
-10 -118 -190 0
-11 -119 -191 0
-12 -120 -192 0
-13 -117 -193 0
-14 -118 -194 0
-15 -119 -195 0
-16 -120 -196 0
-17 -117 -197 0
-18 -118 -198 0
-19 -119 -199 0
-20 -120 -200 0
-21 -117 -201 0
-22 -118 -202 0
-23 -119 -203 0
-24 -120 -204 0
-25 -117 -205 0
-26 -118 -206 0
-27 -119 -207 0
-28 -120 -208 0
-29 -117 -209 0
-30 -118 -210 0
-31 -119 -211 0
-32 -120 -212 0
-33 -117 -213 0
-34 -118 -214 0
-35 -119 -215 0
-36 -120 -216 0
-37 -117 -217 0
-38 -118 -218 0
-39 -119 -219 0
-40 -120 -220 0
-41 -117 -221 0
-42 -118 -222 0
-43 -119 -223 0
-44 -120 -224 0
-45 -117 -225 0
-46 -118 -226 0
-47 -119 -227 0
-48 -120 -228 0
-49 -117 -229 0
-50 -118 -230 0
-51 -119 -231 0
-52 -120 -232 0
-53 -117 -233 0
-54 -118 -234 0
-55 -119 -235 0
-56 -120 -236 0
-57 -117 -237 0
-58 -118 -238 0
-59 -119 -239 0
-60 -120 -240 0
-61 -117 -241 0
-62 -118 -242 0
-63 -119 -243 0
-64 -120 -244 0
-65 -117 -245 0
-66 -118 -246 0
-67 -119 -247 0
-68 -120 -248 0
-69 -117 -249 0
-70 -118 -250 0
-71 -119 -251 0
-72 -120 -252 0
-73 -117 -253 0
-74 -118 -254 0
-75 -119 -255 0
-76 -120 -256 0
-77 -117 -257 0
-78 -118 -258 0
-79 -119 -259 0
-80 -120 -260 0
-81 -117 -261 0
-82 -118 -262 0
-83 -119 -263 0
-84 -120 -264 0
-85 -117 -265 0
-86 -118 -266 0
-87 -119 -267 0
-88 -120 -268 0
-89 -117 -269 0
-90 -118 -270 0
-91 -119 -271 0
-92 -120 -272 0
-93 -117 -273 0
-94 -118 -274 0
-95 -119 -275 0
-96 -120 -276 0
-97 -117 -277 0
-98 -118 -278 0
-99 -119 -279 0
-100 -120 -280 0
-101 -117 -281 0
-102 -118 -282 0
-103 -119 -283 0
-104 -120 -284 0
-105 -117 -285 0
-106 -118 -286 0
-107 -119 -287 0
-108 -120 -288 0
-109 -117 -289 0
-110 -118 -290 0
-111 -119 -291 0
-112 -120 -292 0
-113 -117 -293 0
-114 -118 -294 0
-115 -119 -295 0
-116 -120 -296 0
-117 -297 0
-118 -298 0
-119 -299 0
-120 -300 0
-117 -121 -301 0
-118 -122 -302 0
-119 -123 -303 0
-120 -124 -304 0
-117 -125 -305 0
-118 -126 -306 0
-119 -127 -307 0
-120 -128 -308 0
-117 -129 -309 0
-118 -130 -310 0
-119 -131 -311 0
-120 -132 -312 0
-117 -133 -313 0
-118 -134 -314 0
-119 -135 -315 0
-120 -136 -316 0
-117 -137 -317 0
-118 -138 -318 0
-119 -139 -319 0
-120 -140 -320 0
-117 -141 -321 0
-118 -142 -322 0
-119 -143 -323 0
-120 -144 -324 0
-117 -145 -325 0
-118 -146 -326 0
-119 -147 -327 0
-120 -148 -328 0
-117 -149 -329 0
-118 -150 -330 0
-119 -151 -331 0
-120 -152 -332 0
-117 -153 -333 0
-118 -154 -334 0
-119 -155 -335 0
-120 -156 -336 0
-117 -157 -337 0
-118 -158 -338 0
-119 -159 -339 0
-120 -160 -340 0
-117 -161 -341 0
-118 -162 -342 0
-119 -163 -343 0
-120 -164 -344 0
-117 -165 -345 0
-118 -166 -346 0
-119 -167 -347 0
-120 -168 -348 0
-117 -169 -349 0
-118 -170 -350 0
-119 -171 -351 0
-120 -172 -352 0
-117 -173 -353 0
-118 -174 -354 0
-119 -175 -355 0
-120 -176 -356 0
-117 -177 -357 0
-118 -178 -358 0
-119 -179 -359 0
-120 -180 -360 0
-117 -181 -361 0
-118 -182 -362 0
-119 -183 -363 0
-120 -184 -364 0
-117 -185 -365 0
-118 -186 -366 0
-119 -187 -367 0
-120 -188 -368 0
-117 -189 -369 0
-118 -190 -370 0
-119 -191 -371 0
-120 -192 -372 0
-117 -193 -373 0
-118 -194 -374 0
-119 -195 -375 0
-120 -196 -376 0
-117 -197 -377 0
-118 -198 -378 0
-119 -199 -379 0
-120 -200 -380 0
-117 -201 -381 0
-118 -202 -382 0
-119 -203 -383 0
-120 -204 -384 0
-117 -205 -385 0
-118 -206 -386 0
-119 -207 -387 0
-120 -208 -388 0
-117 -209 -389 0
-118 -210 -390 0
-119 -211 -391 0
-120 -212 -392 0
-117 -213 -393 0
-118 -214 -394 0
-119 -215 -395 0
-120 -216 -396 0
-117 -217 -397 0
-118 -218 -398 0
-119 -219 -399 0
-120 -220 -400 0
-117 -221 -401 0
-118 -222 -402 0
-119 -223 -403 0
-120 -224 -404 0
-117 -225 -405 0
-118 -226 -406 0
-119 -227 -407 0
-120 -228 -408 0
-117 -229 -409 0
-118 -230 -410 0
-119 -231 -411 0
-120 -232 -412 0
-117 -233 -413 0
-118 -234 -414 0
-119 -235 -415 0
-120 -236 -416 0
-117 -237 -417 0
-118 -238 -418 0
-119 -239 -419 0
-120 -240 -420 0
-117 -241 -421 0
-118 -242 -422 0
-119 -243 -423 0
-120 -244 -424 0
-117 -245 -425 0
-118 -246 -426 0
-119 -247 -427 0
-120 -248 -428 0
-117 -249 -429 0
-118 -250 -430 0
-119 -251 -431 0
-120 -252 -432 0
-117 -253 -433 0
-118 -254 -434 0
-119 -255 -435 0
-120 -256 -436 0
-117 -257 -437 0
-118 -258 -438 0
-119 -259 -439 0
-120 -260 -440 0
-117 -261 -441 0
-118 -262 -442 0
-119 -263 -443 0
-120 -264 -444 0
-117 -265 -445 0
-118 -266 -446 0
-119 -267 -447 0
-120 -268 -448 0
-117 -269 -449 0
-118 -270 -450 0
-119 -271 -451 0
-120 -272 -452 0
-117 -273 -453 0
-118 -274 -454 0
-119 -275 -455 0
-120 -276 -456 0
-117 -277 -457 0
-118 -278 -458 0
-119 -279 -459 0
-120 -280 -460 0
-117 -281 -461 0
-118 -282 -462 0
-119 -283 -463 0
-120 -284 -464 0
-117 -285 -465 0
-118 -286 -466 0
-119 -287 -467 0
-120 -288 -468 0
-117 -289 -469 0
-118 -290 -470 0
-119 -291 -471 0
-120 -292 -472 0
-117 -293 -473 0
-118 -294 -474 0
-119 -295 -475 0
-120 -296 -476 0
-117 -297 -477 0
-118 -298 -478 0
-119 -299 -479 0
-120 -300 -480 0
-117 -301 -481 0
-118 -302 -482 0
-119 -303 -483 0
-120 -304 -484 0
-117 -305 -485 0
-118 -306 -486 0
-119 -307 -487 0
-120 -308 -488 0
-117 -309 -489 0
-118 -310 -490 0
-119 -311 -491 0
-120 -312 -492 0
-117 -313 -493 0
-118 -314 -494 0
-119 -315 -495 0
-120 -316 -496 0
-117 -317 -497 0
-118 -318 -498 0
-119 -319 -499 0
-120 -320 -500 0
-117 -321 -501 0
-118 -322 -502 0
-119 -323 -503 0
-120 -324 -504 0
-117 -325 -505 0
-118 -326 -506 0
-119 -327 -507 0
-120 -328 -508 0
-117 -329 -509 0
-118 -330 -510 0
-119 -331 -511 0
-120 -332 -512 0
-117 -333 -513 0
-118 -334 -514 0
-119 -335 -515 0
-120 -336 -516 0
-117 -337 -517 0
-118 -338 -518 0
-119 -339 -519 0
-120 -340 -520 0
-117 -341 -521 0
-118 -342 -522 0
-119 -343 -523 0
-120 -344 -524 0
-117 -345 -525 0
-118 -346 -526 0
-119 -347 -527 0
-120 -348 -528 0
-117 -349 -529 0
-118 -350 -530 0
-119 -351 -531 0
-120 -352 -532 0
-117 -353 -533 0
-118 -354 -534 0
-119 -355 -535 0
-120 -356 -536 0
-117 -357 -537 0
-118 -358 -538 0
-119 -359 -539 0
-120 -360 -540 0
-117 -361 -541 0
-118 -362 -542 0
-119 -363 -543 0
-120 -364 -544 0
-117 -365 -545 0
-118 -366 -546 0
-119 -367 -547 0
-120 -368 -548 0
-117 -369 -549 0
-118 -370 -550 0
-119 -371 -551 0
-120 -372 -552 0
-117 -373 -553 0
-118 -374 -554 0
-119 -375 -555 0
-120 -376 -556 0
-117 -377 -557 0
-118 -378 -558 0
-119 -379 -559 0
-120 -380 -560 0
-117 -381 -561 0
-118 -382 -562 0
-119 -383 -563 0
-120 -384 -564 0
-117 -385 -565 0
-118 -386 -566 0
-119 -387 -567 0
-120 -388 -568 0
-117 -389 -569 0
-118 -390 -570 0
-119 -391 -571 0
-120 -392 -572 0
-117 -393 -573 0
-118 -394 -574 0
-119 -395 -575 0
-120 -396 -576 0
-117 -397 -577 0
-118 -398 -578 0
-119 -399 -579 0
-120 -400 -580 0
-117 -401 -581 0
-118 -402 -582 0
-119 -403 -583 0
-120 -404 -584 0
-117 -405 -585 0
-118 -406 -586 0
-119 -407 -587 0
-120 -408 -588 0
-117 -409 -589 0
-118 -410 -590 0
-119 -411 -591 0
-120 -412 -592 0
-117 -413 -593 0
-118 -414 -594 0
-119 -415 -595 0
-120 -416 -596 0
-117 -417 -597 0
-118 -418 -598 0
-119 -419 -599 0
-120 -420 -600 0
-117 -421 -601 0
-118 -422 -602 0
-119 -423 -603 0
-120 -424 -604 0
-117 -425 -605 0
-118 -426 -606 0
-119 -427 -607 0
-120 -428 -608 0
-117 -429 -609 0
-118 -430 -610 0
-119 -431 -611 0
-120 -432 -612 0
-117 -433 -613 0
-118 -434 -614 0
-119 -435 -615 0
-120 -436 -616 0
-117 -437 -617 0
-118 -438 -618 0
-119 -439 -619 0
-120 -440 -620 0
-117 -441 -621 0
-118 -442 -622 0
-119 -443 -623 0
-120 -444 -624 0
-117 -445 -625 0
-118 -446 -626 0
-119 -447 -627 0
-120 -448 -628 0
-117 -449 -629 0
-118 -450 -630 0
-119 -451 -631 0
-120 -452 -632 0
-117 -453 -633 0
-118 -454 -634 0
-119 -455 -635 0
-120 -456 -636 0
-117 -457 -637 0
-118 -458 -638 0
-119 -459 -639 0
-120 -460 -640 0
-117 -461 -641 0
-118 -462 -642 0
-119 -463 -643 0
-120 -464 -644 0
-117 -465 -645 0
-118 -466 -646 0
-119 -467 -647 0
-120 -468 -648 0
-117 -469 -649 0
-118 -470 -650 0
-119 -471 -651 0
-120 -472 -652 0
-117 -473 -653 0
-118 -474 -654 0
-119 -475 -655 0
-120 -476 -656 0
-117 -477 -657 0
-118 -478 -658 0
-119 -479 -659 0
-120 -480 -660 0
-117 -481 -661 0
-118 -482 -662 0
-119 -483 -663 0
-120 -484 -664 0
-117 -485 -665 0
-118 -486 -666 0
-119 -487 -667 0
-120 -488 -668 0
-117 -489 -669 0
-118 -490 -670 0
-119 -491 -671 0
-120 -492 -672 0
-117 -493 -673 0
-118 -494 -674 0
-119 -495 -675 0
-120 -496 -676 0
-117 -497 -677 0
-118 -498 -678 0
-119 -499 -679 0
-120 -500 -680 0
-117 -501 -681 0
-118 -502 -682 0
-119 -503 -683 0
-120 -504 -684 0
-117 -505 -685 0
-118 -506 -686 0
-119 -507 -687 0
-120 -508 -688 0
-117 -509 -689 0
-118 -510 -690 0
-119 -511 -691 0
-120 -512 -692 0
-117 -513 -693 0
-118 -514 -694 0
-119 -515 -695 0
-120 -516 -696 0
-117 -517 -697 0
-118 -518 -698 0
-119 -519 -699 0
-120 -520 -700 0
-117 -521 -701 0
-118 -522 -702 0
-119 -523 -703 0
-120 -524 -704 0
-117 -525 -705 0
-118 -526 -706 0
-119 -527 -707 0
-120 -528 -708 0
-117 -529 -709 0
-118 -530 -710 0
-119 -531 -711 0
-120 -532 -712 0
-117 -533 -713 0
-118 -534 -714 0
-119 -535 -715 0
-120 -536 -716 0
-117 -537 -717 0
-118 -538 -718 0
-119 -539 -719 0
-120 -540 -720 0
-117 -541 -721 0
-118 -542 -722 0
-119 -543 -723 0
-120 -544 -724 0
-117 -545 -725 0
-118 -546 -726 0
-119 -547 -727 0
-120 -548 -728 0
-117 -549 -729 0
-118 -550 -730 0
-119 -551 -731 0
-120 -552 -732 0
-117 -553 -733 0
-118 -554 -734 0
-119 -555 -735 0
-120 -556 -736 0
-117 -557 -737 0
-118 -558 -738 0
-119 -559 -739 0
-120 -560 -740 0
-117 -561 -741 0
-118 -562 -742 0
-119 -563 -743 0
-120 -564 -744 0
-117 -565 -745 0
-118 -566 -746 0
-119 -567 -747 0
-120 -568 -748 0
-117 -569 -749 0
-118 -570 -750 0
-119 -571 -751 0
-120 -572 -752 0
-117 -573 -753 0
-118 -574 -754 0
-119 -575 -755 0
-120 -576 -756 0
-117 -577 -757 0
-118 -578 -758 0
-119 -579 -759 0
-120 -580 -760 0
-117 -581 -761 0
-118 -582 -762 0
-119 -583 -763 0
-120 -584 -764 0
-117 -585 -765 0
-118 -586 -766 0
-119 -587 -767 0
-120 -588 -768 0
-117 -589 -769 0
-118 -590 -770 0
-119 -591 -771 0
-120 -592 -772 0
-117 -593 -773 0
-118 -594 -774 0
-119 -595 -775 0
-120 -596 -776 0
-117 -597 -777 0
-118 -598 -778 0
-119 -599 -779 0
-120 -600 -780 0
-117 -601 -781 0
-118 -602 -782 0
-119 -603 -783 0
-120 -604 -784 0
-117 -605 -785 0
-118 -606 -786 0
-119 -607 -787 0
-120 -608 -788 0
-117 -609 -789 0
-118 -610 -790 0
-119 -611 -791 0
-120 -612 -792 0
-117 -613 -793 0
-118 -614 -794 0
-119 -615 -795 0
-120 -616 -796 0
-117 -617 -797 0
-118 -618 -798 0
-119 -619 -799 0
-120 -620 -800 0
-117 -621 -801 0
-118 -622 -802 0
-119 -623 -803 0
-120 -624 -804 0
-117 -625 -805 0
-118 -626 -806 0
-119 -627 -807 0
-120 -628 -808 0
-117 -629 -809 0
-118 -630 -810 0
-119 -631 -811 0
-120 -632 -812 0
-117 -633 -813 0
-118 -634 -814 0
-119 -635 -815 0
-120 -636 -816 0
-117 -637 -817 0
-118 -638 -818 0
-119 -639 -819 0
-120 -640 -820 0
-117 -641 -821 0
-118 -642 -822 0
-119 -643 -823 0
-120 -644 -824 0
-117 -645 -825 0
-118 -646 -826 0
-119 -647 -827 0
-120 -648 -828 0
-117 -649 -829 0
-118 -650 -830 0
-119 -651 -831 0
-120 -652 -832 0
-117 -653 -833 0
-118 -654 -834 0
-119 -655 -835 0
-120 -656 -836 0
-117 -657 -837 0
-118 -658 -838 0
-119 -659 -839 0
-120 -660 -840 0
-117 -661 -841 0
-118 -662 -842 0
-119 -663 -843 0
-120 -664 -844 0
-117 -665 -845 0
-118 -666 -846 0
-119 -667 -847 0
-120 -668 -848 0
-117 -669 -849 0
-118 -670 -850 0
-119 -671 -851 0
-120 -672 -852 0
-117 -673 -853 0
-118 -674 -854 0
-119 -675 -855 0
-120 -676 -856 0
-117 -677 -857 0
-118 -678 -858 0
-119 -679 -859 0
-120 -680 -860 0
-117 -681 -861 0
-118 -682 -862 0
-119 -683 -863 0
-120 -684 -864 0
-117 -685 -865 0
-118 -686 -866 0
-119 -687 -867 0
-120 -688 -868 0
-117 -689 -869 0
-118 -690 -870 0
-119 -691 -871 0
-120 -692 -872 0
-117 -693 -873 0
-118 -694 -874 0
-119 -695 -875 0
-120 -696 -876 0
-117 -697 -877 0
-118 -698 -878 0
-119 -699 -879 0
-120 -700 -880 0
-117 -701 -881 0
-118 -702 -882 0
-119 -703 -883 0
-120 -704 -884 0
-117 -705 -885 0
-118 -706 -886 0
-119 -707 -887 0
-120 -708 -888 0
-117 -709 -889 0
-118 -710 -890 0
-119 -711 -891 0
-120 -712 -892 0
-117 -713 -893 0
-118 -714 -894 0
-119 -715 -895 0
-120 -716 -896 0
-117 -717 -897 0
-118 -718 -898 0
-119 -719 -899 0
-120 -720 -900 0
-117 -721 -901 0
-118 -722 -902 0
-119 -723 -903 0
-120 -724 -904 0
-1 -125 -193 0
-2 -126 -194 0
-3 -127 -195 0
-4 -128 -196 0
-5 -125 -197 0
-6 -126 -198 0
-7 -127 -199 0
-8 -128 -200 0
-9 -125 -201 0
-10 -126 -202 0
-11 -127 -203 0
-12 -128 -204 0
-13 -125 -205 0
-14 -126 -206 0
-15 -127 -207 0
-16 -128 -208 0
-17 -125 -209 0
-18 -126 -210 0
-19 -127 -211 0
-20 -128 -212 0
-21 -125 -213 0
-22 -126 -214 0
-23 -127 -215 0
-24 -128 -216 0
-25 -125 -217 0
-26 -126 -218 0
-27 -127 -219 0
-28 -128 -220 0
-29 -125 -221 0
-30 -126 -222 0
-31 -127 -223 0
-32 -128 -224 0
-33 -125 -225 0
-34 -126 -226 0
-35 -127 -227 0
-36 -128 -228 0
-37 -125 -229 0
-38 -126 -230 0
-39 -127 -231 0
-40 -128 -232 0
-41 -125 -233 0
-42 -126 -234 0
-43 -127 -235 0
-44 -128 -236 0
-45 -125 -237 0
-46 -126 -238 0
-47 -127 -239 0
-48 -128 -240 0
-49 -125 -241 0
-50 -126 -242 0
-51 -127 -243 0
-52 -128 -244 0
-53 -125 -245 0
-54 -126 -246 0
-55 -127 -247 0
-56 -128 -248 0
-57 -125 -249 0
-58 -126 -250 0
-59 -127 -251 0
-60 -128 -252 0
-61 -125 -253 0
-62 -126 -254 0
-63 -127 -255 0
-64 -128 -256 0
-65 -125 -257 0
-66 -126 -258 0
-67 -127 -259 0
-68 -128 -260 0
-69 -125 -261 0
-70 -126 -262 0
-71 -127 -263 0
-72 -128 -264 0
-73 -125 -265 0
-74 -126 -266 0
-75 -127 -267 0
-76 -128 -268 0
-77 -125 -269 0
-78 -126 -270 0
-79 -127 -271 0
-80 -128 -272 0
-81 -125 -273 0
-82 -126 -274 0
-83 -127 -275 0
-84 -128 -276 0
-85 -125 -277 0
-86 -126 -278 0
-87 -127 -279 0
-88 -128 -280 0
-89 -125 -281 0
-90 -126 -282 0
-91 -127 -283 0
-92 -128 -284 0
-93 -125 -285 0
-94 -126 -286 0
-95 -127 -287 0
-96 -128 -288 0
-97 -125 -289 0
-98 -126 -290 0
-99 -127 -291 0
-100 -128 -292 0
-101 -125 -293 0
-102 -126 -294 0
-103 -127 -295 0
-104 -128 -296 0
-105 -125 -297 0
-106 -126 -298 0
-107 -127 -299 0
-108 -128 -300 0
-109 -125 -301 0
-110 -126 -302 0
-111 -127 -303 0
-112 -128 -304 0
-113 -125 -305 0
-114 -126 -306 0
-115 -127 -307 0
-116 -128 -308 0
-117 -125 -309 0
-118 -126 -310 0
-119 -127 -311 0
-120 -128 -312 0
-121 -125 -313 0
-122 -126 -314 0
-123 -127 -315 0
-124 -128 -316 0
-125 -317 0
-126 -318 0
-127 -319 0
-128 -320 0
-125 -129 -321 0
-126 -130 -322 0
-127 -131 -323 0
-128 -132 -324 0
-125 -133 -325 0
-126 -134 -326 0
-127 -135 -327 0
-128 -136 -328 0
-125 -137 -329 0
-126 -138 -330 0
-127 -139 -331 0
-128 -140 -332 0
-125 -141 -333 0
-126 -142 -334 0
-127 -143 -335 0
-128 -144 -336 0
-125 -145 -337 0
-126 -146 -338 0
-127 -147 -339 0
-128 -148 -340 0
-125 -149 -341 0
-126 -150 -342 0
-127 -151 -343 0
-128 -152 -344 0
-125 -153 -345 0
-126 -154 -346 0
-127 -155 -347 0
-128 -156 -348 0
-125 -157 -349 0
-126 -158 -350 0
-127 -159 -351 0
-128 -160 -352 0
-125 -161 -353 0
-126 -162 -354 0
-127 -163 -355 0
-128 -164 -356 0
-125 -165 -357 0
-126 -166 -358 0
-127 -167 -359 0
-128 -168 -360 0
-125 -169 -361 0
-126 -170 -362 0
-127 -171 -363 0
-128 -172 -364 0
-125 -173 -365 0
-126 -174 -366 0
-127 -175 -367 0
-128 -176 -368 0
-125 -177 -369 0
-126 -178 -370 0
-127 -179 -371 0
-128 -180 -372 0
-125 -181 -373 0
-126 -182 -374 0
-127 -183 -375 0
-128 -184 -376 0
-125 -185 -377 0
-126 -186 -378 0
-127 -187 -379 0
-128 -188 -380 0
-125 -189 -381 0
-126 -190 -382 0
-127 -191 -383 0
-128 -192 -384 0
-125 -193 -385 0
-126 -194 -386 0
-127 -195 -387 0
-128 -196 -388 0
-125 -197 -389 0
-126 -198 -390 0
-127 -199 -391 0
-128 -200 -392 0
-125 -201 -393 0
-126 -202 -394 0
-127 -203 -395 0
-128 -204 -396 0
-125 -205 -397 0
-126 -206 -398 0
-127 -207 -399 0
-128 -208 -400 0
-125 -209 -401 0
-126 -210 -402 0
-127 -211 -403 0
-128 -212 -404 0
-125 -213 -405 0
-126 -214 -406 0
-127 -215 -407 0
-128 -216 -408 0
-125 -217 -409 0
-126 -218 -410 0
-127 -219 -411 0
-128 -220 -412 0
-125 -221 -413 0
-126 -222 -414 0
-127 -223 -415 0
-128 -224 -416 0
-125 -225 -417 0
-126 -226 -418 0
-127 -227 -419 0
-128 -228 -420 0
-125 -229 -421 0
-126 -230 -422 0
-127 -231 -423 0
-128 -232 -424 0
-125 -233 -425 0
-126 -234 -426 0
-127 -235 -427 0
-128 -236 -428 0
-125 -237 -429 0
-126 -238 -430 0
-127 -239 -431 0
-128 -240 -432 0
-125 -241 -433 0
-126 -242 -434 0
-127 -243 -435 0
-128 -244 -436 0
-125 -245 -437 0
-126 -246 -438 0
-127 -247 -439 0
-128 -248 -440 0
-125 -249 -441 0
-126 -250 -442 0
-127 -251 -443 0
-128 -252 -444 0
-125 -253 -445 0
-126 -254 -446 0
-127 -255 -447 0
-128 -256 -448 0
-125 -257 -449 0
-126 -258 -450 0
-127 -259 -451 0
-128 -260 -452 0
-125 -261 -453 0
-126 -262 -454 0
-127 -263 -455 0
-128 -264 -456 0
-125 -265 -457 0
-126 -266 -458 0
-127 -267 -459 0
-128 -268 -460 0
-125 -269 -461 0
-126 -270 -462 0
-127 -271 -463 0
-128 -272 -464 0
-125 -273 -465 0
-126 -274 -466 0
-127 -275 -467 0
-128 -276 -468 0
-125 -277 -469 0
-126 -278 -470 0
-127 -279 -471 0
-128 -280 -472 0
-125 -281 -473 0
-126 -282 -474 0
-127 -283 -475 0
-128 -284 -476 0
-125 -285 -477 0
-126 -286 -478 0
-127 -287 -479 0
-128 -288 -480 0
-125 -289 -481 0
-126 -290 -482 0
-127 -291 -483 0
-128 -292 -484 0
-125 -293 -485 0
-126 -294 -486 0
-127 -295 -487 0
-128 -296 -488 0
-125 -297 -489 0
-126 -298 -490 0
-127 -299 -491 0
-128 -300 -492 0
-125 -301 -493 0
-126 -302 -494 0
-127 -303 -495 0
-128 -304 -496 0
-125 -305 -497 0
-126 -306 -498 0
-127 -307 -499 0
-128 -308 -500 0
-125 -309 -501 0
-126 -310 -502 0
-127 -311 -503 0
-128 -312 -504 0
-125 -313 -505 0
-126 -314 -506 0
-127 -315 -507 0
-128 -316 -508 0
-125 -317 -509 0
-126 -318 -510 0
-127 -319 -511 0
-128 -320 -512 0
-125 -321 -513 0
-126 -322 -514 0
-127 -323 -515 0
-128 -324 -516 0
-125 -325 -517 0
-126 -326 -518 0
-127 -327 -519 0
-128 -328 -520 0
-125 -329 -521 0
-126 -330 -522 0
-127 -331 -523 0
-128 -332 -524 0
-125 -333 -525 0
-126 -334 -526 0
-127 -335 -527 0
-128 -336 -528 0
-125 -337 -529 0
-126 -338 -530 0
-127 -339 -531 0
-128 -340 -532 0
-125 -341 -533 0
-126 -342 -534 0
-127 -343 -535 0
-128 -344 -536 0
-125 -345 -537 0
-126 -346 -538 0
-127 -347 -539 0
-128 -348 -540 0
-125 -349 -541 0
-126 -350 -542 0
-127 -351 -543 0
-128 -352 -544 0
-125 -353 -545 0
-126 -354 -546 0
-127 -355 -547 0
-128 -356 -548 0
-125 -357 -549 0
-126 -358 -550 0
-127 -359 -551 0
-128 -360 -552 0
-125 -361 -553 0
-126 -362 -554 0
-127 -363 -555 0
-128 -364 -556 0
-125 -365 -557 0
-126 -366 -558 0
-127 -367 -559 0
-128 -368 -560 0
-125 -369 -561 0
-126 -370 -562 0
-127 -371 -563 0
-128 -372 -564 0
-125 -373 -565 0
-126 -374 -566 0
-127 -375 -567 0
-128 -376 -568 0
-125 -377 -569 0
-126 -378 -570 0
-127 -379 -571 0
-128 -380 -572 0
-125 -381 -573 0
-126 -382 -574 0
-127 -383 -575 0
-128 -384 -576 0
-125 -385 -577 0
-126 -386 -578 0
-127 -387 -579 0
-128 -388 -580 0
-125 -389 -581 0
-126 -390 -582 0
-127 -391 -583 0
-128 -392 -584 0
-125 -393 -585 0
-126 -394 -586 0
-127 -395 -587 0
-128 -396 -588 0
-125 -397 -589 0
-126 -398 -590 0
-127 -399 -591 0
-128 -400 -592 0
-125 -401 -593 0
-126 -402 -594 0
-127 -403 -595 0
-128 -404 -596 0
-125 -405 -597 0
-126 -406 -598 0
-127 -407 -599 0
-128 -408 -600 0
-125 -409 -601 0
-126 -410 -602 0
-127 -411 -603 0
-128 -412 -604 0
-125 -413 -605 0
-126 -414 -606 0
-127 -415 -607 0
-128 -416 -608 0
-125 -417 -609 0
-126 -418 -610 0
-127 -419 -611 0
-128 -420 -612 0
-125 -421 -613 0
-126 -422 -614 0
-127 -423 -615 0
-128 -424 -616 0
-125 -425 -617 0
-126 -426 -618 0
-127 -427 -619 0
-128 -428 -620 0
-125 -429 -621 0
-126 -430 -622 0
-127 -431 -623 0
-128 -432 -624 0
-125 -433 -625 0
-126 -434 -626 0
-127 -435 -627 0
-128 -436 -628 0
-125 -437 -629 0
-126 -438 -630 0
-127 -439 -631 0
-128 -440 -632 0
-125 -441 -633 0
-126 -442 -634 0
-127 -443 -635 0
-128 -444 -636 0
-125 -445 -637 0
-126 -446 -638 0
-127 -447 -639 0
-128 -448 -640 0
-125 -449 -641 0
-126 -450 -642 0
-127 -451 -643 0
-128 -452 -644 0
-125 -453 -645 0
-126 -454 -646 0
-127 -455 -647 0
-128 -456 -648 0
-125 -457 -649 0
-126 -458 -650 0
-127 -459 -651 0
-128 -460 -652 0
-125 -461 -653 0
-126 -462 -654 0
-127 -463 -655 0
-128 -464 -656 0
-125 -465 -657 0
-126 -466 -658 0
-127 -467 -659 0
-128 -468 -660 0
-125 -469 -661 0
-126 -470 -662 0
-127 -471 -663 0
-128 -472 -664 0
-125 -473 -665 0
-126 -474 -666 0
-127 -475 -667 0
-128 -476 -668 0
-125 -477 -669 0
-126 -478 -670 0
-127 -479 -671 0
-128 -480 -672 0
-125 -481 -673 0
-126 -482 -674 0
-127 -483 -675 0
-128 -484 -676 0
-125 -485 -677 0
-126 -486 -678 0
-127 -487 -679 0
-128 -488 -680 0
-125 -489 -681 0
-126 -490 -682 0
-127 -491 -683 0
-128 -492 -684 0
-125 -493 -685 0
-126 -494 -686 0
-127 -495 -687 0
-128 -496 -688 0
-125 -497 -689 0
-126 -498 -690 0
-127 -499 -691 0
-128 -500 -692 0
-125 -501 -693 0
-126 -502 -694 0
-127 -503 -695 0
-128 -504 -696 0
-125 -505 -697 0
-126 -506 -698 0
-127 -507 -699 0
-128 -508 -700 0
-125 -509 -701 0
-126 -510 -702 0
-127 -511 -703 0
-128 -512 -704 0
-125 -513 -705 0
-126 -514 -706 0
-127 -515 -707 0
-128 -516 -708 0
-125 -517 -709 0
-126 -518 -710 0
-127 -519 -711 0
-128 -520 -712 0
-125 -521 -713 0
-126 -522 -714 0
-127 -523 -715 0
-128 -524 -716 0
-125 -525 -717 0
-126 -526 -718 0
-127 -527 -719 0
-128 -528 -720 0
-125 -529 -721 0
-126 -530 -722 0
-127 -531 -723 0
-128 -532 -724 0
-125 -533 -725 0
-126 -534 -726 0
-127 -535 -727 0
-128 -536 -728 0
-125 -537 -729 0
-126 -538 -730 0
-127 -539 -731 0
-128 -540 -732 0
-125 -541 -733 0
-126 -542 -734 0
-127 -543 -735 0
-128 -544 -736 0
-125 -545 -737 0
-126 -546 -738 0
-127 -547 -739 0
-128 -548 -740 0
-125 -549 -741 0
-126 -550 -742 0
-127 -551 -743 0
-128 -552 -744 0
-125 -553 -745 0
-126 -554 -746 0
-127 -555 -747 0
-128 -556 -748 0
-125 -557 -749 0
-126 -558 -750 0
-127 -559 -751 0
-128 -560 -752 0
-125 -561 -753 0
-126 -562 -754 0
-127 -563 -755 0
-128 -564 -756 0
-125 -565 -757 0
-126 -566 -758 0
-127 -567 -759 0
-128 -568 -760 0
-125 -569 -761 0
-126 -570 -762 0
-127 -571 -763 0
-128 -572 -764 0
-125 -573 -765 0
-126 -574 -766 0
-127 -575 -767 0
-128 -576 -768 0
-125 -577 -769 0
-126 -578 -770 0
-127 -579 -771 0
-128 -580 -772 0
-125 -581 -773 0
-126 -582 -774 0
-127 -583 -775 0
-128 -584 -776 0
-125 -585 -777 0
-126 -586 -778 0
-127 -587 -779 0
-128 -588 -780 0
-125 -589 -781 0
-126 -590 -782 0
-127 -591 -783 0
-128 -592 -784 0
-125 -593 -785 0
-126 -594 -786 0
-127 -595 -787 0
-128 -596 -788 0
-125 -597 -789 0
-126 -598 -790 0
-127 -599 -791 0
-128 -600 -792 0
-125 -601 -793 0
-126 -602 -794 0
-127 -603 -795 0
-128 -604 -796 0
-125 -605 -797 0
-126 -606 -798 0
-127 -607 -799 0
-128 -608 -800 0
-125 -609 -801 0
-126 -610 -802 0
-127 -611 -803 0
-128 -612 -804 0
-125 -613 -805 0
-126 -614 -806 0
-127 -615 -807 0
-128 -616 -808 0
-125 -617 -809 0
-126 -618 -810 0
-127 -619 -811 0
-128 -620 -812 0
-125 -621 -813 0
-126 -622 -814 0
-127 -623 -815 0
-128 -624 -816 0
-125 -625 -817 0
-126 -626 -818 0
-127 -627 -819 0
-128 -628 -820 0
-125 -629 -821 0
-126 -630 -822 0
-127 -631 -823 0
-128 -632 -824 0
-125 -633 -825 0
-126 -634 -826 0
-127 -635 -827 0
-128 -636 -828 0
-125 -637 -829 0
-126 -638 -830 0
-127 -639 -831 0
-128 -640 -832 0
-125 -641 -833 0
-126 -642 -834 0
-127 -643 -835 0
-128 -644 -836 0
-125 -645 -837 0
-126 -646 -838 0
-127 -647 -839 0
-128 -648 -840 0
-125 -649 -841 0
-126 -650 -842 0
-127 -651 -843 0
-128 -652 -844 0
-125 -653 -845 0
-126 -654 -846 0
-127 -655 -847 0
-128 -656 -848 0
-125 -657 -849 0
-126 -658 -850 0
-127 -659 -851 0
-128 -660 -852 0
-125 -661 -853 0
-126 -662 -854 0
-127 -663 -855 0
-128 -664 -856 0
-125 -665 -857 0
-126 -666 -858 0
-127 -667 -859 0
-128 -668 -860 0
-125 -669 -861 0
-126 -670 -862 0
-127 -671 -863 0
-128 -672 -864 0
-125 -673 -865 0
-126 -674 -866 0
-127 -675 -867 0
-128 -676 -868 0
-125 -677 -869 0
-126 -678 -870 0
-127 -679 -871 0
-128 -680 -872 0
-125 -681 -873 0
-126 -682 -874 0
-127 -683 -875 0
-128 -684 -876 0
-125 -685 -877 0
-126 -686 -878 0
-127 -687 -879 0
-128 -688 -880 0
-125 -689 -881 0
-126 -690 -882 0
-127 -691 -883 0
-128 -692 -884 0
-125 -693 -885 0
-126 -694 -886 0
-127 -695 -887 0
-128 -696 -888 0
-125 -697 -889 0
-126 -698 -890 0
-127 -699 -891 0
-128 -700 -892 0
-125 -701 -893 0
-126 -702 -894 0
-127 -703 -895 0
-128 -704 -896 0
-125 -705 -897 0
-126 -706 -898 0
-127 -707 -899 0
-128 -708 -900 0
-125 -709 -901 0
-126 -710 -902 0
-127 -711 -903 0
-128 -712 -904 0
-1 -133 -205 0
-2 -134 -206 0
-3 -135 -207 0
-4 -136 -208 0
-5 -133 -209 0
-6 -134 -210 0
-7 -135 -211 0
-8 -136 -212 0
-9 -133 -213 0
-10 -134 -214 0
-11 -135 -215 0
-12 -136 -216 0
-13 -133 -217 0
-14 -134 -218 0
-15 -135 -219 0
-16 -136 -220 0
-17 -133 -221 0
-18 -134 -222 0
-19 -135 -223 0
-20 -136 -224 0
-21 -133 -225 0
-22 -134 -226 0
-23 -135 -227 0
-24 -136 -228 0
-25 -133 -229 0
-26 -134 -230 0
-27 -135 -231 0
-28 -136 -232 0
-29 -133 -233 0
-30 -134 -234 0
-31 -135 -235 0
-32 -136 -236 0
-33 -133 -237 0
-34 -134 -238 0
-35 -135 -239 0
-36 -136 -240 0
-37 -133 -241 0
-38 -134 -242 0
-39 -135 -243 0
-40 -136 -244 0
-41 -133 -245 0
-42 -134 -246 0
-43 -135 -247 0
-44 -136 -248 0
-45 -133 -249 0
-46 -134 -250 0
-47 -135 -251 0
-48 -136 -252 0
-49 -133 -253 0
-50 -134 -254 0
-51 -135 -255 0
-52 -136 -256 0
-53 -133 -257 0
-54 -134 -258 0
-55 -135 -259 0
-56 -136 -260 0
-57 -133 -261 0
-58 -134 -262 0
-59 -135 -263 0
-60 -136 -264 0
-61 -133 -265 0
-62 -134 -266 0
-63 -135 -267 0
-64 -136 -268 0
-65 -133 -269 0
-66 -134 -270 0
-67 -135 -271 0
-68 -136 -272 0
-69 -133 -273 0
-70 -134 -274 0
-71 -135 -275 0
-72 -136 -276 0
-73 -133 -277 0
-74 -134 -278 0
-75 -135 -279 0
-76 -136 -280 0
-77 -133 -281 0
-78 -134 -282 0
-79 -135 -283 0
-80 -136 -284 0
-81 -133 -285 0
-82 -134 -286 0
-83 -135 -287 0
-84 -136 -288 0
-85 -133 -289 0
-86 -134 -290 0
-87 -135 -291 0
-88 -136 -292 0
-89 -133 -293 0
-90 -134 -294 0
-91 -135 -295 0
-92 -136 -296 0
-93 -133 -297 0
-94 -134 -298 0
-95 -135 -299 0
-96 -136 -300 0
-97 -133 -301 0
-98 -134 -302 0
-99 -135 -303 0
-100 -136 -304 0
-101 -133 -305 0
-102 -134 -306 0
-103 -135 -307 0
-104 -136 -308 0
-105 -133 -309 0
-106 -134 -310 0
-107 -135 -311 0
-108 -136 -312 0
-109 -133 -313 0
-110 -134 -314 0
-111 -135 -315 0
-112 -136 -316 0
-113 -133 -317 0
-114 -134 -318 0
-115 -135 -319 0
-116 -136 -320 0
-117 -133 -321 0
-118 -134 -322 0
-119 -135 -323 0
-120 -136 -324 0
-121 -133 -325 0
-122 -134 -326 0
-123 -135 -327 0
-124 -136 -328 0
-125 -133 -329 0
-126 -134 -330 0
-127 -135 -331 0
-128 -136 -332 0
-129 -133 -333 0
-130 -134 -334 0
-131 -135 -335 0
-132 -136 -336 0
-133 -337 0
-134 -338 0
-135 -339 0
-136 -340 0
-133 -137 -341 0
-134 -138 -342 0
-135 -139 -343 0
-136 -140 -344 0
-133 -141 -345 0
-134 -142 -346 0
-135 -143 -347 0
-136 -144 -348 0
-133 -145 -349 0
-134 -146 -350 0
-135 -147 -351 0
-136 -148 -352 0
-133 -149 -353 0
-134 -150 -354 0
-135 -151 -355 0
-136 -152 -356 0
-133 -153 -357 0
-134 -154 -358 0
-135 -155 -359 0
-136 -156 -360 0
-133 -157 -361 0
-134 -158 -362 0
-135 -159 -363 0
-136 -160 -364 0
-133 -161 -365 0
-134 -162 -366 0
-135 -163 -367 0
-136 -164 -368 0
-133 -165 -369 0
-134 -166 -370 0
-135 -167 -371 0
-136 -168 -372 0
-133 -169 -373 0
-134 -170 -374 0
-135 -171 -375 0
-136 -172 -376 0
-133 -173 -377 0
-134 -174 -378 0
-135 -175 -379 0
-136 -176 -380 0
-133 -177 -381 0
-134 -178 -382 0
-135 -179 -383 0
-136 -180 -384 0
-133 -181 -385 0
-134 -182 -386 0
-135 -183 -387 0
-136 -184 -388 0
-133 -185 -389 0
-134 -186 -390 0
-135 -187 -391 0
-136 -188 -392 0
-133 -189 -393 0
-134 -190 -394 0
-135 -191 -395 0
-136 -192 -396 0
-133 -193 -397 0
-134 -194 -398 0
-135 -195 -399 0
-136 -196 -400 0
-133 -197 -401 0
-134 -198 -402 0
-135 -199 -403 0
-136 -200 -404 0
-133 -201 -405 0
-134 -202 -406 0
-135 -203 -407 0
-136 -204 -408 0
-133 -205 -409 0
-134 -206 -410 0
-135 -207 -411 0
-136 -208 -412 0
-133 -209 -413 0
-134 -210 -414 0
-135 -211 -415 0
-136 -212 -416 0
-133 -213 -417 0
-134 -214 -418 0
-135 -215 -419 0
-136 -216 -420 0
-133 -217 -421 0
-134 -218 -422 0
-135 -219 -423 0
-136 -220 -424 0
-133 -221 -425 0
-134 -222 -426 0
-135 -223 -427 0
-136 -224 -428 0
-133 -225 -429 0
-134 -226 -430 0
-135 -227 -431 0
-136 -228 -432 0
-133 -229 -433 0
-134 -230 -434 0
-135 -231 -435 0
-136 -232 -436 0
-133 -233 -437 0
-134 -234 -438 0
-135 -235 -439 0
-136 -236 -440 0
-133 -237 -441 0
-134 -238 -442 0
-135 -239 -443 0
-136 -240 -444 0
-133 -241 -445 0
-134 -242 -446 0
-135 -243 -447 0
-136 -244 -448 0
-133 -245 -449 0
-134 -246 -450 0
-135 -247 -451 0
-136 -248 -452 0
-133 -249 -453 0
-134 -250 -454 0
-135 -251 -455 0
-136 -252 -456 0
-133 -253 -457 0
-134 -254 -458 0
-135 -255 -459 0
-136 -256 -460 0
-133 -257 -461 0
-134 -258 -462 0
-135 -259 -463 0
-136 -260 -464 0
-133 -261 -465 0
-134 -262 -466 0
-135 -263 -467 0
-136 -264 -468 0
-133 -265 -469 0
-134 -266 -470 0
-135 -267 -471 0
-136 -268 -472 0
-133 -269 -473 0
-134 -270 -474 0
-135 -271 -475 0
-136 -272 -476 0
-133 -273 -477 0
-134 -274 -478 0
-135 -275 -479 0
-136 -276 -480 0
-133 -277 -481 0
-134 -278 -482 0
-135 -279 -483 0
-136 -280 -484 0
-133 -281 -485 0
-134 -282 -486 0
-135 -283 -487 0
-136 -284 -488 0
-133 -285 -489 0
-134 -286 -490 0
-135 -287 -491 0
-136 -288 -492 0
-133 -289 -493 0
-134 -290 -494 0
-135 -291 -495 0
-136 -292 -496 0
-133 -293 -497 0
-134 -294 -498 0
-135 -295 -499 0
-136 -296 -500 0
-133 -297 -501 0
-134 -298 -502 0
-135 -299 -503 0
-136 -300 -504 0
-133 -301 -505 0
-134 -302 -506 0
-135 -303 -507 0
-136 -304 -508 0
-133 -305 -509 0
-134 -306 -510 0
-135 -307 -511 0
-136 -308 -512 0
-133 -309 -513 0
-134 -310 -514 0
-135 -311 -515 0
-136 -312 -516 0
-133 -313 -517 0
-134 -314 -518 0
-135 -315 -519 0
-136 -316 -520 0
-133 -317 -521 0
-134 -318 -522 0
-135 -319 -523 0
-136 -320 -524 0
-133 -321 -525 0
-134 -322 -526 0
-135 -323 -527 0
-136 -324 -528 0
-133 -325 -529 0
-134 -326 -530 0
-135 -327 -531 0
-136 -328 -532 0
-133 -329 -533 0
-134 -330 -534 0
-135 -331 -535 0
-136 -332 -536 0
-133 -333 -537 0
-134 -334 -538 0
-135 -335 -539 0
-136 -336 -540 0
-133 -337 -541 0
-134 -338 -542 0
-135 -339 -543 0
-136 -340 -544 0
-133 -341 -545 0
-134 -342 -546 0
-135 -343 -547 0
-136 -344 -548 0
-133 -345 -549 0
-134 -346 -550 0
-135 -347 -551 0
-136 -348 -552 0
-133 -349 -553 0
-134 -350 -554 0
-135 -351 -555 0
-136 -352 -556 0
-133 -353 -557 0
-134 -354 -558 0
-135 -355 -559 0
-136 -356 -560 0
-133 -357 -561 0
-134 -358 -562 0
-135 -359 -563 0
-136 -360 -564 0
-133 -361 -565 0
-134 -362 -566 0
-135 -363 -567 0
-136 -364 -568 0
-133 -365 -569 0
-134 -366 -570 0
-135 -367 -571 0
-136 -368 -572 0
-133 -369 -573 0
-134 -370 -574 0
-135 -371 -575 0
-136 -372 -576 0
-133 -373 -577 0
-134 -374 -578 0
-135 -375 -579 0
-136 -376 -580 0
-133 -377 -581 0
-134 -378 -582 0
-135 -379 -583 0
-136 -380 -584 0
-133 -381 -585 0
-134 -382 -586 0
-135 -383 -587 0
-136 -384 -588 0
-133 -385 -589 0
-134 -386 -590 0
-135 -387 -591 0
-136 -388 -592 0
-133 -389 -593 0
-134 -390 -594 0
-135 -391 -595 0
-136 -392 -596 0
-133 -393 -597 0
-134 -394 -598 0
-135 -395 -599 0
-136 -396 -600 0
-133 -397 -601 0
-134 -398 -602 0
-135 -399 -603 0
-136 -400 -604 0
-133 -401 -605 0
-134 -402 -606 0
-135 -403 -607 0
-136 -404 -608 0
-133 -405 -609 0
-134 -406 -610 0
-135 -407 -611 0
-136 -408 -612 0
-133 -409 -613 0
-134 -410 -614 0
-135 -411 -615 0
-136 -412 -616 0
-133 -413 -617 0
-134 -414 -618 0
-135 -415 -619 0
-136 -416 -620 0
-133 -417 -621 0
-134 -418 -622 0
-135 -419 -623 0
-136 -420 -624 0
-133 -421 -625 0
-134 -422 -626 0
-135 -423 -627 0
-136 -424 -628 0
-133 -425 -629 0
-134 -426 -630 0
-135 -427 -631 0
-136 -428 -632 0
-133 -429 -633 0
-134 -430 -634 0
-135 -431 -635 0
-136 -432 -636 0
-133 -433 -637 0
-134 -434 -638 0
-135 -435 -639 0
-136 -436 -640 0
-133 -437 -641 0
-134 -438 -642 0
-135 -439 -643 0
-136 -440 -644 0
-133 -441 -645 0
-134 -442 -646 0
-135 -443 -647 0
-136 -444 -648 0
-133 -445 -649 0
-134 -446 -650 0
-135 -447 -651 0
-136 -448 -652 0
-133 -449 -653 0
-134 -450 -654 0
-135 -451 -655 0
-136 -452 -656 0
-133 -453 -657 0
-134 -454 -658 0
-135 -455 -659 0
-136 -456 -660 0
-133 -457 -661 0
-134 -458 -662 0
-135 -459 -663 0
-136 -460 -664 0
-133 -461 -665 0
-134 -462 -666 0
-135 -463 -667 0
-136 -464 -668 0
-133 -465 -669 0
-134 -466 -670 0
-135 -467 -671 0
-136 -468 -672 0
-133 -469 -673 0
-134 -470 -674 0
-135 -471 -675 0
-136 -472 -676 0
-133 -473 -677 0
-134 -474 -678 0
-135 -475 -679 0
-136 -476 -680 0
-133 -477 -681 0
-134 -478 -682 0
-135 -479 -683 0
-136 -480 -684 0
-133 -481 -685 0
-134 -482 -686 0
-135 -483 -687 0
-136 -484 -688 0
-133 -485 -689 0
-134 -486 -690 0
-135 -487 -691 0
-136 -488 -692 0
-133 -489 -693 0
-134 -490 -694 0
-135 -491 -695 0
-136 -492 -696 0
-133 -493 -697 0
-134 -494 -698 0
-135 -495 -699 0
-136 -496 -700 0
-133 -497 -701 0
-134 -498 -702 0
-135 -499 -703 0
-136 -500 -704 0
-133 -501 -705 0
-134 -502 -706 0
-135 -503 -707 0
-136 -504 -708 0
-133 -505 -709 0
-134 -506 -710 0
-135 -507 -711 0
-136 -508 -712 0
-133 -509 -713 0
-134 -510 -714 0
-135 -511 -715 0
-136 -512 -716 0
-133 -513 -717 0
-134 -514 -718 0
-135 -515 -719 0
-136 -516 -720 0
-133 -517 -721 0
-134 -518 -722 0
-135 -519 -723 0
-136 -520 -724 0
-133 -521 -725 0
-134 -522 -726 0
-135 -523 -727 0
-136 -524 -728 0
-133 -525 -729 0
-134 -526 -730 0
-135 -527 -731 0
-136 -528 -732 0
-133 -529 -733 0
-134 -530 -734 0
-135 -531 -735 0
-136 -532 -736 0
-133 -533 -737 0
-134 -534 -738 0
-135 -535 -739 0
-136 -536 -740 0
-133 -537 -741 0
-134 -538 -742 0
-135 -539 -743 0
-136 -540 -744 0
-133 -541 -745 0
-134 -542 -746 0
-135 -543 -747 0
-136 -544 -748 0
-133 -545 -749 0
-134 -546 -750 0
-135 -547 -751 0
-136 -548 -752 0
-133 -549 -753 0
-134 -550 -754 0
-135 -551 -755 0
-136 -552 -756 0
-133 -553 -757 0
-134 -554 -758 0
-135 -555 -759 0
-136 -556 -760 0
-133 -557 -761 0
-134 -558 -762 0
-135 -559 -763 0
-136 -560 -764 0
-133 -561 -765 0
-134 -562 -766 0
-135 -563 -767 0
-136 -564 -768 0
-133 -565 -769 0
-134 -566 -770 0
-135 -567 -771 0
-136 -568 -772 0
-133 -569 -773 0
-134 -570 -774 0
-135 -571 -775 0
-136 -572 -776 0
-133 -573 -777 0
-134 -574 -778 0
-135 -575 -779 0
-136 -576 -780 0
-133 -577 -781 0
-134 -578 -782 0
-135 -579 -783 0
-136 -580 -784 0
-133 -581 -785 0
-134 -582 -786 0
-135 -583 -787 0
-136 -584 -788 0
-133 -585 -789 0
-134 -586 -790 0
-135 -587 -791 0
-136 -588 -792 0
-133 -589 -793 0
-134 -590 -794 0
-135 -591 -795 0
-136 -592 -796 0
-133 -593 -797 0
-134 -594 -798 0
-135 -595 -799 0
-136 -596 -800 0
-133 -597 -801 0
-134 -598 -802 0
-135 -599 -803 0
-136 -600 -804 0
-133 -601 -805 0
-134 -602 -806 0
-135 -603 -807 0
-136 -604 -808 0
-133 -605 -809 0
-134 -606 -810 0
-135 -607 -811 0
-136 -608 -812 0
-133 -609 -813 0
-134 -610 -814 0
-135 -611 -815 0
-136 -612 -816 0
-133 -613 -817 0
-134 -614 -818 0
-135 -615 -819 0
-136 -616 -820 0
-133 -617 -821 0
-134 -618 -822 0
-135 -619 -823 0
-136 -620 -824 0
-133 -621 -825 0
-134 -622 -826 0
-135 -623 -827 0
-136 -624 -828 0
-133 -625 -829 0
-134 -626 -830 0
-135 -627 -831 0
-136 -628 -832 0
-133 -629 -833 0
-134 -630 -834 0
-135 -631 -835 0
-136 -632 -836 0
-133 -633 -837 0
-134 -634 -838 0
-135 -635 -839 0
-136 -636 -840 0
-133 -637 -841 0
-134 -638 -842 0
-135 -639 -843 0
-136 -640 -844 0
-133 -641 -845 0
-134 -642 -846 0
-135 -643 -847 0
-136 -644 -848 0
-133 -645 -849 0
-134 -646 -850 0
-135 -647 -851 0
-136 -648 -852 0
-133 -649 -853 0
-134 -650 -854 0
-135 -651 -855 0
-136 -652 -856 0
-133 -653 -857 0
-134 -654 -858 0
-135 -655 -859 0
-136 -656 -860 0
-133 -657 -861 0
-134 -658 -862 0
-135 -659 -863 0
-136 -660 -864 0
-133 -661 -865 0
-134 -662 -866 0
-135 -663 -867 0
-136 -664 -868 0
-133 -665 -869 0
-134 -666 -870 0
-135 -667 -871 0
-136 -668 -872 0
-133 -669 -873 0
-134 -670 -874 0
-135 -671 -875 0
-136 -672 -876 0
-133 -673 -877 0
-134 -674 -878 0
-135 -675 -879 0
-136 -676 -880 0
-133 -677 -881 0
-134 -678 -882 0
-135 -679 -883 0
-136 -680 -884 0
-133 -681 -885 0
-134 -682 -886 0
-135 -683 -887 0
-136 -684 -888 0
-133 -685 -889 0
-134 -686 -890 0
-135 -687 -891 0
-136 -688 -892 0
-133 -689 -893 0
-134 -690 -894 0
-135 -691 -895 0
-136 -692 -896 0
-133 -693 -897 0
-134 -694 -898 0
-135 -695 -899 0
-136 -696 -900 0
-133 -697 -901 0
-134 -698 -902 0
-135 -699 -903 0
-136 -700 -904 0
-1 -141 -217 0
-2 -142 -218 0
-3 -143 -219 0
-4 -144 -220 0
-5 -141 -221 0
-6 -142 -222 0
-7 -143 -223 0
-8 -144 -224 0
-9 -141 -225 0
-10 -142 -226 0
-11 -143 -227 0
-12 -144 -228 0
-13 -141 -229 0
-14 -142 -230 0
-15 -143 -231 0
-16 -144 -232 0
-17 -141 -233 0
-18 -142 -234 0
-19 -143 -235 0
-20 -144 -236 0
-21 -141 -237 0
-22 -142 -238 0
-23 -143 -239 0
-24 -144 -240 0
-25 -141 -241 0
-26 -142 -242 0
-27 -143 -243 0
-28 -144 -244 0
-29 -141 -245 0
-30 -142 -246 0
-31 -143 -247 0
-32 -144 -248 0
-33 -141 -249 0
-34 -142 -250 0
-35 -143 -251 0
-36 -144 -252 0
-37 -141 -253 0
-38 -142 -254 0
-39 -143 -255 0
-40 -144 -256 0
-41 -141 -257 0
-42 -142 -258 0
-43 -143 -259 0
-44 -144 -260 0
-45 -141 -261 0
-46 -142 -262 0
-47 -143 -263 0
-48 -144 -264 0
-49 -141 -265 0
-50 -142 -266 0
-51 -143 -267 0
-52 -144 -268 0
-53 -141 -269 0
-54 -142 -270 0
-55 -143 -271 0
-56 -144 -272 0
-57 -141 -273 0
-58 -142 -274 0
-59 -143 -275 0
-60 -144 -276 0
-61 -141 -277 0
-62 -142 -278 0
-63 -143 -279 0
-64 -144 -280 0
-65 -141 -281 0
-66 -142 -282 0
-67 -143 -283 0
-68 -144 -284 0
-69 -141 -285 0
-70 -142 -286 0
-71 -143 -287 0
-72 -144 -288 0
-73 -141 -289 0
-74 -142 -290 0
-75 -143 -291 0
-76 -144 -292 0
-77 -141 -293 0
-78 -142 -294 0
-79 -143 -295 0
-80 -144 -296 0
-81 -141 -297 0
-82 -142 -298 0
-83 -143 -299 0
-84 -144 -300 0
-85 -141 -301 0
-86 -142 -302 0
-87 -143 -303 0
-88 -144 -304 0
-89 -141 -305 0
-90 -142 -306 0
-91 -143 -307 0
-92 -144 -308 0
-93 -141 -309 0
-94 -142 -310 0
-95 -143 -311 0
-96 -144 -312 0
-97 -141 -313 0
-98 -142 -314 0
-99 -143 -315 0
-100 -144 -316 0
-101 -141 -317 0
-102 -142 -318 0
-103 -143 -319 0
-104 -144 -320 0
-105 -141 -321 0
-106 -142 -322 0
-107 -143 -323 0
-108 -144 -324 0
-109 -141 -325 0
-110 -142 -326 0
-111 -143 -327 0
-112 -144 -328 0
-113 -141 -329 0
-114 -142 -330 0
-115 -143 -331 0
-116 -144 -332 0
-117 -141 -333 0
-118 -142 -334 0
-119 -143 -335 0
-120 -144 -336 0
-121 -141 -337 0
-122 -142 -338 0
-123 -143 -339 0
-124 -144 -340 0
-125 -141 -341 0
-126 -142 -342 0
-127 -143 -343 0
-128 -144 -344 0
-129 -141 -345 0
-130 -142 -346 0
-131 -143 -347 0
-132 -144 -348 0
-133 -141 -349 0
-134 -142 -350 0
-135 -143 -351 0
-136 -144 -352 0
-137 -141 -353 0
-138 -142 -354 0
-139 -143 -355 0
-140 -144 -356 0
-141 -357 0
-142 -358 0
-143 -359 0
-144 -360 0
-141 -145 -361 0
-142 -146 -362 0
-143 -147 -363 0
-144 -148 -364 0
-141 -149 -365 0
-142 -150 -366 0
-143 -151 -367 0
-144 -152 -368 0
-141 -153 -369 0
-142 -154 -370 0
-143 -155 -371 0
-144 -156 -372 0
-141 -157 -373 0
-142 -158 -374 0
-143 -159 -375 0
-144 -160 -376 0
-141 -161 -377 0
-142 -162 -378 0
-143 -163 -379 0
-144 -164 -380 0
-141 -165 -381 0
-142 -166 -382 0
-143 -167 -383 0
-144 -168 -384 0
-141 -169 -385 0
-142 -170 -386 0
-143 -171 -387 0
-144 -172 -388 0
-141 -173 -389 0
-142 -174 -390 0
-143 -175 -391 0
-144 -176 -392 0
-141 -177 -393 0
-142 -178 -394 0
-143 -179 -395 0
-144 -180 -396 0
-141 -181 -397 0
-142 -182 -398 0
-143 -183 -399 0
-144 -184 -400 0
-141 -185 -401 0
-142 -186 -402 0
-143 -187 -403 0
-144 -188 -404 0
-141 -189 -405 0
-142 -190 -406 0
-143 -191 -407 0
-144 -192 -408 0
-141 -193 -409 0
-142 -194 -410 0
-143 -195 -411 0
-144 -196 -412 0
-141 -197 -413 0
-142 -198 -414 0
-143 -199 -415 0
-144 -200 -416 0
-141 -201 -417 0
-142 -202 -418 0
-143 -203 -419 0
-144 -204 -420 0
-141 -205 -421 0
-142 -206 -422 0
-143 -207 -423 0
-144 -208 -424 0
-141 -209 -425 0
-142 -210 -426 0
-143 -211 -427 0
-144 -212 -428 0
-141 -213 -429 0
-142 -214 -430 0
-143 -215 -431 0
-144 -216 -432 0
-141 -217 -433 0
-142 -218 -434 0
-143 -219 -435 0
-144 -220 -436 0
-141 -221 -437 0
-142 -222 -438 0
-143 -223 -439 0
-144 -224 -440 0
-141 -225 -441 0
-142 -226 -442 0
-143 -227 -443 0
-144 -228 -444 0
-141 -229 -445 0
-142 -230 -446 0
-143 -231 -447 0
-144 -232 -448 0
-141 -233 -449 0
-142 -234 -450 0
-143 -235 -451 0
-144 -236 -452 0
-141 -237 -453 0
-142 -238 -454 0
-143 -239 -455 0
-144 -240 -456 0
-141 -241 -457 0
-142 -242 -458 0
-143 -243 -459 0
-144 -244 -460 0
-141 -245 -461 0
-142 -246 -462 0
-143 -247 -463 0
-144 -248 -464 0
-141 -249 -465 0
-142 -250 -466 0
-143 -251 -467 0
-144 -252 -468 0
-141 -253 -469 0
-142 -254 -470 0
-143 -255 -471 0
-144 -256 -472 0
-141 -257 -473 0
-142 -258 -474 0
-143 -259 -475 0
-144 -260 -476 0
-141 -261 -477 0
-142 -262 -478 0
-143 -263 -479 0
-144 -264 -480 0
-141 -265 -481 0
-142 -266 -482 0
-143 -267 -483 0
-144 -268 -484 0
-141 -269 -485 0
-142 -270 -486 0
-143 -271 -487 0
-144 -272 -488 0
-141 -273 -489 0
-142 -274 -490 0
-143 -275 -491 0
-144 -276 -492 0
-141 -277 -493 0
-142 -278 -494 0
-143 -279 -495 0
-144 -280 -496 0
-141 -281 -497 0
-142 -282 -498 0
-143 -283 -499 0
-144 -284 -500 0
-141 -285 -501 0
-142 -286 -502 0
-143 -287 -503 0
-144 -288 -504 0
-141 -289 -505 0
-142 -290 -506 0
-143 -291 -507 0
-144 -292 -508 0
-141 -293 -509 0
-142 -294 -510 0
-143 -295 -511 0
-144 -296 -512 0
-141 -297 -513 0
-142 -298 -514 0
-143 -299 -515 0
-144 -300 -516 0
-141 -301 -517 0
-142 -302 -518 0
-143 -303 -519 0
-144 -304 -520 0
-141 -305 -521 0
-142 -306 -522 0
-143 -307 -523 0
-144 -308 -524 0
-141 -309 -525 0
-142 -310 -526 0
-143 -311 -527 0
-144 -312 -528 0
-141 -313 -529 0
-142 -314 -530 0
-143 -315 -531 0
-144 -316 -532 0
-141 -317 -533 0
-142 -318 -534 0
-143 -319 -535 0
-144 -320 -536 0
-141 -321 -537 0
-142 -322 -538 0
-143 -323 -539 0
-144 -324 -540 0
-141 -325 -541 0
-142 -326 -542 0
-143 -327 -543 0
-144 -328 -544 0
-141 -329 -545 0
-142 -330 -546 0
-143 -331 -547 0
-144 -332 -548 0
-141 -333 -549 0
-142 -334 -550 0
-143 -335 -551 0
-144 -336 -552 0
-141 -337 -553 0
-142 -338 -554 0
-143 -339 -555 0
-144 -340 -556 0
-141 -341 -557 0
-142 -342 -558 0
-143 -343 -559 0
-144 -344 -560 0
-141 -345 -561 0
-142 -346 -562 0
-143 -347 -563 0
-144 -348 -564 0
-141 -349 -565 0
-142 -350 -566 0
-143 -351 -567 0
-144 -352 -568 0
-141 -353 -569 0
-142 -354 -570 0
-143 -355 -571 0
-144 -356 -572 0
-141 -357 -573 0
-142 -358 -574 0
-143 -359 -575 0
-144 -360 -576 0
-141 -361 -577 0
-142 -362 -578 0
-143 -363 -579 0
-144 -364 -580 0
-141 -365 -581 0
-142 -366 -582 0
-143 -367 -583 0
-144 -368 -584 0
-141 -369 -585 0
-142 -370 -586 0
-143 -371 -587 0
-144 -372 -588 0
-141 -373 -589 0
-142 -374 -590 0
-143 -375 -591 0
-144 -376 -592 0
-141 -377 -593 0
-142 -378 -594 0
-143 -379 -595 0
-144 -380 -596 0
-141 -381 -597 0
-142 -382 -598 0
-143 -383 -599 0
-144 -384 -600 0
-141 -385 -601 0
-142 -386 -602 0
-143 -387 -603 0
-144 -388 -604 0
-141 -389 -605 0
-142 -390 -606 0
-143 -391 -607 0
-144 -392 -608 0
-141 -393 -609 0
-142 -394 -610 0
-143 -395 -611 0
-144 -396 -612 0
-141 -397 -613 0
-142 -398 -614 0
-143 -399 -615 0
-144 -400 -616 0
-141 -401 -617 0
-142 -402 -618 0
-143 -403 -619 0
-144 -404 -620 0
-141 -405 -621 0
-142 -406 -622 0
-143 -407 -623 0
-144 -408 -624 0
-141 -409 -625 0
-142 -410 -626 0
-143 -411 -627 0
-144 -412 -628 0
-141 -413 -629 0
-142 -414 -630 0
-143 -415 -631 0
-144 -416 -632 0
-141 -417 -633 0
-142 -418 -634 0
-143 -419 -635 0
-144 -420 -636 0
-141 -421 -637 0
-142 -422 -638 0
-143 -423 -639 0
-144 -424 -640 0
-141 -425 -641 0
-142 -426 -642 0
-143 -427 -643 0
-144 -428 -644 0
-141 -429 -645 0
-142 -430 -646 0
-143 -431 -647 0
-144 -432 -648 0
-141 -433 -649 0
-142 -434 -650 0
-143 -435 -651 0
-144 -436 -652 0
-141 -437 -653 0
-142 -438 -654 0
-143 -439 -655 0
-144 -440 -656 0
-141 -441 -657 0
-142 -442 -658 0
-143 -443 -659 0
-144 -444 -660 0
-141 -445 -661 0
-142 -446 -662 0
-143 -447 -663 0
-144 -448 -664 0
-141 -449 -665 0
-142 -450 -666 0
-143 -451 -667 0
-144 -452 -668 0
-141 -453 -669 0
-142 -454 -670 0
-143 -455 -671 0
-144 -456 -672 0
-141 -457 -673 0
-142 -458 -674 0
-143 -459 -675 0
-144 -460 -676 0
-141 -461 -677 0
-142 -462 -678 0
-143 -463 -679 0
-144 -464 -680 0
-141 -465 -681 0
-142 -466 -682 0
-143 -467 -683 0
-144 -468 -684 0
-141 -469 -685 0
-142 -470 -686 0
-143 -471 -687 0
-144 -472 -688 0
-141 -473 -689 0
-142 -474 -690 0
-143 -475 -691 0
-144 -476 -692 0
-141 -477 -693 0
-142 -478 -694 0
-143 -479 -695 0
-144 -480 -696 0
-141 -481 -697 0
-142 -482 -698 0
-143 -483 -699 0
-144 -484 -700 0
-141 -485 -701 0
-142 -486 -702 0
-143 -487 -703 0
-144 -488 -704 0
-141 -489 -705 0
-142 -490 -706 0
-143 -491 -707 0
-144 -492 -708 0
-141 -493 -709 0
-142 -494 -710 0
-143 -495 -711 0
-144 -496 -712 0
-141 -497 -713 0
-142 -498 -714 0
-143 -499 -715 0
-144 -500 -716 0
-141 -501 -717 0
-142 -502 -718 0
-143 -503 -719 0
-144 -504 -720 0
-141 -505 -721 0
-142 -506 -722 0
-143 -507 -723 0
-144 -508 -724 0
-141 -509 -725 0
-142 -510 -726 0
-143 -511 -727 0
-144 -512 -728 0
-141 -513 -729 0
-142 -514 -730 0
-143 -515 -731 0
-144 -516 -732 0
-141 -517 -733 0
-142 -518 -734 0
-143 -519 -735 0
-144 -520 -736 0
-141 -521 -737 0
-142 -522 -738 0
-143 -523 -739 0
-144 -524 -740 0
-141 -525 -741 0
-142 -526 -742 0
-143 -527 -743 0
-144 -528 -744 0
-141 -529 -745 0
-142 -530 -746 0
-143 -531 -747 0
-144 -532 -748 0
-141 -533 -749 0
-142 -534 -750 0
-143 -535 -751 0
-144 -536 -752 0
-141 -537 -753 0
-142 -538 -754 0
-143 -539 -755 0
-144 -540 -756 0
-141 -541 -757 0
-142 -542 -758 0
-143 -543 -759 0
-144 -544 -760 0
-141 -545 -761 0
-142 -546 -762 0
-143 -547 -763 0
-144 -548 -764 0
-141 -549 -765 0
-142 -550 -766 0
-143 -551 -767 0
-144 -552 -768 0
-141 -553 -769 0
-142 -554 -770 0
-143 -555 -771 0
-144 -556 -772 0
-141 -557 -773 0
-142 -558 -774 0
-143 -559 -775 0
-144 -560 -776 0
-141 -561 -777 0
-142 -562 -778 0
-143 -563 -779 0
-144 -564 -780 0
-141 -565 -781 0
-142 -566 -782 0
-143 -567 -783 0
-144 -568 -784 0
-141 -569 -785 0
-142 -570 -786 0
-143 -571 -787 0
-144 -572 -788 0
-141 -573 -789 0
-142 -574 -790 0
-143 -575 -791 0
-144 -576 -792 0
-141 -577 -793 0
-142 -578 -794 0
-143 -579 -795 0
-144 -580 -796 0
-141 -581 -797 0
-142 -582 -798 0
-143 -583 -799 0
-144 -584 -800 0
-141 -585 -801 0
-142 -586 -802 0
-143 -587 -803 0
-144 -588 -804 0
-141 -589 -805 0
-142 -590 -806 0
-143 -591 -807 0
-144 -592 -808 0
-141 -593 -809 0
-142 -594 -810 0
-143 -595 -811 0
-144 -596 -812 0
-141 -597 -813 0
-142 -598 -814 0
-143 -599 -815 0
-144 -600 -816 0
-141 -601 -817 0
-142 -602 -818 0
-143 -603 -819 0
-144 -604 -820 0
-141 -605 -821 0
-142 -606 -822 0
-143 -607 -823 0
-144 -608 -824 0
-141 -609 -825 0
-142 -610 -826 0
-143 -611 -827 0
-144 -612 -828 0
-141 -613 -829 0
-142 -614 -830 0
-143 -615 -831 0
-144 -616 -832 0
-141 -617 -833 0
-142 -618 -834 0
-143 -619 -835 0
-144 -620 -836 0
-141 -621 -837 0
-142 -622 -838 0
-143 -623 -839 0
-144 -624 -840 0
-141 -625 -841 0
-142 -626 -842 0
-143 -627 -843 0
-144 -628 -844 0
-141 -629 -845 0
-142 -630 -846 0
-143 -631 -847 0
-144 -632 -848 0
-141 -633 -849 0
-142 -634 -850 0
-143 -635 -851 0
-144 -636 -852 0
-141 -637 -853 0
-142 -638 -854 0
-143 -639 -855 0
-144 -640 -856 0
-141 -641 -857 0
-142 -642 -858 0
-143 -643 -859 0
-144 -644 -860 0
-141 -645 -861 0
-142 -646 -862 0
-143 -647 -863 0
-144 -648 -864 0
-141 -649 -865 0
-142 -650 -866 0
-143 -651 -867 0
-144 -652 -868 0
-141 -653 -869 0
-142 -654 -870 0
-143 -655 -871 0
-144 -656 -872 0
-141 -657 -873 0
-142 -658 -874 0
-143 -659 -875 0
-144 -660 -876 0
-141 -661 -877 0
-142 -662 -878 0
-143 -663 -879 0
-144 -664 -880 0
-141 -665 -881 0
-142 -666 -882 0
-143 -667 -883 0
-144 -668 -884 0
-141 -669 -885 0
-142 -670 -886 0
-143 -671 -887 0
-144 -672 -888 0
-141 -673 -889 0
-142 -674 -890 0
-143 -675 -891 0
-144 -676 -892 0
-141 -677 -893 0
-142 -678 -894 0
-143 -679 -895 0
-144 -680 -896 0
-141 -681 -897 0
-142 -682 -898 0
-143 -683 -899 0
-144 -684 -900 0
-141 -685 -901 0
-142 -686 -902 0
-143 -687 -903 0
-144 -688 -904 0
-1 -149 -229 0
-2 -150 -230 0
-3 -151 -231 0
-4 -152 -232 0
-5 -149 -233 0
-6 -150 -234 0
-7 -151 -235 0
-8 -152 -236 0
-9 -149 -237 0
-10 -150 -238 0
-11 -151 -239 0
-12 -152 -240 0
-13 -149 -241 0
-14 -150 -242 0
-15 -151 -243 0
-16 -152 -244 0
-17 -149 -245 0
-18 -150 -246 0
-19 -151 -247 0
-20 -152 -248 0
-21 -149 -249 0
-22 -150 -250 0
-23 -151 -251 0
-24 -152 -252 0
-25 -149 -253 0
-26 -150 -254 0
-27 -151 -255 0
-28 -152 -256 0
-29 -149 -257 0
-30 -150 -258 0
-31 -151 -259 0
-32 -152 -260 0
-33 -149 -261 0
-34 -150 -262 0
-35 -151 -263 0
-36 -152 -264 0
-37 -149 -265 0
-38 -150 -266 0
-39 -151 -267 0
-40 -152 -268 0
-41 -149 -269 0
-42 -150 -270 0
-43 -151 -271 0
-44 -152 -272 0
-45 -149 -273 0
-46 -150 -274 0
-47 -151 -275 0
-48 -152 -276 0
-49 -149 -277 0
-50 -150 -278 0
-51 -151 -279 0
-52 -152 -280 0
-53 -149 -281 0
-54 -150 -282 0
-55 -151 -283 0
-56 -152 -284 0
-57 -149 -285 0
-58 -150 -286 0
-59 -151 -287 0
-60 -152 -288 0
-61 -149 -289 0
-62 -150 -290 0
-63 -151 -291 0
-64 -152 -292 0
-65 -149 -293 0
-66 -150 -294 0
-67 -151 -295 0
-68 -152 -296 0
-69 -149 -297 0
-70 -150 -298 0
-71 -151 -299 0
-72 -152 -300 0
-73 -149 -301 0
-74 -150 -302 0
-75 -151 -303 0
-76 -152 -304 0
-77 -149 -305 0
-78 -150 -306 0
-79 -151 -307 0
-80 -152 -308 0
-81 -149 -309 0
-82 -150 -310 0
-83 -151 -311 0
-84 -152 -312 0
-85 -149 -313 0
-86 -150 -314 0
-87 -151 -315 0
-88 -152 -316 0
-89 -149 -317 0
-90 -150 -318 0
-91 -151 -319 0
-92 -152 -320 0
-93 -149 -321 0
-94 -150 -322 0
-95 -151 -323 0
-96 -152 -324 0
-97 -149 -325 0
-98 -150 -326 0
-99 -151 -327 0
-100 -152 -328 0
-101 -149 -329 0
-102 -150 -330 0
-103 -151 -331 0
-104 -152 -332 0
-105 -149 -333 0
-106 -150 -334 0
-107 -151 -335 0
-108 -152 -336 0
-109 -149 -337 0
-110 -150 -338 0
-111 -151 -339 0
-112 -152 -340 0
-113 -149 -341 0
-114 -150 -342 0
-115 -151 -343 0
-116 -152 -344 0
-117 -149 -345 0
-118 -150 -346 0
-119 -151 -347 0
-120 -152 -348 0
-121 -149 -349 0
-122 -150 -350 0
-123 -151 -351 0
-124 -152 -352 0
-125 -149 -353 0
-126 -150 -354 0
-127 -151 -355 0
-128 -152 -356 0
-129 -149 -357 0
-130 -150 -358 0
-131 -151 -359 0
-132 -152 -360 0
-133 -149 -361 0
-134 -150 -362 0
-135 -151 -363 0
-136 -152 -364 0
-137 -149 -365 0
-138 -150 -366 0
-139 -151 -367 0
-140 -152 -368 0
-141 -149 -369 0
-142 -150 -370 0
-143 -151 -371 0
-144 -152 -372 0
-145 -149 -373 0
-146 -150 -374 0
-147 -151 -375 0
-148 -152 -376 0
-149 -377 0
-150 -378 0
-151 -379 0
-152 -380 0
-149 -153 -381 0
-150 -154 -382 0
-151 -155 -383 0
-152 -156 -384 0
-149 -157 -385 0
-150 -158 -386 0
-151 -159 -387 0
-152 -160 -388 0
-149 -161 -389 0
-150 -162 -390 0
-151 -163 -391 0
-152 -164 -392 0
-149 -165 -393 0
-150 -166 -394 0
-151 -167 -395 0
-152 -168 -396 0
-149 -169 -397 0
-150 -170 -398 0
-151 -171 -399 0
-152 -172 -400 0
-149 -173 -401 0
-150 -174 -402 0
-151 -175 -403 0
-152 -176 -404 0
-149 -177 -405 0
-150 -178 -406 0
-151 -179 -407 0
-152 -180 -408 0
-149 -181 -409 0
-150 -182 -410 0
-151 -183 -411 0
-152 -184 -412 0
-149 -185 -413 0
-150 -186 -414 0
-151 -187 -415 0
-152 -188 -416 0
-149 -189 -417 0
-150 -190 -418 0
-151 -191 -419 0
-152 -192 -420 0
-149 -193 -421 0
-150 -194 -422 0
-151 -195 -423 0
-152 -196 -424 0
-149 -197 -425 0
-150 -198 -426 0
-151 -199 -427 0
-152 -200 -428 0
-149 -201 -429 0
-150 -202 -430 0
-151 -203 -431 0
-152 -204 -432 0
-149 -205 -433 0
-150 -206 -434 0
-151 -207 -435 0
-152 -208 -436 0
-149 -209 -437 0
-150 -210 -438 0
-151 -211 -439 0
-152 -212 -440 0
-149 -213 -441 0
-150 -214 -442 0
-151 -215 -443 0
-152 -216 -444 0
-149 -217 -445 0
-150 -218 -446 0
-151 -219 -447 0
-152 -220 -448 0
-149 -221 -449 0
-150 -222 -450 0
-151 -223 -451 0
-152 -224 -452 0
-149 -225 -453 0
-150 -226 -454 0
-151 -227 -455 0
-152 -228 -456 0
-149 -229 -457 0
-150 -230 -458 0
-151 -231 -459 0
-152 -232 -460 0
-149 -233 -461 0
-150 -234 -462 0
-151 -235 -463 0
-152 -236 -464 0
-149 -237 -465 0
-150 -238 -466 0
-151 -239 -467 0
-152 -240 -468 0
-149 -241 -469 0
-150 -242 -470 0
-151 -243 -471 0
-152 -244 -472 0
-149 -245 -473 0
-150 -246 -474 0
-151 -247 -475 0
-152 -248 -476 0
-149 -249 -477 0
-150 -250 -478 0
-151 -251 -479 0
-152 -252 -480 0
-149 -253 -481 0
-150 -254 -482 0
-151 -255 -483 0
-152 -256 -484 0
-149 -257 -485 0
-150 -258 -486 0
-151 -259 -487 0
-152 -260 -488 0
-149 -261 -489 0
-150 -262 -490 0
-151 -263 -491 0
-152 -264 -492 0
-149 -265 -493 0
-150 -266 -494 0
-151 -267 -495 0
-152 -268 -496 0
-149 -269 -497 0
-150 -270 -498 0
-151 -271 -499 0
-152 -272 -500 0
-149 -273 -501 0
-150 -274 -502 0
-151 -275 -503 0
-152 -276 -504 0
-149 -277 -505 0
-150 -278 -506 0
-151 -279 -507 0
-152 -280 -508 0
-149 -281 -509 0
-150 -282 -510 0
-151 -283 -511 0
-152 -284 -512 0
-149 -285 -513 0
-150 -286 -514 0
-151 -287 -515 0
-152 -288 -516 0
-149 -289 -517 0
-150 -290 -518 0
-151 -291 -519 0
-152 -292 -520 0
-149 -293 -521 0
-150 -294 -522 0
-151 -295 -523 0
-152 -296 -524 0
-149 -297 -525 0
-150 -298 -526 0
-151 -299 -527 0
-152 -300 -528 0
-149 -301 -529 0
-150 -302 -530 0
-151 -303 -531 0
-152 -304 -532 0
-149 -305 -533 0
-150 -306 -534 0
-151 -307 -535 0
-152 -308 -536 0
-149 -309 -537 0
-150 -310 -538 0
-151 -311 -539 0
-152 -312 -540 0
-149 -313 -541 0
-150 -314 -542 0
-151 -315 -543 0
-152 -316 -544 0
-149 -317 -545 0
-150 -318 -546 0
-151 -319 -547 0
-152 -320 -548 0
-149 -321 -549 0
-150 -322 -550 0
-151 -323 -551 0
-152 -324 -552 0
-149 -325 -553 0
-150 -326 -554 0
-151 -327 -555 0
-152 -328 -556 0
-149 -329 -557 0
-150 -330 -558 0
-151 -331 -559 0
-152 -332 -560 0
-149 -333 -561 0
-150 -334 -562 0
-151 -335 -563 0
-152 -336 -564 0
-149 -337 -565 0
-150 -338 -566 0
-151 -339 -567 0
-152 -340 -568 0
-149 -341 -569 0
-150 -342 -570 0
-151 -343 -571 0
-152 -344 -572 0
-149 -345 -573 0
-150 -346 -574 0
-151 -347 -575 0
-152 -348 -576 0
-149 -349 -577 0
-150 -350 -578 0
-151 -351 -579 0
-152 -352 -580 0
-149 -353 -581 0
-150 -354 -582 0
-151 -355 -583 0
-152 -356 -584 0
-149 -357 -585 0
-150 -358 -586 0
-151 -359 -587 0
-152 -360 -588 0
-149 -361 -589 0
-150 -362 -590 0
-151 -363 -591 0
-152 -364 -592 0
-149 -365 -593 0
-150 -366 -594 0
-151 -367 -595 0
-152 -368 -596 0
-149 -369 -597 0
-150 -370 -598 0
-151 -371 -599 0
-152 -372 -600 0
-149 -373 -601 0
-150 -374 -602 0
-151 -375 -603 0
-152 -376 -604 0
-149 -377 -605 0
-150 -378 -606 0
-151 -379 -607 0
-152 -380 -608 0
-149 -381 -609 0
-150 -382 -610 0
-151 -383 -611 0
-152 -384 -612 0
-149 -385 -613 0
-150 -386 -614 0
-151 -387 -615 0
-152 -388 -616 0
-149 -389 -617 0
-150 -390 -618 0
-151 -391 -619 0
-152 -392 -620 0
-149 -393 -621 0
-150 -394 -622 0
-151 -395 -623 0
-152 -396 -624 0
-149 -397 -625 0
-150 -398 -626 0
-151 -399 -627 0
-152 -400 -628 0
-149 -401 -629 0
-150 -402 -630 0
-151 -403 -631 0
-152 -404 -632 0
-149 -405 -633 0
-150 -406 -634 0
-151 -407 -635 0
-152 -408 -636 0
-149 -409 -637 0
-150 -410 -638 0
-151 -411 -639 0
-152 -412 -640 0
-149 -413 -641 0
-150 -414 -642 0
-151 -415 -643 0
-152 -416 -644 0
-149 -417 -645 0
-150 -418 -646 0
-151 -419 -647 0
-152 -420 -648 0
-149 -421 -649 0
-150 -422 -650 0
-151 -423 -651 0
-152 -424 -652 0
-149 -425 -653 0
-150 -426 -654 0
-151 -427 -655 0
-152 -428 -656 0
-149 -429 -657 0
-150 -430 -658 0
-151 -431 -659 0
-152 -432 -660 0
-149 -433 -661 0
-150 -434 -662 0
-151 -435 -663 0
-152 -436 -664 0
-149 -437 -665 0
-150 -438 -666 0
-151 -439 -667 0
-152 -440 -668 0
-149 -441 -669 0
-150 -442 -670 0
-151 -443 -671 0
-152 -444 -672 0
-149 -445 -673 0
-150 -446 -674 0
-151 -447 -675 0
-152 -448 -676 0
-149 -449 -677 0
-150 -450 -678 0
-151 -451 -679 0
-152 -452 -680 0
-149 -453 -681 0
-150 -454 -682 0
-151 -455 -683 0
-152 -456 -684 0
-149 -457 -685 0
-150 -458 -686 0
-151 -459 -687 0
-152 -460 -688 0
-149 -461 -689 0
-150 -462 -690 0
-151 -463 -691 0
-152 -464 -692 0
-149 -465 -693 0
-150 -466 -694 0
-151 -467 -695 0
-152 -468 -696 0
-149 -469 -697 0
-150 -470 -698 0
-151 -471 -699 0
-152 -472 -700 0
-149 -473 -701 0
-150 -474 -702 0
-151 -475 -703 0
-152 -476 -704 0
-149 -477 -705 0
-150 -478 -706 0
-151 -479 -707 0
-152 -480 -708 0
-149 -481 -709 0
-150 -482 -710 0
-151 -483 -711 0
-152 -484 -712 0
-149 -485 -713 0
-150 -486 -714 0
-151 -487 -715 0
-152 -488 -716 0
-149 -489 -717 0
-150 -490 -718 0
-151 -491 -719 0
-152 -492 -720 0
-149 -493 -721 0
-150 -494 -722 0
-151 -495 -723 0
-152 -496 -724 0
-149 -497 -725 0
-150 -498 -726 0
-151 -499 -727 0
-152 -500 -728 0
-149 -501 -729 0
-150 -502 -730 0
-151 -503 -731 0
-152 -504 -732 0
-149 -505 -733 0
-150 -506 -734 0
-151 -507 -735 0
-152 -508 -736 0
-149 -509 -737 0
-150 -510 -738 0
-151 -511 -739 0
-152 -512 -740 0
-149 -513 -741 0
-150 -514 -742 0
-151 -515 -743 0
-152 -516 -744 0
-149 -517 -745 0
-150 -518 -746 0
-151 -519 -747 0
-152 -520 -748 0
-149 -521 -749 0
-150 -522 -750 0
-151 -523 -751 0
-152 -524 -752 0
-149 -525 -753 0
-150 -526 -754 0
-151 -527 -755 0
-152 -528 -756 0
-149 -529 -757 0
-150 -530 -758 0
-151 -531 -759 0
-152 -532 -760 0
-149 -533 -761 0
-150 -534 -762 0
-151 -535 -763 0
-152 -536 -764 0
-149 -537 -765 0
-150 -538 -766 0
-151 -539 -767 0
-152 -540 -768 0
-149 -541 -769 0
-150 -542 -770 0
-151 -543 -771 0
-152 -544 -772 0
-149 -545 -773 0
-150 -546 -774 0
-151 -547 -775 0
-152 -548 -776 0
-149 -549 -777 0
-150 -550 -778 0
-151 -551 -779 0
-152 -552 -780 0
-149 -553 -781 0
-150 -554 -782 0
-151 -555 -783 0
-152 -556 -784 0
-149 -557 -785 0
-150 -558 -786 0
-151 -559 -787 0
-152 -560 -788 0
-149 -561 -789 0
-150 -562 -790 0
-151 -563 -791 0
-152 -564 -792 0
-149 -565 -793 0
-150 -566 -794 0
-151 -567 -795 0
-152 -568 -796 0
-149 -569 -797 0
-150 -570 -798 0
-151 -571 -799 0
-152 -572 -800 0
-149 -573 -801 0
-150 -574 -802 0
-151 -575 -803 0
-152 -576 -804 0
-149 -577 -805 0
-150 -578 -806 0
-151 -579 -807 0
-152 -580 -808 0
-149 -581 -809 0
-150 -582 -810 0
-151 -583 -811 0
-152 -584 -812 0
-149 -585 -813 0
-150 -586 -814 0
-151 -587 -815 0
-152 -588 -816 0
-149 -589 -817 0
-150 -590 -818 0
-151 -591 -819 0
-152 -592 -820 0
-149 -593 -821 0
-150 -594 -822 0
-151 -595 -823 0
-152 -596 -824 0
-149 -597 -825 0
-150 -598 -826 0
-151 -599 -827 0
-152 -600 -828 0
-149 -601 -829 0
-150 -602 -830 0
-151 -603 -831 0
-152 -604 -832 0
-149 -605 -833 0
-150 -606 -834 0
-151 -607 -835 0
-152 -608 -836 0
-149 -609 -837 0
-150 -610 -838 0
-151 -611 -839 0
-152 -612 -840 0
-149 -613 -841 0
-150 -614 -842 0
-151 -615 -843 0
-152 -616 -844 0
-149 -617 -845 0
-150 -618 -846 0
-151 -619 -847 0
-152 -620 -848 0
-149 -621 -849 0
-150 -622 -850 0
-151 -623 -851 0
-152 -624 -852 0
-149 -625 -853 0
-150 -626 -854 0
-151 -627 -855 0
-152 -628 -856 0
-149 -629 -857 0
-150 -630 -858 0
-151 -631 -859 0
-152 -632 -860 0
-149 -633 -861 0
-150 -634 -862 0
-151 -635 -863 0
-152 -636 -864 0
-149 -637 -865 0
-150 -638 -866 0
-151 -639 -867 0
-152 -640 -868 0
-149 -641 -869 0
-150 -642 -870 0
-151 -643 -871 0
-152 -644 -872 0
-149 -645 -873 0
-150 -646 -874 0
-151 -647 -875 0
-152 -648 -876 0
-149 -649 -877 0
-150 -650 -878 0
-151 -651 -879 0
-152 -652 -880 0
-149 -653 -881 0
-150 -654 -882 0
-151 -655 -883 0
-152 -656 -884 0
-149 -657 -885 0
-150 -658 -886 0
-151 -659 -887 0
-152 -660 -888 0
-149 -661 -889 0
-150 -662 -890 0
-151 -663 -891 0
-152 -664 -892 0
-149 -665 -893 0
-150 -666 -894 0
-151 -667 -895 0
-152 -668 -896 0
-149 -669 -897 0
-150 -670 -898 0
-151 -671 -899 0
-152 -672 -900 0
-149 -673 -901 0
-150 -674 -902 0
-151 -675 -903 0
-152 -676 -904 0
-1 -157 -241 0
-2 -158 -242 0
-3 -159 -243 0
-4 -160 -244 0
-5 -157 -245 0
-6 -158 -246 0
-7 -159 -247 0
-8 -160 -248 0
-9 -157 -249 0
-10 -158 -250 0
-11 -159 -251 0
-12 -160 -252 0
-13 -157 -253 0
-14 -158 -254 0
-15 -159 -255 0
-16 -160 -256 0
-17 -157 -257 0
-18 -158 -258 0
-19 -159 -259 0
-20 -160 -260 0
-21 -157 -261 0
-22 -158 -262 0
-23 -159 -263 0
-24 -160 -264 0
-25 -157 -265 0
-26 -158 -266 0
-27 -159 -267 0
-28 -160 -268 0
-29 -157 -269 0
-30 -158 -270 0
-31 -159 -271 0
-32 -160 -272 0
-33 -157 -273 0
-34 -158 -274 0
-35 -159 -275 0
-36 -160 -276 0
-37 -157 -277 0
-38 -158 -278 0
-39 -159 -279 0
-40 -160 -280 0
-41 -157 -281 0
-42 -158 -282 0
-43 -159 -283 0
-44 -160 -284 0
-45 -157 -285 0
-46 -158 -286 0
-47 -159 -287 0
-48 -160 -288 0
-49 -157 -289 0
-50 -158 -290 0
-51 -159 -291 0
-52 -160 -292 0
-53 -157 -293 0
-54 -158 -294 0
-55 -159 -295 0
-56 -160 -296 0
-57 -157 -297 0
-58 -158 -298 0
-59 -159 -299 0
-60 -160 -300 0
-61 -157 -301 0
-62 -158 -302 0
-63 -159 -303 0
-64 -160 -304 0
-65 -157 -305 0
-66 -158 -306 0
-67 -159 -307 0
-68 -160 -308 0
-69 -157 -309 0
-70 -158 -310 0
-71 -159 -311 0
-72 -160 -312 0
-73 -157 -313 0
-74 -158 -314 0
-75 -159 -315 0
-76 -160 -316 0
-77 -157 -317 0
-78 -158 -318 0
-79 -159 -319 0
-80 -160 -320 0
-81 -157 -321 0
-82 -158 -322 0
-83 -159 -323 0
-84 -160 -324 0
-85 -157 -325 0
-86 -158 -326 0
-87 -159 -327 0
-88 -160 -328 0
-89 -157 -329 0
-90 -158 -330 0
-91 -159 -331 0
-92 -160 -332 0
-93 -157 -333 0
-94 -158 -334 0
-95 -159 -335 0
-96 -160 -336 0
-97 -157 -337 0
-98 -158 -338 0
-99 -159 -339 0
-100 -160 -340 0
-101 -157 -341 0
-102 -158 -342 0
-103 -159 -343 0
-104 -160 -344 0
-105 -157 -345 0
-106 -158 -346 0
-107 -159 -347 0
-108 -160 -348 0
-109 -157 -349 0
-110 -158 -350 0
-111 -159 -351 0
-112 -160 -352 0
-113 -157 -353 0
-114 -158 -354 0
-115 -159 -355 0
-116 -160 -356 0
-117 -157 -357 0
-118 -158 -358 0
-119 -159 -359 0
-120 -160 -360 0
-121 -157 -361 0
-122 -158 -362 0
-123 -159 -363 0
-124 -160 -364 0
-125 -157 -365 0
-126 -158 -366 0
-127 -159 -367 0
-128 -160 -368 0
-129 -157 -369 0
-130 -158 -370 0
-131 -159 -371 0
-132 -160 -372 0
-133 -157 -373 0
-134 -158 -374 0
-135 -159 -375 0
-136 -160 -376 0
-137 -157 -377 0
-138 -158 -378 0
-139 -159 -379 0
-140 -160 -380 0
-141 -157 -381 0
-142 -158 -382 0
-143 -159 -383 0
-144 -160 -384 0
-145 -157 -385 0
-146 -158 -386 0
-147 -159 -387 0
-148 -160 -388 0
-149 -157 -389 0
-150 -158 -390 0
-151 -159 -391 0
-152 -160 -392 0
-153 -157 -393 0
-154 -158 -394 0
-155 -159 -395 0
-156 -160 -396 0
-157 -397 0
-158 -398 0
-159 -399 0
-160 -400 0
-157 -161 -401 0
-158 -162 -402 0
-159 -163 -403 0
-160 -164 -404 0
-157 -165 -405 0
-158 -166 -406 0
-159 -167 -407 0
-160 -168 -408 0
-157 -169 -409 0
-158 -170 -410 0
-159 -171 -411 0
-160 -172 -412 0
-157 -173 -413 0
-158 -174 -414 0
-159 -175 -415 0
-160 -176 -416 0
-157 -177 -417 0
-158 -178 -418 0
-159 -179 -419 0
-160 -180 -420 0
-157 -181 -421 0
-158 -182 -422 0
-159 -183 -423 0
-160 -184 -424 0
-157 -185 -425 0
-158 -186 -426 0
-159 -187 -427 0
-160 -188 -428 0
-157 -189 -429 0
-158 -190 -430 0
-159 -191 -431 0
-160 -192 -432 0
-157 -193 -433 0
-158 -194 -434 0
-159 -195 -435 0
-160 -196 -436 0
-157 -197 -437 0
-158 -198 -438 0
-159 -199 -439 0
-160 -200 -440 0
-157 -201 -441 0
-158 -202 -442 0
-159 -203 -443 0
-160 -204 -444 0
-157 -205 -445 0
-158 -206 -446 0
-159 -207 -447 0
-160 -208 -448 0
-157 -209 -449 0
-158 -210 -450 0
-159 -211 -451 0
-160 -212 -452 0
-157 -213 -453 0
-158 -214 -454 0
-159 -215 -455 0
-160 -216 -456 0
-157 -217 -457 0
-158 -218 -458 0
-159 -219 -459 0
-160 -220 -460 0
-157 -221 -461 0
-158 -222 -462 0
-159 -223 -463 0
-160 -224 -464 0
-157 -225 -465 0
-158 -226 -466 0
-159 -227 -467 0
-160 -228 -468 0
-157 -229 -469 0
-158 -230 -470 0
-159 -231 -471 0
-160 -232 -472 0
-157 -233 -473 0
-158 -234 -474 0
-159 -235 -475 0
-160 -236 -476 0
-157 -237 -477 0
-158 -238 -478 0
-159 -239 -479 0
-160 -240 -480 0
-157 -241 -481 0
-158 -242 -482 0
-159 -243 -483 0
-160 -244 -484 0
-157 -245 -485 0
-158 -246 -486 0
-159 -247 -487 0
-160 -248 -488 0
-157 -249 -489 0
-158 -250 -490 0
-159 -251 -491 0
-160 -252 -492 0
-157 -253 -493 0
-158 -254 -494 0
-159 -255 -495 0
-160 -256 -496 0
-157 -257 -497 0
-158 -258 -498 0
-159 -259 -499 0
-160 -260 -500 0
-157 -261 -501 0
-158 -262 -502 0
-159 -263 -503 0
-160 -264 -504 0
-157 -265 -505 0
-158 -266 -506 0
-159 -267 -507 0
-160 -268 -508 0
-157 -269 -509 0
-158 -270 -510 0
-159 -271 -511 0
-160 -272 -512 0
-157 -273 -513 0
-158 -274 -514 0
-159 -275 -515 0
-160 -276 -516 0
-157 -277 -517 0
-158 -278 -518 0
-159 -279 -519 0
-160 -280 -520 0
-157 -281 -521 0
-158 -282 -522 0
-159 -283 -523 0
-160 -284 -524 0
-157 -285 -525 0
-158 -286 -526 0
-159 -287 -527 0
-160 -288 -528 0
-157 -289 -529 0
-158 -290 -530 0
-159 -291 -531 0
-160 -292 -532 0
-157 -293 -533 0
-158 -294 -534 0
-159 -295 -535 0
-160 -296 -536 0
-157 -297 -537 0
-158 -298 -538 0
-159 -299 -539 0
-160 -300 -540 0
-157 -301 -541 0
-158 -302 -542 0
-159 -303 -543 0
-160 -304 -544 0
-157 -305 -545 0
-158 -306 -546 0
-159 -307 -547 0
-160 -308 -548 0
-157 -309 -549 0
-158 -310 -550 0
-159 -311 -551 0
-160 -312 -552 0
-157 -313 -553 0
-158 -314 -554 0
-159 -315 -555 0
-160 -316 -556 0
-157 -317 -557 0
-158 -318 -558 0
-159 -319 -559 0
-160 -320 -560 0
-157 -321 -561 0
-158 -322 -562 0
-159 -323 -563 0
-160 -324 -564 0
-157 -325 -565 0
-158 -326 -566 0
-159 -327 -567 0
-160 -328 -568 0
-157 -329 -569 0
-158 -330 -570 0
-159 -331 -571 0
-160 -332 -572 0
-157 -333 -573 0
-158 -334 -574 0
-159 -335 -575 0
-160 -336 -576 0
-157 -337 -577 0
-158 -338 -578 0
-159 -339 -579 0
-160 -340 -580 0
-157 -341 -581 0
-158 -342 -582 0
-159 -343 -583 0
-160 -344 -584 0
-157 -345 -585 0
-158 -346 -586 0
-159 -347 -587 0
-160 -348 -588 0
-157 -349 -589 0
-158 -350 -590 0
-159 -351 -591 0
-160 -352 -592 0
-157 -353 -593 0
-158 -354 -594 0
-159 -355 -595 0
-160 -356 -596 0
-157 -357 -597 0
-158 -358 -598 0
-159 -359 -599 0
-160 -360 -600 0
-157 -361 -601 0
-158 -362 -602 0
-159 -363 -603 0
-160 -364 -604 0
-157 -365 -605 0
-158 -366 -606 0
-159 -367 -607 0
-160 -368 -608 0
-157 -369 -609 0
-158 -370 -610 0
-159 -371 -611 0
-160 -372 -612 0
-157 -373 -613 0
-158 -374 -614 0
-159 -375 -615 0
-160 -376 -616 0
-157 -377 -617 0
-158 -378 -618 0
-159 -379 -619 0
-160 -380 -620 0
-157 -381 -621 0
-158 -382 -622 0
-159 -383 -623 0
-160 -384 -624 0
-157 -385 -625 0
-158 -386 -626 0
-159 -387 -627 0
-160 -388 -628 0
-157 -389 -629 0
-158 -390 -630 0
-159 -391 -631 0
-160 -392 -632 0
-157 -393 -633 0
-158 -394 -634 0
-159 -395 -635 0
-160 -396 -636 0
-157 -397 -637 0
-158 -398 -638 0
-159 -399 -639 0
-160 -400 -640 0
-157 -401 -641 0
-158 -402 -642 0
-159 -403 -643 0
-160 -404 -644 0
-157 -405 -645 0
-158 -406 -646 0
-159 -407 -647 0
-160 -408 -648 0
-157 -409 -649 0
-158 -410 -650 0
-159 -411 -651 0
-160 -412 -652 0
-157 -413 -653 0
-158 -414 -654 0
-159 -415 -655 0
-160 -416 -656 0
-157 -417 -657 0
-158 -418 -658 0
-159 -419 -659 0
-160 -420 -660 0
-157 -421 -661 0
-158 -422 -662 0
-159 -423 -663 0
-160 -424 -664 0
-157 -425 -665 0
-158 -426 -666 0
-159 -427 -667 0
-160 -428 -668 0
-157 -429 -669 0
-158 -430 -670 0
-159 -431 -671 0
-160 -432 -672 0
-157 -433 -673 0
-158 -434 -674 0
-159 -435 -675 0
-160 -436 -676 0
-157 -437 -677 0
-158 -438 -678 0
-159 -439 -679 0
-160 -440 -680 0
-157 -441 -681 0
-158 -442 -682 0
-159 -443 -683 0
-160 -444 -684 0
-157 -445 -685 0
-158 -446 -686 0
-159 -447 -687 0
-160 -448 -688 0
-157 -449 -689 0
-158 -450 -690 0
-159 -451 -691 0
-160 -452 -692 0
-157 -453 -693 0
-158 -454 -694 0
-159 -455 -695 0
-160 -456 -696 0
-157 -457 -697 0
-158 -458 -698 0
-159 -459 -699 0
-160 -460 -700 0
-157 -461 -701 0
-158 -462 -702 0
-159 -463 -703 0
-160 -464 -704 0
-157 -465 -705 0
-158 -466 -706 0
-159 -467 -707 0
-160 -468 -708 0
-157 -469 -709 0
-158 -470 -710 0
-159 -471 -711 0
-160 -472 -712 0
-157 -473 -713 0
-158 -474 -714 0
-159 -475 -715 0
-160 -476 -716 0
-157 -477 -717 0
-158 -478 -718 0
-159 -479 -719 0
-160 -480 -720 0
-157 -481 -721 0
-158 -482 -722 0
-159 -483 -723 0
-160 -484 -724 0
-157 -485 -725 0
-158 -486 -726 0
-159 -487 -727 0
-160 -488 -728 0
-157 -489 -729 0
-158 -490 -730 0
-159 -491 -731 0
-160 -492 -732 0
-157 -493 -733 0
-158 -494 -734 0
-159 -495 -735 0
-160 -496 -736 0
-157 -497 -737 0
-158 -498 -738 0
-159 -499 -739 0
-160 -500 -740 0
-157 -501 -741 0
-158 -502 -742 0
-159 -503 -743 0
-160 -504 -744 0
-157 -505 -745 0
-158 -506 -746 0
-159 -507 -747 0
-160 -508 -748 0
-157 -509 -749 0
-158 -510 -750 0
-159 -511 -751 0
-160 -512 -752 0
-157 -513 -753 0
-158 -514 -754 0
-159 -515 -755 0
-160 -516 -756 0
-157 -517 -757 0
-158 -518 -758 0
-159 -519 -759 0
-160 -520 -760 0
-157 -521 -761 0
-158 -522 -762 0
-159 -523 -763 0
-160 -524 -764 0
-157 -525 -765 0
-158 -526 -766 0
-159 -527 -767 0
-160 -528 -768 0
-157 -529 -769 0
-158 -530 -770 0
-159 -531 -771 0
-160 -532 -772 0
-157 -533 -773 0
-158 -534 -774 0
-159 -535 -775 0
-160 -536 -776 0
-157 -537 -777 0
-158 -538 -778 0
-159 -539 -779 0
-160 -540 -780 0
-157 -541 -781 0
-158 -542 -782 0
-159 -543 -783 0
-160 -544 -784 0
-157 -545 -785 0
-158 -546 -786 0
-159 -547 -787 0
-160 -548 -788 0
-157 -549 -789 0
-158 -550 -790 0
-159 -551 -791 0
-160 -552 -792 0
-157 -553 -793 0
-158 -554 -794 0
-159 -555 -795 0
-160 -556 -796 0
-157 -557 -797 0
-158 -558 -798 0
-159 -559 -799 0
-160 -560 -800 0
-157 -561 -801 0
-158 -562 -802 0
-159 -563 -803 0
-160 -564 -804 0
-157 -565 -805 0
-158 -566 -806 0
-159 -567 -807 0
-160 -568 -808 0
-157 -569 -809 0
-158 -570 -810 0
-159 -571 -811 0
-160 -572 -812 0
-157 -573 -813 0
-158 -574 -814 0
-159 -575 -815 0
-160 -576 -816 0
-157 -577 -817 0
-158 -578 -818 0
-159 -579 -819 0
-160 -580 -820 0
-157 -581 -821 0
-158 -582 -822 0
-159 -583 -823 0
-160 -584 -824 0
-157 -585 -825 0
-158 -586 -826 0
-159 -587 -827 0
-160 -588 -828 0
-157 -589 -829 0
-158 -590 -830 0
-159 -591 -831 0
-160 -592 -832 0
-157 -593 -833 0
-158 -594 -834 0
-159 -595 -835 0
-160 -596 -836 0
-157 -597 -837 0
-158 -598 -838 0
-159 -599 -839 0
-160 -600 -840 0
-157 -601 -841 0
-158 -602 -842 0
-159 -603 -843 0
-160 -604 -844 0
-157 -605 -845 0
-158 -606 -846 0
-159 -607 -847 0
-160 -608 -848 0
-157 -609 -849 0
-158 -610 -850 0
-159 -611 -851 0
-160 -612 -852 0
-157 -613 -853 0
-158 -614 -854 0
-159 -615 -855 0
-160 -616 -856 0
-157 -617 -857 0
-158 -618 -858 0
-159 -619 -859 0
-160 -620 -860 0
-157 -621 -861 0
-158 -622 -862 0
-159 -623 -863 0
-160 -624 -864 0
-157 -625 -865 0
-158 -626 -866 0
-159 -627 -867 0
-160 -628 -868 0
-157 -629 -869 0
-158 -630 -870 0
-159 -631 -871 0
-160 -632 -872 0
-157 -633 -873 0
-158 -634 -874 0
-159 -635 -875 0
-160 -636 -876 0
-157 -637 -877 0
-158 -638 -878 0
-159 -639 -879 0
-160 -640 -880 0
-157 -641 -881 0
-158 -642 -882 0
-159 -643 -883 0
-160 -644 -884 0
-157 -645 -885 0
-158 -646 -886 0
-159 -647 -887 0
-160 -648 -888 0
-157 -649 -889 0
-158 -650 -890 0
-159 -651 -891 0
-160 -652 -892 0
-157 -653 -893 0
-158 -654 -894 0
-159 -655 -895 0
-160 -656 -896 0
-157 -657 -897 0
-158 -658 -898 0
-159 -659 -899 0
-160 -660 -900 0
-157 -661 -901 0
-158 -662 -902 0
-159 -663 -903 0
-160 -664 -904 0
-1 -165 -253 0
-2 -166 -254 0
-3 -167 -255 0
-4 -168 -256 0
-5 -165 -257 0
-6 -166 -258 0
-7 -167 -259 0
-8 -168 -260 0
-9 -165 -261 0
-10 -166 -262 0
-11 -167 -263 0
-12 -168 -264 0
-13 -165 -265 0
-14 -166 -266 0
-15 -167 -267 0
-16 -168 -268 0
-17 -165 -269 0
-18 -166 -270 0
-19 -167 -271 0
-20 -168 -272 0
-21 -165 -273 0
-22 -166 -274 0
-23 -167 -275 0
-24 -168 -276 0
-25 -165 -277 0
-26 -166 -278 0
-27 -167 -279 0
-28 -168 -280 0
-29 -165 -281 0
-30 -166 -282 0
-31 -167 -283 0
-32 -168 -284 0
-33 -165 -285 0
-34 -166 -286 0
-35 -167 -287 0
-36 -168 -288 0
-37 -165 -289 0
-38 -166 -290 0
-39 -167 -291 0
-40 -168 -292 0
-41 -165 -293 0
-42 -166 -294 0
-43 -167 -295 0
-44 -168 -296 0
-45 -165 -297 0
-46 -166 -298 0
-47 -167 -299 0
-48 -168 -300 0
-49 -165 -301 0
-50 -166 -302 0
-51 -167 -303 0
-52 -168 -304 0
-53 -165 -305 0
-54 -166 -306 0
-55 -167 -307 0
-56 -168 -308 0
-57 -165 -309 0
-58 -166 -310 0
-59 -167 -311 0
-60 -168 -312 0
-61 -165 -313 0
-62 -166 -314 0
-63 -167 -315 0
-64 -168 -316 0
-65 -165 -317 0
-66 -166 -318 0
-67 -167 -319 0
-68 -168 -320 0
-69 -165 -321 0
-70 -166 -322 0
-71 -167 -323 0
-72 -168 -324 0
-73 -165 -325 0
-74 -166 -326 0
-75 -167 -327 0
-76 -168 -328 0
-77 -165 -329 0
-78 -166 -330 0
-79 -167 -331 0
-80 -168 -332 0
-81 -165 -333 0
-82 -166 -334 0
-83 -167 -335 0
-84 -168 -336 0
-85 -165 -337 0
-86 -166 -338 0
-87 -167 -339 0
-88 -168 -340 0
-89 -165 -341 0
-90 -166 -342 0
-91 -167 -343 0
-92 -168 -344 0
-93 -165 -345 0
-94 -166 -346 0
-95 -167 -347 0
-96 -168 -348 0
-97 -165 -349 0
-98 -166 -350 0
-99 -167 -351 0
-100 -168 -352 0
-101 -165 -353 0
-102 -166 -354 0
-103 -167 -355 0
-104 -168 -356 0
-105 -165 -357 0
-106 -166 -358 0
-107 -167 -359 0
-108 -168 -360 0
-109 -165 -361 0
-110 -166 -362 0
-111 -167 -363 0
-112 -168 -364 0
-113 -165 -365 0
-114 -166 -366 0
-115 -167 -367 0
-116 -168 -368 0
-117 -165 -369 0
-118 -166 -370 0
-119 -167 -371 0
-120 -168 -372 0
-121 -165 -373 0
-122 -166 -374 0
-123 -167 -375 0
-124 -168 -376 0
-125 -165 -377 0
-126 -166 -378 0
-127 -167 -379 0
-128 -168 -380 0
-129 -165 -381 0
-130 -166 -382 0
-131 -167 -383 0
-132 -168 -384 0
-133 -165 -385 0
-134 -166 -386 0
-135 -167 -387 0
-136 -168 -388 0
-137 -165 -389 0
-138 -166 -390 0
-139 -167 -391 0
-140 -168 -392 0
-141 -165 -393 0
-142 -166 -394 0
-143 -167 -395 0
-144 -168 -396 0
-145 -165 -397 0
-146 -166 -398 0
-147 -167 -399 0
-148 -168 -400 0
-149 -165 -401 0
-150 -166 -402 0
-151 -167 -403 0
-152 -168 -404 0
-153 -165 -405 0
-154 -166 -406 0
-155 -167 -407 0
-156 -168 -408 0
-157 -165 -409 0
-158 -166 -410 0
-159 -167 -411 0
-160 -168 -412 0
-161 -165 -413 0
-162 -166 -414 0
-163 -167 -415 0
-164 -168 -416 0
-165 -417 0
-166 -418 0
-167 -419 0
-168 -420 0
-165 -169 -421 0
-166 -170 -422 0
-167 -171 -423 0
-168 -172 -424 0
-165 -173 -425 0
-166 -174 -426 0
-167 -175 -427 0
-168 -176 -428 0
-165 -177 -429 0
-166 -178 -430 0
-167 -179 -431 0
-168 -180 -432 0
-165 -181 -433 0
-166 -182 -434 0
-167 -183 -435 0
-168 -184 -436 0
-165 -185 -437 0
-166 -186 -438 0
-167 -187 -439 0
-168 -188 -440 0
-165 -189 -441 0
-166 -190 -442 0
-167 -191 -443 0
-168 -192 -444 0
-165 -193 -445 0
-166 -194 -446 0
-167 -195 -447 0
-168 -196 -448 0
-165 -197 -449 0
-166 -198 -450 0
-167 -199 -451 0
-168 -200 -452 0
-165 -201 -453 0
-166 -202 -454 0
-167 -203 -455 0
-168 -204 -456 0
-165 -205 -457 0
-166 -206 -458 0
-167 -207 -459 0
-168 -208 -460 0
-165 -209 -461 0
-166 -210 -462 0
-167 -211 -463 0
-168 -212 -464 0
-165 -213 -465 0
-166 -214 -466 0
-167 -215 -467 0
-168 -216 -468 0
-165 -217 -469 0
-166 -218 -470 0
-167 -219 -471 0
-168 -220 -472 0
-165 -221 -473 0
-166 -222 -474 0
-167 -223 -475 0
-168 -224 -476 0
-165 -225 -477 0
-166 -226 -478 0
-167 -227 -479 0
-168 -228 -480 0
-165 -229 -481 0
-166 -230 -482 0
-167 -231 -483 0
-168 -232 -484 0
-165 -233 -485 0
-166 -234 -486 0
-167 -235 -487 0
-168 -236 -488 0
-165 -237 -489 0
-166 -238 -490 0
-167 -239 -491 0
-168 -240 -492 0
-165 -241 -493 0
-166 -242 -494 0
-167 -243 -495 0
-168 -244 -496 0
-165 -245 -497 0
-166 -246 -498 0
-167 -247 -499 0
-168 -248 -500 0
-165 -249 -501 0
-166 -250 -502 0
-167 -251 -503 0
-168 -252 -504 0
-165 -253 -505 0
-166 -254 -506 0
-167 -255 -507 0
-168 -256 -508 0
-165 -257 -509 0
-166 -258 -510 0
-167 -259 -511 0
-168 -260 -512 0
-165 -261 -513 0
-166 -262 -514 0
-167 -263 -515 0
-168 -264 -516 0
-165 -265 -517 0
-166 -266 -518 0
-167 -267 -519 0
-168 -268 -520 0
-165 -269 -521 0
-166 -270 -522 0
-167 -271 -523 0
-168 -272 -524 0
-165 -273 -525 0
-166 -274 -526 0
-167 -275 -527 0
-168 -276 -528 0
-165 -277 -529 0
-166 -278 -530 0
-167 -279 -531 0
-168 -280 -532 0
-165 -281 -533 0
-166 -282 -534 0
-167 -283 -535 0
-168 -284 -536 0
-165 -285 -537 0
-166 -286 -538 0
-167 -287 -539 0
-168 -288 -540 0
-165 -289 -541 0
-166 -290 -542 0
-167 -291 -543 0
-168 -292 -544 0
-165 -293 -545 0
-166 -294 -546 0
-167 -295 -547 0
-168 -296 -548 0
-165 -297 -549 0
-166 -298 -550 0
-167 -299 -551 0
-168 -300 -552 0
-165 -301 -553 0
-166 -302 -554 0
-167 -303 -555 0
-168 -304 -556 0
-165 -305 -557 0
-166 -306 -558 0
-167 -307 -559 0
-168 -308 -560 0
-165 -309 -561 0
-166 -310 -562 0
-167 -311 -563 0
-168 -312 -564 0
-165 -313 -565 0
-166 -314 -566 0
-167 -315 -567 0
-168 -316 -568 0
-165 -317 -569 0
-166 -318 -570 0
-167 -319 -571 0
-168 -320 -572 0
-165 -321 -573 0
-166 -322 -574 0
-167 -323 -575 0
-168 -324 -576 0
-165 -325 -577 0
-166 -326 -578 0
-167 -327 -579 0
-168 -328 -580 0
-165 -329 -581 0
-166 -330 -582 0
-167 -331 -583 0
-168 -332 -584 0
-165 -333 -585 0
-166 -334 -586 0
-167 -335 -587 0
-168 -336 -588 0
-165 -337 -589 0
-166 -338 -590 0
-167 -339 -591 0
-168 -340 -592 0
-165 -341 -593 0
-166 -342 -594 0
-167 -343 -595 0
-168 -344 -596 0
-165 -345 -597 0
-166 -346 -598 0
-167 -347 -599 0
-168 -348 -600 0
-165 -349 -601 0
-166 -350 -602 0
-167 -351 -603 0
-168 -352 -604 0
-165 -353 -605 0
-166 -354 -606 0
-167 -355 -607 0
-168 -356 -608 0
-165 -357 -609 0
-166 -358 -610 0
-167 -359 -611 0
-168 -360 -612 0
-165 -361 -613 0
-166 -362 -614 0
-167 -363 -615 0
-168 -364 -616 0
-165 -365 -617 0
-166 -366 -618 0
-167 -367 -619 0
-168 -368 -620 0
-165 -369 -621 0
-166 -370 -622 0
-167 -371 -623 0
-168 -372 -624 0
-165 -373 -625 0
-166 -374 -626 0
-167 -375 -627 0
-168 -376 -628 0
-165 -377 -629 0
-166 -378 -630 0
-167 -379 -631 0
-168 -380 -632 0
-165 -381 -633 0
-166 -382 -634 0
-167 -383 -635 0
-168 -384 -636 0
-165 -385 -637 0
-166 -386 -638 0
-167 -387 -639 0
-168 -388 -640 0
-165 -389 -641 0
-166 -390 -642 0
-167 -391 -643 0
-168 -392 -644 0
-165 -393 -645 0
-166 -394 -646 0
-167 -395 -647 0
-168 -396 -648 0
-165 -397 -649 0
-166 -398 -650 0
-167 -399 -651 0
-168 -400 -652 0
-165 -401 -653 0
-166 -402 -654 0
-167 -403 -655 0
-168 -404 -656 0
-165 -405 -657 0
-166 -406 -658 0
-167 -407 -659 0
-168 -408 -660 0
-165 -409 -661 0
-166 -410 -662 0
-167 -411 -663 0
-168 -412 -664 0
-165 -413 -665 0
-166 -414 -666 0
-167 -415 -667 0
-168 -416 -668 0
-165 -417 -669 0
-166 -418 -670 0
-167 -419 -671 0
-168 -420 -672 0
-165 -421 -673 0
-166 -422 -674 0
-167 -423 -675 0
-168 -424 -676 0
-165 -425 -677 0
-166 -426 -678 0
-167 -427 -679 0
-168 -428 -680 0
-165 -429 -681 0
-166 -430 -682 0
-167 -431 -683 0
-168 -432 -684 0
-165 -433 -685 0
-166 -434 -686 0
-167 -435 -687 0
-168 -436 -688 0
-165 -437 -689 0
-166 -438 -690 0
-167 -439 -691 0
-168 -440 -692 0
-165 -441 -693 0
-166 -442 -694 0
-167 -443 -695 0
-168 -444 -696 0
-165 -445 -697 0
-166 -446 -698 0
-167 -447 -699 0
-168 -448 -700 0
-165 -449 -701 0
-166 -450 -702 0
-167 -451 -703 0
-168 -452 -704 0
-165 -453 -705 0
-166 -454 -706 0
-167 -455 -707 0
-168 -456 -708 0
-165 -457 -709 0
-166 -458 -710 0
-167 -459 -711 0
-168 -460 -712 0
-165 -461 -713 0
-166 -462 -714 0
-167 -463 -715 0
-168 -464 -716 0
-165 -465 -717 0
-166 -466 -718 0
-167 -467 -719 0
-168 -468 -720 0
-165 -469 -721 0
-166 -470 -722 0
-167 -471 -723 0
-168 -472 -724 0
-165 -473 -725 0
-166 -474 -726 0
-167 -475 -727 0
-168 -476 -728 0
-165 -477 -729 0
-166 -478 -730 0
-167 -479 -731 0
-168 -480 -732 0
-165 -481 -733 0
-166 -482 -734 0
-167 -483 -735 0
-168 -484 -736 0
-165 -485 -737 0
-166 -486 -738 0
-167 -487 -739 0
-168 -488 -740 0
-165 -489 -741 0
-166 -490 -742 0
-167 -491 -743 0
-168 -492 -744 0
-165 -493 -745 0
-166 -494 -746 0
-167 -495 -747 0
-168 -496 -748 0
-165 -497 -749 0
-166 -498 -750 0
-167 -499 -751 0
-168 -500 -752 0
-165 -501 -753 0
-166 -502 -754 0
-167 -503 -755 0
-168 -504 -756 0
-165 -505 -757 0
-166 -506 -758 0
-167 -507 -759 0
-168 -508 -760 0
-165 -509 -761 0
-166 -510 -762 0
-167 -511 -763 0
-168 -512 -764 0
-165 -513 -765 0
-166 -514 -766 0
-167 -515 -767 0
-168 -516 -768 0
-165 -517 -769 0
-166 -518 -770 0
-167 -519 -771 0
-168 -520 -772 0
-165 -521 -773 0
-166 -522 -774 0
-167 -523 -775 0
-168 -524 -776 0
-165 -525 -777 0
-166 -526 -778 0
-167 -527 -779 0
-168 -528 -780 0
-165 -529 -781 0
-166 -530 -782 0
-167 -531 -783 0
-168 -532 -784 0
-165 -533 -785 0
-166 -534 -786 0
-167 -535 -787 0
-168 -536 -788 0
-165 -537 -789 0
-166 -538 -790 0
-167 -539 -791 0
-168 -540 -792 0
-165 -541 -793 0
-166 -542 -794 0
-167 -543 -795 0
-168 -544 -796 0
-165 -545 -797 0
-166 -546 -798 0
-167 -547 -799 0
-168 -548 -800 0
-165 -549 -801 0
-166 -550 -802 0
-167 -551 -803 0
-168 -552 -804 0
-165 -553 -805 0
-166 -554 -806 0
-167 -555 -807 0
-168 -556 -808 0
-165 -557 -809 0
-166 -558 -810 0
-167 -559 -811 0
-168 -560 -812 0
-165 -561 -813 0
-166 -562 -814 0
-167 -563 -815 0
-168 -564 -816 0
-165 -565 -817 0
-166 -566 -818 0
-167 -567 -819 0
-168 -568 -820 0
-165 -569 -821 0
-166 -570 -822 0
-167 -571 -823 0
-168 -572 -824 0
-165 -573 -825 0
-166 -574 -826 0
-167 -575 -827 0
-168 -576 -828 0
-165 -577 -829 0
-166 -578 -830 0
-167 -579 -831 0
-168 -580 -832 0
-165 -581 -833 0
-166 -582 -834 0
-167 -583 -835 0
-168 -584 -836 0
-165 -585 -837 0
-166 -586 -838 0
-167 -587 -839 0
-168 -588 -840 0
-165 -589 -841 0
-166 -590 -842 0
-167 -591 -843 0
-168 -592 -844 0
-165 -593 -845 0
-166 -594 -846 0
-167 -595 -847 0
-168 -596 -848 0
-165 -597 -849 0
-166 -598 -850 0
-167 -599 -851 0
-168 -600 -852 0
-165 -601 -853 0
-166 -602 -854 0
-167 -603 -855 0
-168 -604 -856 0
-165 -605 -857 0
-166 -606 -858 0
-167 -607 -859 0
-168 -608 -860 0
-165 -609 -861 0
-166 -610 -862 0
-167 -611 -863 0
-168 -612 -864 0
-165 -613 -865 0
-166 -614 -866 0
-167 -615 -867 0
-168 -616 -868 0
-165 -617 -869 0
-166 -618 -870 0
-167 -619 -871 0
-168 -620 -872 0
-165 -621 -873 0
-166 -622 -874 0
-167 -623 -875 0
-168 -624 -876 0
-165 -625 -877 0
-166 -626 -878 0
-167 -627 -879 0
-168 -628 -880 0
-165 -629 -881 0
-166 -630 -882 0
-167 -631 -883 0
-168 -632 -884 0
-165 -633 -885 0
-166 -634 -886 0
-167 -635 -887 0
-168 -636 -888 0
-165 -637 -889 0
-166 -638 -890 0
-167 -639 -891 0
-168 -640 -892 0
-165 -641 -893 0
-166 -642 -894 0
-167 -643 -895 0
-168 -644 -896 0
-165 -645 -897 0
-166 -646 -898 0
-167 -647 -899 0
-168 -648 -900 0
-165 -649 -901 0
-166 -650 -902 0
-167 -651 -903 0
-168 -652 -904 0
-1 -173 -265 0
-2 -174 -266 0
-3 -175 -267 0
-4 -176 -268 0
-5 -173 -269 0
-6 -174 -270 0
-7 -175 -271 0
-8 -176 -272 0
-9 -173 -273 0
-10 -174 -274 0
-11 -175 -275 0
-12 -176 -276 0
-13 -173 -277 0
-14 -174 -278 0
-15 -175 -279 0
-16 -176 -280 0
-17 -173 -281 0
-18 -174 -282 0
-19 -175 -283 0
-20 -176 -284 0
-21 -173 -285 0
-22 -174 -286 0
-23 -175 -287 0
-24 -176 -288 0
-25 -173 -289 0
-26 -174 -290 0
-27 -175 -291 0
-28 -176 -292 0
-29 -173 -293 0
-30 -174 -294 0
-31 -175 -295 0
-32 -176 -296 0
-33 -173 -297 0
-34 -174 -298 0
-35 -175 -299 0
-36 -176 -300 0
-37 -173 -301 0
-38 -174 -302 0
-39 -175 -303 0
-40 -176 -304 0
-41 -173 -305 0
-42 -174 -306 0
-43 -175 -307 0
-44 -176 -308 0
-45 -173 -309 0
-46 -174 -310 0
-47 -175 -311 0
-48 -176 -312 0
-49 -173 -313 0
-50 -174 -314 0
-51 -175 -315 0
-52 -176 -316 0
-53 -173 -317 0
-54 -174 -318 0
-55 -175 -319 0
-56 -176 -320 0
-57 -173 -321 0
-58 -174 -322 0
-59 -175 -323 0
-60 -176 -324 0
-61 -173 -325 0
-62 -174 -326 0
-63 -175 -327 0
-64 -176 -328 0
-65 -173 -329 0
-66 -174 -330 0
-67 -175 -331 0
-68 -176 -332 0
-69 -173 -333 0
-70 -174 -334 0
-71 -175 -335 0
-72 -176 -336 0
-73 -173 -337 0
-74 -174 -338 0
-75 -175 -339 0
-76 -176 -340 0
-77 -173 -341 0
-78 -174 -342 0
-79 -175 -343 0
-80 -176 -344 0
-81 -173 -345 0
-82 -174 -346 0
-83 -175 -347 0
-84 -176 -348 0
-85 -173 -349 0
-86 -174 -350 0
-87 -175 -351 0
-88 -176 -352 0
-89 -173 -353 0
-90 -174 -354 0
-91 -175 -355 0
-92 -176 -356 0
-93 -173 -357 0
-94 -174 -358 0
-95 -175 -359 0
-96 -176 -360 0
-97 -173 -361 0
-98 -174 -362 0
-99 -175 -363 0
-100 -176 -364 0
-101 -173 -365 0
-102 -174 -366 0
-103 -175 -367 0
-104 -176 -368 0
-105 -173 -369 0
-106 -174 -370 0
-107 -175 -371 0
-108 -176 -372 0
-109 -173 -373 0
-110 -174 -374 0
-111 -175 -375 0
-112 -176 -376 0
-113 -173 -377 0
-114 -174 -378 0
-115 -175 -379 0
-116 -176 -380 0
-117 -173 -381 0
-118 -174 -382 0
-119 -175 -383 0
-120 -176 -384 0
-121 -173 -385 0
-122 -174 -386 0
-123 -175 -387 0
-124 -176 -388 0
-125 -173 -389 0
-126 -174 -390 0
-127 -175 -391 0
-128 -176 -392 0
-129 -173 -393 0
-130 -174 -394 0
-131 -175 -395 0
-132 -176 -396 0
-133 -173 -397 0
-134 -174 -398 0
-135 -175 -399 0
-136 -176 -400 0
-137 -173 -401 0
-138 -174 -402 0
-139 -175 -403 0
-140 -176 -404 0
-141 -173 -405 0
-142 -174 -406 0
-143 -175 -407 0
-144 -176 -408 0
-145 -173 -409 0
-146 -174 -410 0
-147 -175 -411 0
-148 -176 -412 0
-149 -173 -413 0
-150 -174 -414 0
-151 -175 -415 0
-152 -176 -416 0
-153 -173 -417 0
-154 -174 -418 0
-155 -175 -419 0
-156 -176 -420 0
-157 -173 -421 0
-158 -174 -422 0
-159 -175 -423 0
-160 -176 -424 0
-161 -173 -425 0
-162 -174 -426 0
-163 -175 -427 0
-164 -176 -428 0
-165 -173 -429 0
-166 -174 -430 0
-167 -175 -431 0
-168 -176 -432 0
-169 -173 -433 0
-170 -174 -434 0
-171 -175 -435 0
-172 -176 -436 0
-173 -437 0
-174 -438 0
-175 -439 0
-176 -440 0
-173 -177 -441 0
-174 -178 -442 0
-175 -179 -443 0
-176 -180 -444 0
-173 -181 -445 0
-174 -182 -446 0
-175 -183 -447 0
-176 -184 -448 0
-173 -185 -449 0
-174 -186 -450 0
-175 -187 -451 0
-176 -188 -452 0
-173 -189 -453 0
-174 -190 -454 0
-175 -191 -455 0
-176 -192 -456 0
-173 -193 -457 0
-174 -194 -458 0
-175 -195 -459 0
-176 -196 -460 0
-173 -197 -461 0
-174 -198 -462 0
-175 -199 -463 0
-176 -200 -464 0
-173 -201 -465 0
-174 -202 -466 0
-175 -203 -467 0
-176 -204 -468 0
-173 -205 -469 0
-174 -206 -470 0
-175 -207 -471 0
-176 -208 -472 0
-173 -209 -473 0
-174 -210 -474 0
-175 -211 -475 0
-176 -212 -476 0
-173 -213 -477 0
-174 -214 -478 0
-175 -215 -479 0
-176 -216 -480 0
-173 -217 -481 0
-174 -218 -482 0
-175 -219 -483 0
-176 -220 -484 0
-173 -221 -485 0
-174 -222 -486 0
-175 -223 -487 0
-176 -224 -488 0
-173 -225 -489 0
-174 -226 -490 0
-175 -227 -491 0
-176 -228 -492 0
-173 -229 -493 0
-174 -230 -494 0
-175 -231 -495 0
-176 -232 -496 0
-173 -233 -497 0
-174 -234 -498 0
-175 -235 -499 0
-176 -236 -500 0
-173 -237 -501 0
-174 -238 -502 0
-175 -239 -503 0
-176 -240 -504 0
-173 -241 -505 0
-174 -242 -506 0
-175 -243 -507 0
-176 -244 -508 0
-173 -245 -509 0
-174 -246 -510 0
-175 -247 -511 0
-176 -248 -512 0
-173 -249 -513 0
-174 -250 -514 0
-175 -251 -515 0
-176 -252 -516 0
-173 -253 -517 0
-174 -254 -518 0
-175 -255 -519 0
-176 -256 -520 0
-173 -257 -521 0
-174 -258 -522 0
-175 -259 -523 0
-176 -260 -524 0
-173 -261 -525 0
-174 -262 -526 0
-175 -263 -527 0
-176 -264 -528 0
-173 -265 -529 0
-174 -266 -530 0
-175 -267 -531 0
-176 -268 -532 0
-173 -269 -533 0
-174 -270 -534 0
-175 -271 -535 0
-176 -272 -536 0
-173 -273 -537 0
-174 -274 -538 0
-175 -275 -539 0
-176 -276 -540 0
-173 -277 -541 0
-174 -278 -542 0
-175 -279 -543 0
-176 -280 -544 0
-173 -281 -545 0
-174 -282 -546 0
-175 -283 -547 0
-176 -284 -548 0
-173 -285 -549 0
-174 -286 -550 0
-175 -287 -551 0
-176 -288 -552 0
-173 -289 -553 0
-174 -290 -554 0
-175 -291 -555 0
-176 -292 -556 0
-173 -293 -557 0
-174 -294 -558 0
-175 -295 -559 0
-176 -296 -560 0
-173 -297 -561 0
-174 -298 -562 0
-175 -299 -563 0
-176 -300 -564 0
-173 -301 -565 0
-174 -302 -566 0
-175 -303 -567 0
-176 -304 -568 0
-173 -305 -569 0
-174 -306 -570 0
-175 -307 -571 0
-176 -308 -572 0
-173 -309 -573 0
-174 -310 -574 0
-175 -311 -575 0
-176 -312 -576 0
-173 -313 -577 0
-174 -314 -578 0
-175 -315 -579 0
-176 -316 -580 0
-173 -317 -581 0
-174 -318 -582 0
-175 -319 -583 0
-176 -320 -584 0
-173 -321 -585 0
-174 -322 -586 0
-175 -323 -587 0
-176 -324 -588 0
-173 -325 -589 0
-174 -326 -590 0
-175 -327 -591 0
-176 -328 -592 0
-173 -329 -593 0
-174 -330 -594 0
-175 -331 -595 0
-176 -332 -596 0
-173 -333 -597 0
-174 -334 -598 0
-175 -335 -599 0
-176 -336 -600 0
-173 -337 -601 0
-174 -338 -602 0
-175 -339 -603 0
-176 -340 -604 0
-173 -341 -605 0
-174 -342 -606 0
-175 -343 -607 0
-176 -344 -608 0
-173 -345 -609 0
-174 -346 -610 0
-175 -347 -611 0
-176 -348 -612 0
-173 -349 -613 0
-174 -350 -614 0
-175 -351 -615 0
-176 -352 -616 0
-173 -353 -617 0
-174 -354 -618 0
-175 -355 -619 0
-176 -356 -620 0
-173 -357 -621 0
-174 -358 -622 0
-175 -359 -623 0
-176 -360 -624 0
-173 -361 -625 0
-174 -362 -626 0
-175 -363 -627 0
-176 -364 -628 0
-173 -365 -629 0
-174 -366 -630 0
-175 -367 -631 0
-176 -368 -632 0
-173 -369 -633 0
-174 -370 -634 0
-175 -371 -635 0
-176 -372 -636 0
-173 -373 -637 0
-174 -374 -638 0
-175 -375 -639 0
-176 -376 -640 0
-173 -377 -641 0
-174 -378 -642 0
-175 -379 -643 0
-176 -380 -644 0
-173 -381 -645 0
-174 -382 -646 0
-175 -383 -647 0
-176 -384 -648 0
-173 -385 -649 0
-174 -386 -650 0
-175 -387 -651 0
-176 -388 -652 0
-173 -389 -653 0
-174 -390 -654 0
-175 -391 -655 0
-176 -392 -656 0
-173 -393 -657 0
-174 -394 -658 0
-175 -395 -659 0
-176 -396 -660 0
-173 -397 -661 0
-174 -398 -662 0
-175 -399 -663 0
-176 -400 -664 0
-173 -401 -665 0
-174 -402 -666 0
-175 -403 -667 0
-176 -404 -668 0
-173 -405 -669 0
-174 -406 -670 0
-175 -407 -671 0
-176 -408 -672 0
-173 -409 -673 0
-174 -410 -674 0
-175 -411 -675 0
-176 -412 -676 0
-173 -413 -677 0
-174 -414 -678 0
-175 -415 -679 0
-176 -416 -680 0
-173 -417 -681 0
-174 -418 -682 0
-175 -419 -683 0
-176 -420 -684 0
-173 -421 -685 0
-174 -422 -686 0
-175 -423 -687 0
-176 -424 -688 0
-173 -425 -689 0
-174 -426 -690 0
-175 -427 -691 0
-176 -428 -692 0
-173 -429 -693 0
-174 -430 -694 0
-175 -431 -695 0
-176 -432 -696 0
-173 -433 -697 0
-174 -434 -698 0
-175 -435 -699 0
-176 -436 -700 0
-173 -437 -701 0
-174 -438 -702 0
-175 -439 -703 0
-176 -440 -704 0
-173 -441 -705 0
-174 -442 -706 0
-175 -443 -707 0
-176 -444 -708 0
-173 -445 -709 0
-174 -446 -710 0
-175 -447 -711 0
-176 -448 -712 0
-173 -449 -713 0
-174 -450 -714 0
-175 -451 -715 0
-176 -452 -716 0
-173 -453 -717 0
-174 -454 -718 0
-175 -455 -719 0
-176 -456 -720 0
-173 -457 -721 0
-174 -458 -722 0
-175 -459 -723 0
-176 -460 -724 0
-173 -461 -725 0
-174 -462 -726 0
-175 -463 -727 0
-176 -464 -728 0
-173 -465 -729 0
-174 -466 -730 0
-175 -467 -731 0
-176 -468 -732 0
-173 -469 -733 0
-174 -470 -734 0
-175 -471 -735 0
-176 -472 -736 0
-173 -473 -737 0
-174 -474 -738 0
-175 -475 -739 0
-176 -476 -740 0
-173 -477 -741 0
-174 -478 -742 0
-175 -479 -743 0
-176 -480 -744 0
-173 -481 -745 0
-174 -482 -746 0
-175 -483 -747 0
-176 -484 -748 0
-173 -485 -749 0
-174 -486 -750 0
-175 -487 -751 0
-176 -488 -752 0
-173 -489 -753 0
-174 -490 -754 0
-175 -491 -755 0
-176 -492 -756 0
-173 -493 -757 0
-174 -494 -758 0
-175 -495 -759 0
-176 -496 -760 0
-173 -497 -761 0
-174 -498 -762 0
-175 -499 -763 0
-176 -500 -764 0
-173 -501 -765 0
-174 -502 -766 0
-175 -503 -767 0
-176 -504 -768 0
-173 -505 -769 0
-174 -506 -770 0
-175 -507 -771 0
-176 -508 -772 0
-173 -509 -773 0
-174 -510 -774 0
-175 -511 -775 0
-176 -512 -776 0
-173 -513 -777 0
-174 -514 -778 0
-175 -515 -779 0
-176 -516 -780 0
-173 -517 -781 0
-174 -518 -782 0
-175 -519 -783 0
-176 -520 -784 0
-173 -521 -785 0
-174 -522 -786 0
-175 -523 -787 0
-176 -524 -788 0
-173 -525 -789 0
-174 -526 -790 0
-175 -527 -791 0
-176 -528 -792 0
-173 -529 -793 0
-174 -530 -794 0
-175 -531 -795 0
-176 -532 -796 0
-173 -533 -797 0
-174 -534 -798 0
-175 -535 -799 0
-176 -536 -800 0
-173 -537 -801 0
-174 -538 -802 0
-175 -539 -803 0
-176 -540 -804 0
-173 -541 -805 0
-174 -542 -806 0
-175 -543 -807 0
-176 -544 -808 0
-173 -545 -809 0
-174 -546 -810 0
-175 -547 -811 0
-176 -548 -812 0
-173 -549 -813 0
-174 -550 -814 0
-175 -551 -815 0
-176 -552 -816 0
-173 -553 -817 0
-174 -554 -818 0
-175 -555 -819 0
-176 -556 -820 0
-173 -557 -821 0
-174 -558 -822 0
-175 -559 -823 0
-176 -560 -824 0
-173 -561 -825 0
-174 -562 -826 0
-175 -563 -827 0
-176 -564 -828 0
-173 -565 -829 0
-174 -566 -830 0
-175 -567 -831 0
-176 -568 -832 0
-173 -569 -833 0
-174 -570 -834 0
-175 -571 -835 0
-176 -572 -836 0
-173 -573 -837 0
-174 -574 -838 0
-175 -575 -839 0
-176 -576 -840 0
-173 -577 -841 0
-174 -578 -842 0
-175 -579 -843 0
-176 -580 -844 0
-173 -581 -845 0
-174 -582 -846 0
-175 -583 -847 0
-176 -584 -848 0
-173 -585 -849 0
-174 -586 -850 0
-175 -587 -851 0
-176 -588 -852 0
-173 -589 -853 0
-174 -590 -854 0
-175 -591 -855 0
-176 -592 -856 0
-173 -593 -857 0
-174 -594 -858 0
-175 -595 -859 0
-176 -596 -860 0
-173 -597 -861 0
-174 -598 -862 0
-175 -599 -863 0
-176 -600 -864 0
-173 -601 -865 0
-174 -602 -866 0
-175 -603 -867 0
-176 -604 -868 0
-173 -605 -869 0
-174 -606 -870 0
-175 -607 -871 0
-176 -608 -872 0
-173 -609 -873 0
-174 -610 -874 0
-175 -611 -875 0
-176 -612 -876 0
-173 -613 -877 0
-174 -614 -878 0
-175 -615 -879 0
-176 -616 -880 0
-173 -617 -881 0
-174 -618 -882 0
-175 -619 -883 0
-176 -620 -884 0
-173 -621 -885 0
-174 -622 -886 0
-175 -623 -887 0
-176 -624 -888 0
-173 -625 -889 0
-174 -626 -890 0
-175 -627 -891 0
-176 -628 -892 0
-173 -629 -893 0
-174 -630 -894 0
-175 -631 -895 0
-176 -632 -896 0
-173 -633 -897 0
-174 -634 -898 0
-175 -635 -899 0
-176 -636 -900 0
-173 -637 -901 0
-174 -638 -902 0
-175 -639 -903 0
-176 -640 -904 0
-1 -181 -277 0
-2 -182 -278 0
-3 -183 -279 0
-4 -184 -280 0
-5 -181 -281 0
-6 -182 -282 0
-7 -183 -283 0
-8 -184 -284 0
-9 -181 -285 0
-10 -182 -286 0
-11 -183 -287 0
-12 -184 -288 0
-13 -181 -289 0
-14 -182 -290 0
-15 -183 -291 0
-16 -184 -292 0
-17 -181 -293 0
-18 -182 -294 0
-19 -183 -295 0
-20 -184 -296 0
-21 -181 -297 0
-22 -182 -298 0
-23 -183 -299 0
-24 -184 -300 0
-25 -181 -301 0
-26 -182 -302 0
-27 -183 -303 0
-28 -184 -304 0
-29 -181 -305 0
-30 -182 -306 0
-31 -183 -307 0
-32 -184 -308 0
-33 -181 -309 0
-34 -182 -310 0
-35 -183 -311 0
-36 -184 -312 0
-37 -181 -313 0
-38 -182 -314 0
-39 -183 -315 0
-40 -184 -316 0
-41 -181 -317 0
-42 -182 -318 0
-43 -183 -319 0
-44 -184 -320 0
-45 -181 -321 0
-46 -182 -322 0
-47 -183 -323 0
-48 -184 -324 0
-49 -181 -325 0
-50 -182 -326 0
-51 -183 -327 0
-52 -184 -328 0
-53 -181 -329 0
-54 -182 -330 0
-55 -183 -331 0
-56 -184 -332 0
-57 -181 -333 0
-58 -182 -334 0
-59 -183 -335 0
-60 -184 -336 0
-61 -181 -337 0
-62 -182 -338 0
-63 -183 -339 0
-64 -184 -340 0
-65 -181 -341 0
-66 -182 -342 0
-67 -183 -343 0
-68 -184 -344 0
-69 -181 -345 0
-70 -182 -346 0
-71 -183 -347 0
-72 -184 -348 0
-73 -181 -349 0
-74 -182 -350 0
-75 -183 -351 0
-76 -184 -352 0
-77 -181 -353 0
-78 -182 -354 0
-79 -183 -355 0
-80 -184 -356 0
-81 -181 -357 0
-82 -182 -358 0
-83 -183 -359 0
-84 -184 -360 0
-85 -181 -361 0
-86 -182 -362 0
-87 -183 -363 0
-88 -184 -364 0
-89 -181 -365 0
-90 -182 -366 0
-91 -183 -367 0
-92 -184 -368 0
-93 -181 -369 0
-94 -182 -370 0
-95 -183 -371 0
-96 -184 -372 0
-97 -181 -373 0
-98 -182 -374 0
-99 -183 -375 0
-100 -184 -376 0
-101 -181 -377 0
-102 -182 -378 0
-103 -183 -379 0
-104 -184 -380 0
-105 -181 -381 0
-106 -182 -382 0
-107 -183 -383 0
-108 -184 -384 0
-109 -181 -385 0
-110 -182 -386 0
-111 -183 -387 0
-112 -184 -388 0
-113 -181 -389 0
-114 -182 -390 0
-115 -183 -391 0
-116 -184 -392 0
-117 -181 -393 0
-118 -182 -394 0
-119 -183 -395 0
-120 -184 -396 0
-121 -181 -397 0
-122 -182 -398 0
-123 -183 -399 0
-124 -184 -400 0
-125 -181 -401 0
-126 -182 -402 0
-127 -183 -403 0
-128 -184 -404 0
-129 -181 -405 0
-130 -182 -406 0
-131 -183 -407 0
-132 -184 -408 0
-133 -181 -409 0
-134 -182 -410 0
-135 -183 -411 0
-136 -184 -412 0
-137 -181 -413 0
-138 -182 -414 0
-139 -183 -415 0
-140 -184 -416 0
-141 -181 -417 0
-142 -182 -418 0
-143 -183 -419 0
-144 -184 -420 0
-145 -181 -421 0
-146 -182 -422 0
-147 -183 -423 0
-148 -184 -424 0
-149 -181 -425 0
-150 -182 -426 0
-151 -183 -427 0
-152 -184 -428 0
-153 -181 -429 0
-154 -182 -430 0
-155 -183 -431 0
-156 -184 -432 0
-157 -181 -433 0
-158 -182 -434 0
-159 -183 -435 0
-160 -184 -436 0
-161 -181 -437 0
-162 -182 -438 0
-163 -183 -439 0
-164 -184 -440 0
-165 -181 -441 0
-166 -182 -442 0
-167 -183 -443 0
-168 -184 -444 0
-169 -181 -445 0
-170 -182 -446 0
-171 -183 -447 0
-172 -184 -448 0
-173 -181 -449 0
-174 -182 -450 0
-175 -183 -451 0
-176 -184 -452 0
-177 -181 -453 0
-178 -182 -454 0
-179 -183 -455 0
-180 -184 -456 0
-181 -457 0
-182 -458 0
-183 -459 0
-184 -460 0
-181 -185 -461 0
-182 -186 -462 0
-183 -187 -463 0
-184 -188 -464 0
-181 -189 -465 0
-182 -190 -466 0
-183 -191 -467 0
-184 -192 -468 0
-181 -193 -469 0
-182 -194 -470 0
-183 -195 -471 0
-184 -196 -472 0
-181 -197 -473 0
-182 -198 -474 0
-183 -199 -475 0
-184 -200 -476 0
-181 -201 -477 0
-182 -202 -478 0
-183 -203 -479 0
-184 -204 -480 0
-181 -205 -481 0
-182 -206 -482 0
-183 -207 -483 0
-184 -208 -484 0
-181 -209 -485 0
-182 -210 -486 0
-183 -211 -487 0
-184 -212 -488 0
-181 -213 -489 0
-182 -214 -490 0
-183 -215 -491 0
-184 -216 -492 0
-181 -217 -493 0
-182 -218 -494 0
-183 -219 -495 0
-184 -220 -496 0
-181 -221 -497 0
-182 -222 -498 0
-183 -223 -499 0
-184 -224 -500 0
-181 -225 -501 0
-182 -226 -502 0
-183 -227 -503 0
-184 -228 -504 0
-181 -229 -505 0
-182 -230 -506 0
-183 -231 -507 0
-184 -232 -508 0
-181 -233 -509 0
-182 -234 -510 0
-183 -235 -511 0
-184 -236 -512 0
-181 -237 -513 0
-182 -238 -514 0
-183 -239 -515 0
-184 -240 -516 0
-181 -241 -517 0
-182 -242 -518 0
-183 -243 -519 0
-184 -244 -520 0
-181 -245 -521 0
-182 -246 -522 0
-183 -247 -523 0
-184 -248 -524 0
-181 -249 -525 0
-182 -250 -526 0
-183 -251 -527 0
-184 -252 -528 0
-181 -253 -529 0
-182 -254 -530 0
-183 -255 -531 0
-184 -256 -532 0
-181 -257 -533 0
-182 -258 -534 0
-183 -259 -535 0
-184 -260 -536 0
-181 -261 -537 0
-182 -262 -538 0
-183 -263 -539 0
-184 -264 -540 0
-181 -265 -541 0
-182 -266 -542 0
-183 -267 -543 0
-184 -268 -544 0
-181 -269 -545 0
-182 -270 -546 0
-183 -271 -547 0
-184 -272 -548 0
-181 -273 -549 0
-182 -274 -550 0
-183 -275 -551 0
-184 -276 -552 0
-181 -277 -553 0
-182 -278 -554 0
-183 -279 -555 0
-184 -280 -556 0
-181 -281 -557 0
-182 -282 -558 0
-183 -283 -559 0
-184 -284 -560 0
-181 -285 -561 0
-182 -286 -562 0
-183 -287 -563 0
-184 -288 -564 0
-181 -289 -565 0
-182 -290 -566 0
-183 -291 -567 0
-184 -292 -568 0
-181 -293 -569 0
-182 -294 -570 0
-183 -295 -571 0
-184 -296 -572 0
-181 -297 -573 0
-182 -298 -574 0
-183 -299 -575 0
-184 -300 -576 0
-181 -301 -577 0
-182 -302 -578 0
-183 -303 -579 0
-184 -304 -580 0
-181 -305 -581 0
-182 -306 -582 0
-183 -307 -583 0
-184 -308 -584 0
-181 -309 -585 0
-182 -310 -586 0
-183 -311 -587 0
-184 -312 -588 0
-181 -313 -589 0
-182 -314 -590 0
-183 -315 -591 0
-184 -316 -592 0
-181 -317 -593 0
-182 -318 -594 0
-183 -319 -595 0
-184 -320 -596 0
-181 -321 -597 0
-182 -322 -598 0
-183 -323 -599 0
-184 -324 -600 0
-181 -325 -601 0
-182 -326 -602 0
-183 -327 -603 0
-184 -328 -604 0
-181 -329 -605 0
-182 -330 -606 0
-183 -331 -607 0
-184 -332 -608 0
-181 -333 -609 0
-182 -334 -610 0
-183 -335 -611 0
-184 -336 -612 0
-181 -337 -613 0
-182 -338 -614 0
-183 -339 -615 0
-184 -340 -616 0
-181 -341 -617 0
-182 -342 -618 0
-183 -343 -619 0
-184 -344 -620 0
-181 -345 -621 0
-182 -346 -622 0
-183 -347 -623 0
-184 -348 -624 0
-181 -349 -625 0
-182 -350 -626 0
-183 -351 -627 0
-184 -352 -628 0
-181 -353 -629 0
-182 -354 -630 0
-183 -355 -631 0
-184 -356 -632 0
-181 -357 -633 0
-182 -358 -634 0
-183 -359 -635 0
-184 -360 -636 0
-181 -361 -637 0
-182 -362 -638 0
-183 -363 -639 0
-184 -364 -640 0
-181 -365 -641 0
-182 -366 -642 0
-183 -367 -643 0
-184 -368 -644 0
-181 -369 -645 0
-182 -370 -646 0
-183 -371 -647 0
-184 -372 -648 0
-181 -373 -649 0
-182 -374 -650 0
-183 -375 -651 0
-184 -376 -652 0
-181 -377 -653 0
-182 -378 -654 0
-183 -379 -655 0
-184 -380 -656 0
-181 -381 -657 0
-182 -382 -658 0
-183 -383 -659 0
-184 -384 -660 0
-181 -385 -661 0
-182 -386 -662 0
-183 -387 -663 0
-184 -388 -664 0
-181 -389 -665 0
-182 -390 -666 0
-183 -391 -667 0
-184 -392 -668 0
-181 -393 -669 0
-182 -394 -670 0
-183 -395 -671 0
-184 -396 -672 0
-181 -397 -673 0
-182 -398 -674 0
-183 -399 -675 0
-184 -400 -676 0
-181 -401 -677 0
-182 -402 -678 0
-183 -403 -679 0
-184 -404 -680 0
-181 -405 -681 0
-182 -406 -682 0
-183 -407 -683 0
-184 -408 -684 0
-181 -409 -685 0
-182 -410 -686 0
-183 -411 -687 0
-184 -412 -688 0
-181 -413 -689 0
-182 -414 -690 0
-183 -415 -691 0
-184 -416 -692 0
-181 -417 -693 0
-182 -418 -694 0
-183 -419 -695 0
-184 -420 -696 0
-181 -421 -697 0
-182 -422 -698 0
-183 -423 -699 0
-184 -424 -700 0
-181 -425 -701 0
-182 -426 -702 0
-183 -427 -703 0
-184 -428 -704 0
-181 -429 -705 0
-182 -430 -706 0
-183 -431 -707 0
-184 -432 -708 0
-181 -433 -709 0
-182 -434 -710 0
-183 -435 -711 0
-184 -436 -712 0
-181 -437 -713 0
-182 -438 -714 0
-183 -439 -715 0
-184 -440 -716 0
-181 -441 -717 0
-182 -442 -718 0
-183 -443 -719 0
-184 -444 -720 0
-181 -445 -721 0
-182 -446 -722 0
-183 -447 -723 0
-184 -448 -724 0
-181 -449 -725 0
-182 -450 -726 0
-183 -451 -727 0
-184 -452 -728 0
-181 -453 -729 0
-182 -454 -730 0
-183 -455 -731 0
-184 -456 -732 0
-181 -457 -733 0
-182 -458 -734 0
-183 -459 -735 0
-184 -460 -736 0
-181 -461 -737 0
-182 -462 -738 0
-183 -463 -739 0
-184 -464 -740 0
-181 -465 -741 0
-182 -466 -742 0
-183 -467 -743 0
-184 -468 -744 0
-181 -469 -745 0
-182 -470 -746 0
-183 -471 -747 0
-184 -472 -748 0
-181 -473 -749 0
-182 -474 -750 0
-183 -475 -751 0
-184 -476 -752 0
-181 -477 -753 0
-182 -478 -754 0
-183 -479 -755 0
-184 -480 -756 0
-181 -481 -757 0
-182 -482 -758 0
-183 -483 -759 0
-184 -484 -760 0
-181 -485 -761 0
-182 -486 -762 0
-183 -487 -763 0
-184 -488 -764 0
-181 -489 -765 0
-182 -490 -766 0
-183 -491 -767 0
-184 -492 -768 0
-181 -493 -769 0
-182 -494 -770 0
-183 -495 -771 0
-184 -496 -772 0
-181 -497 -773 0
-182 -498 -774 0
-183 -499 -775 0
-184 -500 -776 0
-181 -501 -777 0
-182 -502 -778 0
-183 -503 -779 0
-184 -504 -780 0
-181 -505 -781 0
-182 -506 -782 0
-183 -507 -783 0
-184 -508 -784 0
-181 -509 -785 0
-182 -510 -786 0
-183 -511 -787 0
-184 -512 -788 0
-181 -513 -789 0
-182 -514 -790 0
-183 -515 -791 0
-184 -516 -792 0
-181 -517 -793 0
-182 -518 -794 0
-183 -519 -795 0
-184 -520 -796 0
-181 -521 -797 0
-182 -522 -798 0
-183 -523 -799 0
-184 -524 -800 0
-181 -525 -801 0
-182 -526 -802 0
-183 -527 -803 0
-184 -528 -804 0
-181 -529 -805 0
-182 -530 -806 0
-183 -531 -807 0
-184 -532 -808 0
-181 -533 -809 0
-182 -534 -810 0
-183 -535 -811 0
-184 -536 -812 0
-181 -537 -813 0
-182 -538 -814 0
-183 -539 -815 0
-184 -540 -816 0
-181 -541 -817 0
-182 -542 -818 0
-183 -543 -819 0
-184 -544 -820 0
-181 -545 -821 0
-182 -546 -822 0
-183 -547 -823 0
-184 -548 -824 0
-181 -549 -825 0
-182 -550 -826 0
-183 -551 -827 0
-184 -552 -828 0
-181 -553 -829 0
-182 -554 -830 0
-183 -555 -831 0
-184 -556 -832 0
-181 -557 -833 0
-182 -558 -834 0
-183 -559 -835 0
-184 -560 -836 0
-181 -561 -837 0
-182 -562 -838 0
-183 -563 -839 0
-184 -564 -840 0
-181 -565 -841 0
-182 -566 -842 0
-183 -567 -843 0
-184 -568 -844 0
-181 -569 -845 0
-182 -570 -846 0
-183 -571 -847 0
-184 -572 -848 0
-181 -573 -849 0
-182 -574 -850 0
-183 -575 -851 0
-184 -576 -852 0
-181 -577 -853 0
-182 -578 -854 0
-183 -579 -855 0
-184 -580 -856 0
-181 -581 -857 0
-182 -582 -858 0
-183 -583 -859 0
-184 -584 -860 0
-181 -585 -861 0
-182 -586 -862 0
-183 -587 -863 0
-184 -588 -864 0
-181 -589 -865 0
-182 -590 -866 0
-183 -591 -867 0
-184 -592 -868 0
-181 -593 -869 0
-182 -594 -870 0
-183 -595 -871 0
-184 -596 -872 0
-181 -597 -873 0
-182 -598 -874 0
-183 -599 -875 0
-184 -600 -876 0
-181 -601 -877 0
-182 -602 -878 0
-183 -603 -879 0
-184 -604 -880 0
-181 -605 -881 0
-182 -606 -882 0
-183 -607 -883 0
-184 -608 -884 0
-181 -609 -885 0
-182 -610 -886 0
-183 -611 -887 0
-184 -612 -888 0
-181 -613 -889 0
-182 -614 -890 0
-183 -615 -891 0
-184 -616 -892 0
-181 -617 -893 0
-182 -618 -894 0
-183 -619 -895 0
-184 -620 -896 0
-181 -621 -897 0
-182 -622 -898 0
-183 -623 -899 0
-184 -624 -900 0
-181 -625 -901 0
-182 -626 -902 0
-183 -627 -903 0
-184 -628 -904 0
-1 -189 -289 0
-2 -190 -290 0
-3 -191 -291 0
-4 -192 -292 0
-5 -189 -293 0
-6 -190 -294 0
-7 -191 -295 0
-8 -192 -296 0
-9 -189 -297 0
-10 -190 -298 0
-11 -191 -299 0
-12 -192 -300 0
-13 -189 -301 0
-14 -190 -302 0
-15 -191 -303 0
-16 -192 -304 0
-17 -189 -305 0
-18 -190 -306 0
-19 -191 -307 0
-20 -192 -308 0
-21 -189 -309 0
-22 -190 -310 0
-23 -191 -311 0
-24 -192 -312 0
-25 -189 -313 0
-26 -190 -314 0
-27 -191 -315 0
-28 -192 -316 0
-29 -189 -317 0
-30 -190 -318 0
-31 -191 -319 0
-32 -192 -320 0
-33 -189 -321 0
-34 -190 -322 0
-35 -191 -323 0
-36 -192 -324 0
-37 -189 -325 0
-38 -190 -326 0
-39 -191 -327 0
-40 -192 -328 0
-41 -189 -329 0
-42 -190 -330 0
-43 -191 -331 0
-44 -192 -332 0
-45 -189 -333 0
-46 -190 -334 0
-47 -191 -335 0
-48 -192 -336 0
-49 -189 -337 0
-50 -190 -338 0
-51 -191 -339 0
-52 -192 -340 0
-53 -189 -341 0
-54 -190 -342 0
-55 -191 -343 0
-56 -192 -344 0
-57 -189 -345 0
-58 -190 -346 0
-59 -191 -347 0
-60 -192 -348 0
-61 -189 -349 0
-62 -190 -350 0
-63 -191 -351 0
-64 -192 -352 0
-65 -189 -353 0
-66 -190 -354 0
-67 -191 -355 0
-68 -192 -356 0
-69 -189 -357 0
-70 -190 -358 0
-71 -191 -359 0
-72 -192 -360 0
-73 -189 -361 0
-74 -190 -362 0
-75 -191 -363 0
-76 -192 -364 0
-77 -189 -365 0
-78 -190 -366 0
-79 -191 -367 0
-80 -192 -368 0
-81 -189 -369 0
-82 -190 -370 0
-83 -191 -371 0
-84 -192 -372 0
-85 -189 -373 0
-86 -190 -374 0
-87 -191 -375 0
-88 -192 -376 0
-89 -189 -377 0
-90 -190 -378 0
-91 -191 -379 0
-92 -192 -380 0
-93 -189 -381 0
-94 -190 -382 0
-95 -191 -383 0
-96 -192 -384 0
-97 -189 -385 0
-98 -190 -386 0
-99 -191 -387 0
-100 -192 -388 0
-101 -189 -389 0
-102 -190 -390 0
-103 -191 -391 0
-104 -192 -392 0
-105 -189 -393 0
-106 -190 -394 0
-107 -191 -395 0
-108 -192 -396 0
-109 -189 -397 0
-110 -190 -398 0
-111 -191 -399 0
-112 -192 -400 0
-113 -189 -401 0
-114 -190 -402 0
-115 -191 -403 0
-116 -192 -404 0
-117 -189 -405 0
-118 -190 -406 0
-119 -191 -407 0
-120 -192 -408 0
-121 -189 -409 0
-122 -190 -410 0
-123 -191 -411 0
-124 -192 -412 0
-125 -189 -413 0
-126 -190 -414 0
-127 -191 -415 0
-128 -192 -416 0
-129 -189 -417 0
-130 -190 -418 0
-131 -191 -419 0
-132 -192 -420 0
-133 -189 -421 0
-134 -190 -422 0
-135 -191 -423 0
-136 -192 -424 0
-137 -189 -425 0
-138 -190 -426 0
-139 -191 -427 0
-140 -192 -428 0
-141 -189 -429 0
-142 -190 -430 0
-143 -191 -431 0
-144 -192 -432 0
-145 -189 -433 0
-146 -190 -434 0
-147 -191 -435 0
-148 -192 -436 0
-149 -189 -437 0
-150 -190 -438 0
-151 -191 -439 0
-152 -192 -440 0
-153 -189 -441 0
-154 -190 -442 0
-155 -191 -443 0
-156 -192 -444 0
-157 -189 -445 0
-158 -190 -446 0
-159 -191 -447 0
-160 -192 -448 0
-161 -189 -449 0
-162 -190 -450 0
-163 -191 -451 0
-164 -192 -452 0
-165 -189 -453 0
-166 -190 -454 0
-167 -191 -455 0
-168 -192 -456 0
-169 -189 -457 0
-170 -190 -458 0
-171 -191 -459 0
-172 -192 -460 0
-173 -189 -461 0
-174 -190 -462 0
-175 -191 -463 0
-176 -192 -464 0
-177 -189 -465 0
-178 -190 -466 0
-179 -191 -467 0
-180 -192 -468 0
-181 -189 -469 0
-182 -190 -470 0
-183 -191 -471 0
-184 -192 -472 0
-185 -189 -473 0
-186 -190 -474 0
-187 -191 -475 0
-188 -192 -476 0
-189 -477 0
-190 -478 0
-191 -479 0
-192 -480 0
-189 -193 -481 0
-190 -194 -482 0
-191 -195 -483 0
-192 -196 -484 0
-189 -197 -485 0
-190 -198 -486 0
-191 -199 -487 0
-192 -200 -488 0
-189 -201 -489 0
-190 -202 -490 0
-191 -203 -491 0
-192 -204 -492 0
-189 -205 -493 0
-190 -206 -494 0
-191 -207 -495 0
-192 -208 -496 0
-189 -209 -497 0
-190 -210 -498 0
-191 -211 -499 0
-192 -212 -500 0
-189 -213 -501 0
-190 -214 -502 0
-191 -215 -503 0
-192 -216 -504 0
-189 -217 -505 0
-190 -218 -506 0
-191 -219 -507 0
-192 -220 -508 0
-189 -221 -509 0
-190 -222 -510 0
-191 -223 -511 0
-192 -224 -512 0
-189 -225 -513 0
-190 -226 -514 0
-191 -227 -515 0
-192 -228 -516 0
-189 -229 -517 0
-190 -230 -518 0
-191 -231 -519 0
-192 -232 -520 0
-189 -233 -521 0
-190 -234 -522 0
-191 -235 -523 0
-192 -236 -524 0
-189 -237 -525 0
-190 -238 -526 0
-191 -239 -527 0
-192 -240 -528 0
-189 -241 -529 0
-190 -242 -530 0
-191 -243 -531 0
-192 -244 -532 0
-189 -245 -533 0
-190 -246 -534 0
-191 -247 -535 0
-192 -248 -536 0
-189 -249 -537 0
-190 -250 -538 0
-191 -251 -539 0
-192 -252 -540 0
-189 -253 -541 0
-190 -254 -542 0
-191 -255 -543 0
-192 -256 -544 0
-189 -257 -545 0
-190 -258 -546 0
-191 -259 -547 0
-192 -260 -548 0
-189 -261 -549 0
-190 -262 -550 0
-191 -263 -551 0
-192 -264 -552 0
-189 -265 -553 0
-190 -266 -554 0
-191 -267 -555 0
-192 -268 -556 0
-189 -269 -557 0
-190 -270 -558 0
-191 -271 -559 0
-192 -272 -560 0
-189 -273 -561 0
-190 -274 -562 0
-191 -275 -563 0
-192 -276 -564 0
-189 -277 -565 0
-190 -278 -566 0
-191 -279 -567 0
-192 -280 -568 0
-189 -281 -569 0
-190 -282 -570 0
-191 -283 -571 0
-192 -284 -572 0
-189 -285 -573 0
-190 -286 -574 0
-191 -287 -575 0
-192 -288 -576 0
-189 -289 -577 0
-190 -290 -578 0
-191 -291 -579 0
-192 -292 -580 0
-189 -293 -581 0
-190 -294 -582 0
-191 -295 -583 0
-192 -296 -584 0
-189 -297 -585 0
-190 -298 -586 0
-191 -299 -587 0
-192 -300 -588 0
-189 -301 -589 0
-190 -302 -590 0
-191 -303 -591 0
-192 -304 -592 0
-189 -305 -593 0
-190 -306 -594 0
-191 -307 -595 0
-192 -308 -596 0
-189 -309 -597 0
-190 -310 -598 0
-191 -311 -599 0
-192 -312 -600 0
-189 -313 -601 0
-190 -314 -602 0
-191 -315 -603 0
-192 -316 -604 0
-189 -317 -605 0
-190 -318 -606 0
-191 -319 -607 0
-192 -320 -608 0
-189 -321 -609 0
-190 -322 -610 0
-191 -323 -611 0
-192 -324 -612 0
-189 -325 -613 0
-190 -326 -614 0
-191 -327 -615 0
-192 -328 -616 0
-189 -329 -617 0
-190 -330 -618 0
-191 -331 -619 0
-192 -332 -620 0
-189 -333 -621 0
-190 -334 -622 0
-191 -335 -623 0
-192 -336 -624 0
-189 -337 -625 0
-190 -338 -626 0
-191 -339 -627 0
-192 -340 -628 0
-189 -341 -629 0
-190 -342 -630 0
-191 -343 -631 0
-192 -344 -632 0
-189 -345 -633 0
-190 -346 -634 0
-191 -347 -635 0
-192 -348 -636 0
-189 -349 -637 0
-190 -350 -638 0
-191 -351 -639 0
-192 -352 -640 0
-189 -353 -641 0
-190 -354 -642 0
-191 -355 -643 0
-192 -356 -644 0
-189 -357 -645 0
-190 -358 -646 0
-191 -359 -647 0
-192 -360 -648 0
-189 -361 -649 0
-190 -362 -650 0
-191 -363 -651 0
-192 -364 -652 0
-189 -365 -653 0
-190 -366 -654 0
-191 -367 -655 0
-192 -368 -656 0
-189 -369 -657 0
-190 -370 -658 0
-191 -371 -659 0
-192 -372 -660 0
-189 -373 -661 0
-190 -374 -662 0
-191 -375 -663 0
-192 -376 -664 0
-189 -377 -665 0
-190 -378 -666 0
-191 -379 -667 0
-192 -380 -668 0
-189 -381 -669 0
-190 -382 -670 0
-191 -383 -671 0
-192 -384 -672 0
-189 -385 -673 0
-190 -386 -674 0
-191 -387 -675 0
-192 -388 -676 0
-189 -389 -677 0
-190 -390 -678 0
-191 -391 -679 0
-192 -392 -680 0
-189 -393 -681 0
-190 -394 -682 0
-191 -395 -683 0
-192 -396 -684 0
-189 -397 -685 0
-190 -398 -686 0
-191 -399 -687 0
-192 -400 -688 0
-189 -401 -689 0
-190 -402 -690 0
-191 -403 -691 0
-192 -404 -692 0
-189 -405 -693 0
-190 -406 -694 0
-191 -407 -695 0
-192 -408 -696 0
-189 -409 -697 0
-190 -410 -698 0
-191 -411 -699 0
-192 -412 -700 0
-189 -413 -701 0
-190 -414 -702 0
-191 -415 -703 0
-192 -416 -704 0
-189 -417 -705 0
-190 -418 -706 0
-191 -419 -707 0
-192 -420 -708 0
-189 -421 -709 0
-190 -422 -710 0
-191 -423 -711 0
-192 -424 -712 0
-189 -425 -713 0
-190 -426 -714 0
-191 -427 -715 0
-192 -428 -716 0
-189 -429 -717 0
-190 -430 -718 0
-191 -431 -719 0
-192 -432 -720 0
-189 -433 -721 0
-190 -434 -722 0
-191 -435 -723 0
-192 -436 -724 0
-189 -437 -725 0
-190 -438 -726 0
-191 -439 -727 0
-192 -440 -728 0
-189 -441 -729 0
-190 -442 -730 0
-191 -443 -731 0
-192 -444 -732 0
-189 -445 -733 0
-190 -446 -734 0
-191 -447 -735 0
-192 -448 -736 0
-189 -449 -737 0
-190 -450 -738 0
-191 -451 -739 0
-192 -452 -740 0
-189 -453 -741 0
-190 -454 -742 0
-191 -455 -743 0
-192 -456 -744 0
-189 -457 -745 0
-190 -458 -746 0
-191 -459 -747 0
-192 -460 -748 0
-189 -461 -749 0
-190 -462 -750 0
-191 -463 -751 0
-192 -464 -752 0
-189 -465 -753 0
-190 -466 -754 0
-191 -467 -755 0
-192 -468 -756 0
-189 -469 -757 0
-190 -470 -758 0
-191 -471 -759 0
-192 -472 -760 0
-189 -473 -761 0
-190 -474 -762 0
-191 -475 -763 0
-192 -476 -764 0
-189 -477 -765 0
-190 -478 -766 0
-191 -479 -767 0
-192 -480 -768 0
-189 -481 -769 0
-190 -482 -770 0
-191 -483 -771 0
-192 -484 -772 0
-189 -485 -773 0
-190 -486 -774 0
-191 -487 -775 0
-192 -488 -776 0
-189 -489 -777 0
-190 -490 -778 0
-191 -491 -779 0
-192 -492 -780 0
-189 -493 -781 0
-190 -494 -782 0
-191 -495 -783 0
-192 -496 -784 0
-189 -497 -785 0
-190 -498 -786 0
-191 -499 -787 0
-192 -500 -788 0
-189 -501 -789 0
-190 -502 -790 0
-191 -503 -791 0
-192 -504 -792 0
-189 -505 -793 0
-190 -506 -794 0
-191 -507 -795 0
-192 -508 -796 0
-189 -509 -797 0
-190 -510 -798 0
-191 -511 -799 0
-192 -512 -800 0
-189 -513 -801 0
-190 -514 -802 0
-191 -515 -803 0
-192 -516 -804 0
-189 -517 -805 0
-190 -518 -806 0
-191 -519 -807 0
-192 -520 -808 0
-189 -521 -809 0
-190 -522 -810 0
-191 -523 -811 0
-192 -524 -812 0
-189 -525 -813 0
-190 -526 -814 0
-191 -527 -815 0
-192 -528 -816 0
-189 -529 -817 0
-190 -530 -818 0
-191 -531 -819 0
-192 -532 -820 0
-189 -533 -821 0
-190 -534 -822 0
-191 -535 -823 0
-192 -536 -824 0
-189 -537 -825 0
-190 -538 -826 0
-191 -539 -827 0
-192 -540 -828 0
-189 -541 -829 0
-190 -542 -830 0
-191 -543 -831 0
-192 -544 -832 0
-189 -545 -833 0
-190 -546 -834 0
-191 -547 -835 0
-192 -548 -836 0
-189 -549 -837 0
-190 -550 -838 0
-191 -551 -839 0
-192 -552 -840 0
-189 -553 -841 0
-190 -554 -842 0
-191 -555 -843 0
-192 -556 -844 0
-189 -557 -845 0
-190 -558 -846 0
-191 -559 -847 0
-192 -560 -848 0
-189 -561 -849 0
-190 -562 -850 0
-191 -563 -851 0
-192 -564 -852 0
-189 -565 -853 0
-190 -566 -854 0
-191 -567 -855 0
-192 -568 -856 0
-189 -569 -857 0
-190 -570 -858 0
-191 -571 -859 0
-192 -572 -860 0
-189 -573 -861 0
-190 -574 -862 0
-191 -575 -863 0
-192 -576 -864 0
-189 -577 -865 0
-190 -578 -866 0
-191 -579 -867 0
-192 -580 -868 0
-189 -581 -869 0
-190 -582 -870 0
-191 -583 -871 0
-192 -584 -872 0
-189 -585 -873 0
-190 -586 -874 0
-191 -587 -875 0
-192 -588 -876 0
-189 -589 -877 0
-190 -590 -878 0
-191 -591 -879 0
-192 -592 -880 0
-189 -593 -881 0
-190 -594 -882 0
-191 -595 -883 0
-192 -596 -884 0
-189 -597 -885 0
-190 -598 -886 0
-191 -599 -887 0
-192 -600 -888 0
-189 -601 -889 0
-190 -602 -890 0
-191 -603 -891 0
-192 -604 -892 0
-189 -605 -893 0
-190 -606 -894 0
-191 -607 -895 0
-192 -608 -896 0
-189 -609 -897 0
-190 -610 -898 0
-191 -611 -899 0
-192 -612 -900 0
-189 -613 -901 0
-190 -614 -902 0
-191 -615 -903 0
-192 -616 -904 0
-1 -197 -301 0
-2 -198 -302 0
-3 -199 -303 0
-4 -200 -304 0
-5 -197 -305 0
-6 -198 -306 0
-7 -199 -307 0
-8 -200 -308 0
-9 -197 -309 0
-10 -198 -310 0
-11 -199 -311 0
-12 -200 -312 0
-13 -197 -313 0
-14 -198 -314 0
-15 -199 -315 0
-16 -200 -316 0
-17 -197 -317 0
-18 -198 -318 0
-19 -199 -319 0
-20 -200 -320 0
-21 -197 -321 0
-22 -198 -322 0
-23 -199 -323 0
-24 -200 -324 0
-25 -197 -325 0
-26 -198 -326 0
-27 -199 -327 0
-28 -200 -328 0
-29 -197 -329 0
-30 -198 -330 0
-31 -199 -331 0
-32 -200 -332 0
-33 -197 -333 0
-34 -198 -334 0
-35 -199 -335 0
-36 -200 -336 0
-37 -197 -337 0
-38 -198 -338 0
-39 -199 -339 0
-40 -200 -340 0
-41 -197 -341 0
-42 -198 -342 0
-43 -199 -343 0
-44 -200 -344 0
-45 -197 -345 0
-46 -198 -346 0
-47 -199 -347 0
-48 -200 -348 0
-49 -197 -349 0
-50 -198 -350 0
-51 -199 -351 0
-52 -200 -352 0
-53 -197 -353 0
-54 -198 -354 0
-55 -199 -355 0
-56 -200 -356 0
-57 -197 -357 0
-58 -198 -358 0
-59 -199 -359 0
-60 -200 -360 0
-61 -197 -361 0
-62 -198 -362 0
-63 -199 -363 0
-64 -200 -364 0
-65 -197 -365 0
-66 -198 -366 0
-67 -199 -367 0
-68 -200 -368 0
-69 -197 -369 0
-70 -198 -370 0
-71 -199 -371 0
-72 -200 -372 0
-73 -197 -373 0
-74 -198 -374 0
-75 -199 -375 0
-76 -200 -376 0
-77 -197 -377 0
-78 -198 -378 0
-79 -199 -379 0
-80 -200 -380 0
-81 -197 -381 0
-82 -198 -382 0
-83 -199 -383 0
-84 -200 -384 0
-85 -197 -385 0
-86 -198 -386 0
-87 -199 -387 0
-88 -200 -388 0
-89 -197 -389 0
-90 -198 -390 0
-91 -199 -391 0
-92 -200 -392 0
-93 -197 -393 0
-94 -198 -394 0
-95 -199 -395 0
-96 -200 -396 0
-97 -197 -397 0
-98 -198 -398 0
-99 -199 -399 0
-100 -200 -400 0
-101 -197 -401 0
-102 -198 -402 0
-103 -199 -403 0
-104 -200 -404 0
-105 -197 -405 0
-106 -198 -406 0
-107 -199 -407 0
-108 -200 -408 0
-109 -197 -409 0
-110 -198 -410 0
-111 -199 -411 0
-112 -200 -412 0
-113 -197 -413 0
-114 -198 -414 0
-115 -199 -415 0
-116 -200 -416 0
-117 -197 -417 0
-118 -198 -418 0
-119 -199 -419 0
-120 -200 -420 0
-121 -197 -421 0
-122 -198 -422 0
-123 -199 -423 0
-124 -200 -424 0
-125 -197 -425 0
-126 -198 -426 0
-127 -199 -427 0
-128 -200 -428 0
-129 -197 -429 0
-130 -198 -430 0
-131 -199 -431 0
-132 -200 -432 0
-133 -197 -433 0
-134 -198 -434 0
-135 -199 -435 0
-136 -200 -436 0
-137 -197 -437 0
-138 -198 -438 0
-139 -199 -439 0
-140 -200 -440 0
-141 -197 -441 0
-142 -198 -442 0
-143 -199 -443 0
-144 -200 -444 0
-145 -197 -445 0
-146 -198 -446 0
-147 -199 -447 0
-148 -200 -448 0
-149 -197 -449 0
-150 -198 -450 0
-151 -199 -451 0
-152 -200 -452 0
-153 -197 -453 0
-154 -198 -454 0
-155 -199 -455 0
-156 -200 -456 0
-157 -197 -457 0
-158 -198 -458 0
-159 -199 -459 0
-160 -200 -460 0
-161 -197 -461 0
-162 -198 -462 0
-163 -199 -463 0
-164 -200 -464 0
-165 -197 -465 0
-166 -198 -466 0
-167 -199 -467 0
-168 -200 -468 0
-169 -197 -469 0
-170 -198 -470 0
-171 -199 -471 0
-172 -200 -472 0
-173 -197 -473 0
-174 -198 -474 0
-175 -199 -475 0
-176 -200 -476 0
-177 -197 -477 0
-178 -198 -478 0
-179 -199 -479 0
-180 -200 -480 0
-181 -197 -481 0
-182 -198 -482 0
-183 -199 -483 0
-184 -200 -484 0
-185 -197 -485 0
-186 -198 -486 0
-187 -199 -487 0
-188 -200 -488 0
-189 -197 -489 0
-190 -198 -490 0
-191 -199 -491 0
-192 -200 -492 0
-193 -197 -493 0
-194 -198 -494 0
-195 -199 -495 0
-196 -200 -496 0
-197 -497 0
-198 -498 0
-199 -499 0
-200 -500 0
-197 -201 -501 0
-198 -202 -502 0
-199 -203 -503 0
-200 -204 -504 0
-197 -205 -505 0
-198 -206 -506 0
-199 -207 -507 0
-200 -208 -508 0
-197 -209 -509 0
-198 -210 -510 0
-199 -211 -511 0
-200 -212 -512 0
-197 -213 -513 0
-198 -214 -514 0
-199 -215 -515 0
-200 -216 -516 0
-197 -217 -517 0
-198 -218 -518 0
-199 -219 -519 0
-200 -220 -520 0
-197 -221 -521 0
-198 -222 -522 0
-199 -223 -523 0
-200 -224 -524 0
-197 -225 -525 0
-198 -226 -526 0
-199 -227 -527 0
-200 -228 -528 0
-197 -229 -529 0
-198 -230 -530 0
-199 -231 -531 0
-200 -232 -532 0
-197 -233 -533 0
-198 -234 -534 0
-199 -235 -535 0
-200 -236 -536 0
-197 -237 -537 0
-198 -238 -538 0
-199 -239 -539 0
-200 -240 -540 0
-197 -241 -541 0
-198 -242 -542 0
-199 -243 -543 0
-200 -244 -544 0
-197 -245 -545 0
-198 -246 -546 0
-199 -247 -547 0
-200 -248 -548 0
-197 -249 -549 0
-198 -250 -550 0
-199 -251 -551 0
-200 -252 -552 0
-197 -253 -553 0
-198 -254 -554 0
-199 -255 -555 0
-200 -256 -556 0
-197 -257 -557 0
-198 -258 -558 0
-199 -259 -559 0
-200 -260 -560 0
-197 -261 -561 0
-198 -262 -562 0
-199 -263 -563 0
-200 -264 -564 0
-197 -265 -565 0
-198 -266 -566 0
-199 -267 -567 0
-200 -268 -568 0
-197 -269 -569 0
-198 -270 -570 0
-199 -271 -571 0
-200 -272 -572 0
-197 -273 -573 0
-198 -274 -574 0
-199 -275 -575 0
-200 -276 -576 0
-197 -277 -577 0
-198 -278 -578 0
-199 -279 -579 0
-200 -280 -580 0
-197 -281 -581 0
-198 -282 -582 0
-199 -283 -583 0
-200 -284 -584 0
-197 -285 -585 0
-198 -286 -586 0
-199 -287 -587 0
-200 -288 -588 0
-197 -289 -589 0
-198 -290 -590 0
-199 -291 -591 0
-200 -292 -592 0
-197 -293 -593 0
-198 -294 -594 0
-199 -295 -595 0
-200 -296 -596 0
-197 -297 -597 0
-198 -298 -598 0
-199 -299 -599 0
-200 -300 -600 0
-197 -301 -601 0
-198 -302 -602 0
-199 -303 -603 0
-200 -304 -604 0
-197 -305 -605 0
-198 -306 -606 0
-199 -307 -607 0
-200 -308 -608 0
-197 -309 -609 0
-198 -310 -610 0
-199 -311 -611 0
-200 -312 -612 0
-197 -313 -613 0
-198 -314 -614 0
-199 -315 -615 0
-200 -316 -616 0
-197 -317 -617 0
-198 -318 -618 0
-199 -319 -619 0
-200 -320 -620 0
-197 -321 -621 0
-198 -322 -622 0
-199 -323 -623 0
-200 -324 -624 0
-197 -325 -625 0
-198 -326 -626 0
-199 -327 -627 0
-200 -328 -628 0
-197 -329 -629 0
-198 -330 -630 0
-199 -331 -631 0
-200 -332 -632 0
-197 -333 -633 0
-198 -334 -634 0
-199 -335 -635 0
-200 -336 -636 0
-197 -337 -637 0
-198 -338 -638 0
-199 -339 -639 0
-200 -340 -640 0
-197 -341 -641 0
-198 -342 -642 0
-199 -343 -643 0
-200 -344 -644 0
-197 -345 -645 0
-198 -346 -646 0
-199 -347 -647 0
-200 -348 -648 0
-197 -349 -649 0
-198 -350 -650 0
-199 -351 -651 0
-200 -352 -652 0
-197 -353 -653 0
-198 -354 -654 0
-199 -355 -655 0
-200 -356 -656 0
-197 -357 -657 0
-198 -358 -658 0
-199 -359 -659 0
-200 -360 -660 0
-197 -361 -661 0
-198 -362 -662 0
-199 -363 -663 0
-200 -364 -664 0
-197 -365 -665 0
-198 -366 -666 0
-199 -367 -667 0
-200 -368 -668 0
-197 -369 -669 0
-198 -370 -670 0
-199 -371 -671 0
-200 -372 -672 0
-197 -373 -673 0
-198 -374 -674 0
-199 -375 -675 0
-200 -376 -676 0
-197 -377 -677 0
-198 -378 -678 0
-199 -379 -679 0
-200 -380 -680 0
-197 -381 -681 0
-198 -382 -682 0
-199 -383 -683 0
-200 -384 -684 0
-197 -385 -685 0
-198 -386 -686 0
-199 -387 -687 0
-200 -388 -688 0
-197 -389 -689 0
-198 -390 -690 0
-199 -391 -691 0
-200 -392 -692 0
-197 -393 -693 0
-198 -394 -694 0
-199 -395 -695 0
-200 -396 -696 0
-197 -397 -697 0
-198 -398 -698 0
-199 -399 -699 0
-200 -400 -700 0
-197 -401 -701 0
-198 -402 -702 0
-199 -403 -703 0
-200 -404 -704 0
-197 -405 -705 0
-198 -406 -706 0
-199 -407 -707 0
-200 -408 -708 0
-197 -409 -709 0
-198 -410 -710 0
-199 -411 -711 0
-200 -412 -712 0
-197 -413 -713 0
-198 -414 -714 0
-199 -415 -715 0
-200 -416 -716 0
-197 -417 -717 0
-198 -418 -718 0
-199 -419 -719 0
-200 -420 -720 0
-197 -421 -721 0
-198 -422 -722 0
-199 -423 -723 0
-200 -424 -724 0
-197 -425 -725 0
-198 -426 -726 0
-199 -427 -727 0
-200 -428 -728 0
-197 -429 -729 0
-198 -430 -730 0
-199 -431 -731 0
-200 -432 -732 0
-197 -433 -733 0
-198 -434 -734 0
-199 -435 -735 0
-200 -436 -736 0
-197 -437 -737 0
-198 -438 -738 0
-199 -439 -739 0
-200 -440 -740 0
-197 -441 -741 0
-198 -442 -742 0
-199 -443 -743 0
-200 -444 -744 0
-197 -445 -745 0
-198 -446 -746 0
-199 -447 -747 0
-200 -448 -748 0
-197 -449 -749 0
-198 -450 -750 0
-199 -451 -751 0
-200 -452 -752 0
-197 -453 -753 0
-198 -454 -754 0
-199 -455 -755 0
-200 -456 -756 0
-197 -457 -757 0
-198 -458 -758 0
-199 -459 -759 0
-200 -460 -760 0
-197 -461 -761 0
-198 -462 -762 0
-199 -463 -763 0
-200 -464 -764 0
-197 -465 -765 0
-198 -466 -766 0
-199 -467 -767 0
-200 -468 -768 0
-197 -469 -769 0
-198 -470 -770 0
-199 -471 -771 0
-200 -472 -772 0
-197 -473 -773 0
-198 -474 -774 0
-199 -475 -775 0
-200 -476 -776 0
-197 -477 -777 0
-198 -478 -778 0
-199 -479 -779 0
-200 -480 -780 0
-197 -481 -781 0
-198 -482 -782 0
-199 -483 -783 0
-200 -484 -784 0
-197 -485 -785 0
-198 -486 -786 0
-199 -487 -787 0
-200 -488 -788 0
-197 -489 -789 0
-198 -490 -790 0
-199 -491 -791 0
-200 -492 -792 0
-197 -493 -793 0
-198 -494 -794 0
-199 -495 -795 0
-200 -496 -796 0
-197 -497 -797 0
-198 -498 -798 0
-199 -499 -799 0
-200 -500 -800 0
-197 -501 -801 0
-198 -502 -802 0
-199 -503 -803 0
-200 -504 -804 0
-197 -505 -805 0
-198 -506 -806 0
-199 -507 -807 0
-200 -508 -808 0
-197 -509 -809 0
-198 -510 -810 0
-199 -511 -811 0
-200 -512 -812 0
-197 -513 -813 0
-198 -514 -814 0
-199 -515 -815 0
-200 -516 -816 0
-197 -517 -817 0
-198 -518 -818 0
-199 -519 -819 0
-200 -520 -820 0
-197 -521 -821 0
-198 -522 -822 0
-199 -523 -823 0
-200 -524 -824 0
-197 -525 -825 0
-198 -526 -826 0
-199 -527 -827 0
-200 -528 -828 0
-197 -529 -829 0
-198 -530 -830 0
-199 -531 -831 0
-200 -532 -832 0
-197 -533 -833 0
-198 -534 -834 0
-199 -535 -835 0
-200 -536 -836 0
-197 -537 -837 0
-198 -538 -838 0
-199 -539 -839 0
-200 -540 -840 0
-197 -541 -841 0
-198 -542 -842 0
-199 -543 -843 0
-200 -544 -844 0
-197 -545 -845 0
-198 -546 -846 0
-199 -547 -847 0
-200 -548 -848 0
-197 -549 -849 0
-198 -550 -850 0
-199 -551 -851 0
-200 -552 -852 0
-197 -553 -853 0
-198 -554 -854 0
-199 -555 -855 0
-200 -556 -856 0
-197 -557 -857 0
-198 -558 -858 0
-199 -559 -859 0
-200 -560 -860 0
-197 -561 -861 0
-198 -562 -862 0
-199 -563 -863 0
-200 -564 -864 0
-197 -565 -865 0
-198 -566 -866 0
-199 -567 -867 0
-200 -568 -868 0
-197 -569 -869 0
-198 -570 -870 0
-199 -571 -871 0
-200 -572 -872 0
-197 -573 -873 0
-198 -574 -874 0
-199 -575 -875 0
-200 -576 -876 0
-197 -577 -877 0
-198 -578 -878 0
-199 -579 -879 0
-200 -580 -880 0
-197 -581 -881 0
-198 -582 -882 0
-199 -583 -883 0
-200 -584 -884 0
-197 -585 -885 0
-198 -586 -886 0
-199 -587 -887 0
-200 -588 -888 0
-197 -589 -889 0
-198 -590 -890 0
-199 -591 -891 0
-200 -592 -892 0
-197 -593 -893 0
-198 -594 -894 0
-199 -595 -895 0
-200 -596 -896 0
-197 -597 -897 0
-198 -598 -898 0
-199 -599 -899 0
-200 -600 -900 0
-197 -601 -901 0
-198 -602 -902 0
-199 -603 -903 0
-200 -604 -904 0
-1 -205 -313 0
-2 -206 -314 0
-3 -207 -315 0
-4 -208 -316 0
-5 -205 -317 0
-6 -206 -318 0
-7 -207 -319 0
-8 -208 -320 0
-9 -205 -321 0
-10 -206 -322 0
-11 -207 -323 0
-12 -208 -324 0
-13 -205 -325 0
-14 -206 -326 0
-15 -207 -327 0
-16 -208 -328 0
-17 -205 -329 0
-18 -206 -330 0
-19 -207 -331 0
-20 -208 -332 0
-21 -205 -333 0
-22 -206 -334 0
-23 -207 -335 0
-24 -208 -336 0
-25 -205 -337 0
-26 -206 -338 0
-27 -207 -339 0
-28 -208 -340 0
-29 -205 -341 0
-30 -206 -342 0
-31 -207 -343 0
-32 -208 -344 0
-33 -205 -345 0
-34 -206 -346 0
-35 -207 -347 0
-36 -208 -348 0
-37 -205 -349 0
-38 -206 -350 0
-39 -207 -351 0
-40 -208 -352 0
-41 -205 -353 0
-42 -206 -354 0
-43 -207 -355 0
-44 -208 -356 0
-45 -205 -357 0
-46 -206 -358 0
-47 -207 -359 0
-48 -208 -360 0
-49 -205 -361 0
-50 -206 -362 0
-51 -207 -363 0
-52 -208 -364 0
-53 -205 -365 0
-54 -206 -366 0
-55 -207 -367 0
-56 -208 -368 0
-57 -205 -369 0
-58 -206 -370 0
-59 -207 -371 0
-60 -208 -372 0
-61 -205 -373 0
-62 -206 -374 0
-63 -207 -375 0
-64 -208 -376 0
-65 -205 -377 0
-66 -206 -378 0
-67 -207 -379 0
-68 -208 -380 0
-69 -205 -381 0
-70 -206 -382 0
-71 -207 -383 0
-72 -208 -384 0
-73 -205 -385 0
-74 -206 -386 0
-75 -207 -387 0
-76 -208 -388 0
-77 -205 -389 0
-78 -206 -390 0
-79 -207 -391 0
-80 -208 -392 0
-81 -205 -393 0
-82 -206 -394 0
-83 -207 -395 0
-84 -208 -396 0
-85 -205 -397 0
-86 -206 -398 0
-87 -207 -399 0
-88 -208 -400 0
-89 -205 -401 0
-90 -206 -402 0
-91 -207 -403 0
-92 -208 -404 0
-93 -205 -405 0
-94 -206 -406 0
-95 -207 -407 0
-96 -208 -408 0
-97 -205 -409 0
-98 -206 -410 0
-99 -207 -411 0
-100 -208 -412 0
-101 -205 -413 0
-102 -206 -414 0
-103 -207 -415 0
-104 -208 -416 0
-105 -205 -417 0
-106 -206 -418 0
-107 -207 -419 0
-108 -208 -420 0
-109 -205 -421 0
-110 -206 -422 0
-111 -207 -423 0
-112 -208 -424 0
-113 -205 -425 0
-114 -206 -426 0
-115 -207 -427 0
-116 -208 -428 0
-117 -205 -429 0
-118 -206 -430 0
-119 -207 -431 0
-120 -208 -432 0
-121 -205 -433 0
-122 -206 -434 0
-123 -207 -435 0
-124 -208 -436 0
-125 -205 -437 0
-126 -206 -438 0
-127 -207 -439 0
-128 -208 -440 0
-129 -205 -441 0
-130 -206 -442 0
-131 -207 -443 0
-132 -208 -444 0
-133 -205 -445 0
-134 -206 -446 0
-135 -207 -447 0
-136 -208 -448 0
-137 -205 -449 0
-138 -206 -450 0
-139 -207 -451 0
-140 -208 -452 0
-141 -205 -453 0
-142 -206 -454 0
-143 -207 -455 0
-144 -208 -456 0
-145 -205 -457 0
-146 -206 -458 0
-147 -207 -459 0
-148 -208 -460 0
-149 -205 -461 0
-150 -206 -462 0
-151 -207 -463 0
-152 -208 -464 0
-153 -205 -465 0
-154 -206 -466 0
-155 -207 -467 0
-156 -208 -468 0
-157 -205 -469 0
-158 -206 -470 0
-159 -207 -471 0
-160 -208 -472 0
-161 -205 -473 0
-162 -206 -474 0
-163 -207 -475 0
-164 -208 -476 0
-165 -205 -477 0
-166 -206 -478 0
-167 -207 -479 0
-168 -208 -480 0
-169 -205 -481 0
-170 -206 -482 0
-171 -207 -483 0
-172 -208 -484 0
-173 -205 -485 0
-174 -206 -486 0
-175 -207 -487 0
-176 -208 -488 0
-177 -205 -489 0
-178 -206 -490 0
-179 -207 -491 0
-180 -208 -492 0
-181 -205 -493 0
-182 -206 -494 0
-183 -207 -495 0
-184 -208 -496 0
-185 -205 -497 0
-186 -206 -498 0
-187 -207 -499 0
-188 -208 -500 0
-189 -205 -501 0
-190 -206 -502 0
-191 -207 -503 0
-192 -208 -504 0
-193 -205 -505 0
-194 -206 -506 0
-195 -207 -507 0
-196 -208 -508 0
-197 -205 -509 0
-198 -206 -510 0
-199 -207 -511 0
-200 -208 -512 0
-201 -205 -513 0
-202 -206 -514 0
-203 -207 -515 0
-204 -208 -516 0
-205 -517 0
-206 -518 0
-207 -519 0
-208 -520 0
-205 -209 -521 0
-206 -210 -522 0
-207 -211 -523 0
-208 -212 -524 0
-205 -213 -525 0
-206 -214 -526 0
-207 -215 -527 0
-208 -216 -528 0
-205 -217 -529 0
-206 -218 -530 0
-207 -219 -531 0
-208 -220 -532 0
-205 -221 -533 0
-206 -222 -534 0
-207 -223 -535 0
-208 -224 -536 0
-205 -225 -537 0
-206 -226 -538 0
-207 -227 -539 0
-208 -228 -540 0
-205 -229 -541 0
-206 -230 -542 0
-207 -231 -543 0
-208 -232 -544 0
-205 -233 -545 0
-206 -234 -546 0
-207 -235 -547 0
-208 -236 -548 0
-205 -237 -549 0
-206 -238 -550 0
-207 -239 -551 0
-208 -240 -552 0
-205 -241 -553 0
-206 -242 -554 0
-207 -243 -555 0
-208 -244 -556 0
-205 -245 -557 0
-206 -246 -558 0
-207 -247 -559 0
-208 -248 -560 0
-205 -249 -561 0
-206 -250 -562 0
-207 -251 -563 0
-208 -252 -564 0
-205 -253 -565 0
-206 -254 -566 0
-207 -255 -567 0
-208 -256 -568 0
-205 -257 -569 0
-206 -258 -570 0
-207 -259 -571 0
-208 -260 -572 0
-205 -261 -573 0
-206 -262 -574 0
-207 -263 -575 0
-208 -264 -576 0
-205 -265 -577 0
-206 -266 -578 0
-207 -267 -579 0
-208 -268 -580 0
-205 -269 -581 0
-206 -270 -582 0
-207 -271 -583 0
-208 -272 -584 0
-205 -273 -585 0
-206 -274 -586 0
-207 -275 -587 0
-208 -276 -588 0
-205 -277 -589 0
-206 -278 -590 0
-207 -279 -591 0
-208 -280 -592 0
-205 -281 -593 0
-206 -282 -594 0
-207 -283 -595 0
-208 -284 -596 0
-205 -285 -597 0
-206 -286 -598 0
-207 -287 -599 0
-208 -288 -600 0
-205 -289 -601 0
-206 -290 -602 0
-207 -291 -603 0
-208 -292 -604 0
-205 -293 -605 0
-206 -294 -606 0
-207 -295 -607 0
-208 -296 -608 0
-205 -297 -609 0
-206 -298 -610 0
-207 -299 -611 0
-208 -300 -612 0
-205 -301 -613 0
-206 -302 -614 0
-207 -303 -615 0
-208 -304 -616 0
-205 -305 -617 0
-206 -306 -618 0
-207 -307 -619 0
-208 -308 -620 0
-205 -309 -621 0
-206 -310 -622 0
-207 -311 -623 0
-208 -312 -624 0
-205 -313 -625 0
-206 -314 -626 0
-207 -315 -627 0
-208 -316 -628 0
-205 -317 -629 0
-206 -318 -630 0
-207 -319 -631 0
-208 -320 -632 0
-205 -321 -633 0
-206 -322 -634 0
-207 -323 -635 0
-208 -324 -636 0
-205 -325 -637 0
-206 -326 -638 0
-207 -327 -639 0
-208 -328 -640 0
-205 -329 -641 0
-206 -330 -642 0
-207 -331 -643 0
-208 -332 -644 0
-205 -333 -645 0
-206 -334 -646 0
-207 -335 -647 0
-208 -336 -648 0
-205 -337 -649 0
-206 -338 -650 0
-207 -339 -651 0
-208 -340 -652 0
-205 -341 -653 0
-206 -342 -654 0
-207 -343 -655 0
-208 -344 -656 0
-205 -345 -657 0
-206 -346 -658 0
-207 -347 -659 0
-208 -348 -660 0
-205 -349 -661 0
-206 -350 -662 0
-207 -351 -663 0
-208 -352 -664 0
-205 -353 -665 0
-206 -354 -666 0
-207 -355 -667 0
-208 -356 -668 0
-205 -357 -669 0
-206 -358 -670 0
-207 -359 -671 0
-208 -360 -672 0
-205 -361 -673 0
-206 -362 -674 0
-207 -363 -675 0
-208 -364 -676 0
-205 -365 -677 0
-206 -366 -678 0
-207 -367 -679 0
-208 -368 -680 0
-205 -369 -681 0
-206 -370 -682 0
-207 -371 -683 0
-208 -372 -684 0
-205 -373 -685 0
-206 -374 -686 0
-207 -375 -687 0
-208 -376 -688 0
-205 -377 -689 0
-206 -378 -690 0
-207 -379 -691 0
-208 -380 -692 0
-205 -381 -693 0
-206 -382 -694 0
-207 -383 -695 0
-208 -384 -696 0
-205 -385 -697 0
-206 -386 -698 0
-207 -387 -699 0
-208 -388 -700 0
-205 -389 -701 0
-206 -390 -702 0
-207 -391 -703 0
-208 -392 -704 0
-205 -393 -705 0
-206 -394 -706 0
-207 -395 -707 0
-208 -396 -708 0
-205 -397 -709 0
-206 -398 -710 0
-207 -399 -711 0
-208 -400 -712 0
-205 -401 -713 0
-206 -402 -714 0
-207 -403 -715 0
-208 -404 -716 0
-205 -405 -717 0
-206 -406 -718 0
-207 -407 -719 0
-208 -408 -720 0
-205 -409 -721 0
-206 -410 -722 0
-207 -411 -723 0
-208 -412 -724 0
-205 -413 -725 0
-206 -414 -726 0
-207 -415 -727 0
-208 -416 -728 0
-205 -417 -729 0
-206 -418 -730 0
-207 -419 -731 0
-208 -420 -732 0
-205 -421 -733 0
-206 -422 -734 0
-207 -423 -735 0
-208 -424 -736 0
-205 -425 -737 0
-206 -426 -738 0
-207 -427 -739 0
-208 -428 -740 0
-205 -429 -741 0
-206 -430 -742 0
-207 -431 -743 0
-208 -432 -744 0
-205 -433 -745 0
-206 -434 -746 0
-207 -435 -747 0
-208 -436 -748 0
-205 -437 -749 0
-206 -438 -750 0
-207 -439 -751 0
-208 -440 -752 0
-205 -441 -753 0
-206 -442 -754 0
-207 -443 -755 0
-208 -444 -756 0
-205 -445 -757 0
-206 -446 -758 0
-207 -447 -759 0
-208 -448 -760 0
-205 -449 -761 0
-206 -450 -762 0
-207 -451 -763 0
-208 -452 -764 0
-205 -453 -765 0
-206 -454 -766 0
-207 -455 -767 0
-208 -456 -768 0
-205 -457 -769 0
-206 -458 -770 0
-207 -459 -771 0
-208 -460 -772 0
-205 -461 -773 0
-206 -462 -774 0
-207 -463 -775 0
-208 -464 -776 0
-205 -465 -777 0
-206 -466 -778 0
-207 -467 -779 0
-208 -468 -780 0
-205 -469 -781 0
-206 -470 -782 0
-207 -471 -783 0
-208 -472 -784 0
-205 -473 -785 0
-206 -474 -786 0
-207 -475 -787 0
-208 -476 -788 0
-205 -477 -789 0
-206 -478 -790 0
-207 -479 -791 0
-208 -480 -792 0
-205 -481 -793 0
-206 -482 -794 0
-207 -483 -795 0
-208 -484 -796 0
-205 -485 -797 0
-206 -486 -798 0
-207 -487 -799 0
-208 -488 -800 0
-205 -489 -801 0
-206 -490 -802 0
-207 -491 -803 0
-208 -492 -804 0
-205 -493 -805 0
-206 -494 -806 0
-207 -495 -807 0
-208 -496 -808 0
-205 -497 -809 0
-206 -498 -810 0
-207 -499 -811 0
-208 -500 -812 0
-205 -501 -813 0
-206 -502 -814 0
-207 -503 -815 0
-208 -504 -816 0
-205 -505 -817 0
-206 -506 -818 0
-207 -507 -819 0
-208 -508 -820 0
-205 -509 -821 0
-206 -510 -822 0
-207 -511 -823 0
-208 -512 -824 0
-205 -513 -825 0
-206 -514 -826 0
-207 -515 -827 0
-208 -516 -828 0
-205 -517 -829 0
-206 -518 -830 0
-207 -519 -831 0
-208 -520 -832 0
-205 -521 -833 0
-206 -522 -834 0
-207 -523 -835 0
-208 -524 -836 0
-205 -525 -837 0
-206 -526 -838 0
-207 -527 -839 0
-208 -528 -840 0
-205 -529 -841 0
-206 -530 -842 0
-207 -531 -843 0
-208 -532 -844 0
-205 -533 -845 0
-206 -534 -846 0
-207 -535 -847 0
-208 -536 -848 0
-205 -537 -849 0
-206 -538 -850 0
-207 -539 -851 0
-208 -540 -852 0
-205 -541 -853 0
-206 -542 -854 0
-207 -543 -855 0
-208 -544 -856 0
-205 -545 -857 0
-206 -546 -858 0
-207 -547 -859 0
-208 -548 -860 0
-205 -549 -861 0
-206 -550 -862 0
-207 -551 -863 0
-208 -552 -864 0
-205 -553 -865 0
-206 -554 -866 0
-207 -555 -867 0
-208 -556 -868 0
-205 -557 -869 0
-206 -558 -870 0
-207 -559 -871 0
-208 -560 -872 0
-205 -561 -873 0
-206 -562 -874 0
-207 -563 -875 0
-208 -564 -876 0
-205 -565 -877 0
-206 -566 -878 0
-207 -567 -879 0
-208 -568 -880 0
-205 -569 -881 0
-206 -570 -882 0
-207 -571 -883 0
-208 -572 -884 0
-205 -573 -885 0
-206 -574 -886 0
-207 -575 -887 0
-208 -576 -888 0
-205 -577 -889 0
-206 -578 -890 0
-207 -579 -891 0
-208 -580 -892 0
-205 -581 -893 0
-206 -582 -894 0
-207 -583 -895 0
-208 -584 -896 0
-205 -585 -897 0
-206 -586 -898 0
-207 -587 -899 0
-208 -588 -900 0
-205 -589 -901 0
-206 -590 -902 0
-207 -591 -903 0
-208 -592 -904 0
-1 -213 -325 0
-2 -214 -326 0
-3 -215 -327 0
-4 -216 -328 0
-5 -213 -329 0
-6 -214 -330 0
-7 -215 -331 0
-8 -216 -332 0
-9 -213 -333 0
-10 -214 -334 0
-11 -215 -335 0
-12 -216 -336 0
-13 -213 -337 0
-14 -214 -338 0
-15 -215 -339 0
-16 -216 -340 0
-17 -213 -341 0
-18 -214 -342 0
-19 -215 -343 0
-20 -216 -344 0
-21 -213 -345 0
-22 -214 -346 0
-23 -215 -347 0
-24 -216 -348 0
-25 -213 -349 0
-26 -214 -350 0
-27 -215 -351 0
-28 -216 -352 0
-29 -213 -353 0
-30 -214 -354 0
-31 -215 -355 0
-32 -216 -356 0
-33 -213 -357 0
-34 -214 -358 0
-35 -215 -359 0
-36 -216 -360 0
-37 -213 -361 0
-38 -214 -362 0
-39 -215 -363 0
-40 -216 -364 0
-41 -213 -365 0
-42 -214 -366 0
-43 -215 -367 0
-44 -216 -368 0
-45 -213 -369 0
-46 -214 -370 0
-47 -215 -371 0
-48 -216 -372 0
-49 -213 -373 0
-50 -214 -374 0
-51 -215 -375 0
-52 -216 -376 0
-53 -213 -377 0
-54 -214 -378 0
-55 -215 -379 0
-56 -216 -380 0
-57 -213 -381 0
-58 -214 -382 0
-59 -215 -383 0
-60 -216 -384 0
-61 -213 -385 0
-62 -214 -386 0
-63 -215 -387 0
-64 -216 -388 0
-65 -213 -389 0
-66 -214 -390 0
-67 -215 -391 0
-68 -216 -392 0
-69 -213 -393 0
-70 -214 -394 0
-71 -215 -395 0
-72 -216 -396 0
-73 -213 -397 0
-74 -214 -398 0
-75 -215 -399 0
-76 -216 -400 0
-77 -213 -401 0
-78 -214 -402 0
-79 -215 -403 0
-80 -216 -404 0
-81 -213 -405 0
-82 -214 -406 0
-83 -215 -407 0
-84 -216 -408 0
-85 -213 -409 0
-86 -214 -410 0
-87 -215 -411 0
-88 -216 -412 0
-89 -213 -413 0
-90 -214 -414 0
-91 -215 -415 0
-92 -216 -416 0
-93 -213 -417 0
-94 -214 -418 0
-95 -215 -419 0
-96 -216 -420 0
-97 -213 -421 0
-98 -214 -422 0
-99 -215 -423 0
-100 -216 -424 0
-101 -213 -425 0
-102 -214 -426 0
-103 -215 -427 0
-104 -216 -428 0
-105 -213 -429 0
-106 -214 -430 0
-107 -215 -431 0
-108 -216 -432 0
-109 -213 -433 0
-110 -214 -434 0
-111 -215 -435 0
-112 -216 -436 0
-113 -213 -437 0
-114 -214 -438 0
-115 -215 -439 0
-116 -216 -440 0
-117 -213 -441 0
-118 -214 -442 0
-119 -215 -443 0
-120 -216 -444 0
-121 -213 -445 0
-122 -214 -446 0
-123 -215 -447 0
-124 -216 -448 0
-125 -213 -449 0
-126 -214 -450 0
-127 -215 -451 0
-128 -216 -452 0
-129 -213 -453 0
-130 -214 -454 0
-131 -215 -455 0
-132 -216 -456 0
-133 -213 -457 0
-134 -214 -458 0
-135 -215 -459 0
-136 -216 -460 0
-137 -213 -461 0
-138 -214 -462 0
-139 -215 -463 0
-140 -216 -464 0
-141 -213 -465 0
-142 -214 -466 0
-143 -215 -467 0
-144 -216 -468 0
-145 -213 -469 0
-146 -214 -470 0
-147 -215 -471 0
-148 -216 -472 0
-149 -213 -473 0
-150 -214 -474 0
-151 -215 -475 0
-152 -216 -476 0
-153 -213 -477 0
-154 -214 -478 0
-155 -215 -479 0
-156 -216 -480 0
-157 -213 -481 0
-158 -214 -482 0
-159 -215 -483 0
-160 -216 -484 0
-161 -213 -485 0
-162 -214 -486 0
-163 -215 -487 0
-164 -216 -488 0
-165 -213 -489 0
-166 -214 -490 0
-167 -215 -491 0
-168 -216 -492 0
-169 -213 -493 0
-170 -214 -494 0
-171 -215 -495 0
-172 -216 -496 0
-173 -213 -497 0
-174 -214 -498 0
-175 -215 -499 0
-176 -216 -500 0
-177 -213 -501 0
-178 -214 -502 0
-179 -215 -503 0
-180 -216 -504 0
-181 -213 -505 0
-182 -214 -506 0
-183 -215 -507 0
-184 -216 -508 0
-185 -213 -509 0
-186 -214 -510 0
-187 -215 -511 0
-188 -216 -512 0
-189 -213 -513 0
-190 -214 -514 0
-191 -215 -515 0
-192 -216 -516 0
-193 -213 -517 0
-194 -214 -518 0
-195 -215 -519 0
-196 -216 -520 0
-197 -213 -521 0
-198 -214 -522 0
-199 -215 -523 0
-200 -216 -524 0
-201 -213 -525 0
-202 -214 -526 0
-203 -215 -527 0
-204 -216 -528 0
-205 -213 -529 0
-206 -214 -530 0
-207 -215 -531 0
-208 -216 -532 0
-209 -213 -533 0
-210 -214 -534 0
-211 -215 -535 0
-212 -216 -536 0
-213 -537 0
-214 -538 0
-215 -539 0
-216 -540 0
-213 -217 -541 0
-214 -218 -542 0
-215 -219 -543 0
-216 -220 -544 0
-213 -221 -545 0
-214 -222 -546 0
-215 -223 -547 0
-216 -224 -548 0
-213 -225 -549 0
-214 -226 -550 0
-215 -227 -551 0
-216 -228 -552 0
-213 -229 -553 0
-214 -230 -554 0
-215 -231 -555 0
-216 -232 -556 0
-213 -233 -557 0
-214 -234 -558 0
-215 -235 -559 0
-216 -236 -560 0
-213 -237 -561 0
-214 -238 -562 0
-215 -239 -563 0
-216 -240 -564 0
-213 -241 -565 0
-214 -242 -566 0
-215 -243 -567 0
-216 -244 -568 0
-213 -245 -569 0
-214 -246 -570 0
-215 -247 -571 0
-216 -248 -572 0
-213 -249 -573 0
-214 -250 -574 0
-215 -251 -575 0
-216 -252 -576 0
-213 -253 -577 0
-214 -254 -578 0
-215 -255 -579 0
-216 -256 -580 0
-213 -257 -581 0
-214 -258 -582 0
-215 -259 -583 0
-216 -260 -584 0
-213 -261 -585 0
-214 -262 -586 0
-215 -263 -587 0
-216 -264 -588 0
-213 -265 -589 0
-214 -266 -590 0
-215 -267 -591 0
-216 -268 -592 0
-213 -269 -593 0
-214 -270 -594 0
-215 -271 -595 0
-216 -272 -596 0
-213 -273 -597 0
-214 -274 -598 0
-215 -275 -599 0
-216 -276 -600 0
-213 -277 -601 0
-214 -278 -602 0
-215 -279 -603 0
-216 -280 -604 0
-213 -281 -605 0
-214 -282 -606 0
-215 -283 -607 0
-216 -284 -608 0
-213 -285 -609 0
-214 -286 -610 0
-215 -287 -611 0
-216 -288 -612 0
-213 -289 -613 0
-214 -290 -614 0
-215 -291 -615 0
-216 -292 -616 0
-213 -293 -617 0
-214 -294 -618 0
-215 -295 -619 0
-216 -296 -620 0
-213 -297 -621 0
-214 -298 -622 0
-215 -299 -623 0
-216 -300 -624 0
-213 -301 -625 0
-214 -302 -626 0
-215 -303 -627 0
-216 -304 -628 0
-213 -305 -629 0
-214 -306 -630 0
-215 -307 -631 0
-216 -308 -632 0
-213 -309 -633 0
-214 -310 -634 0
-215 -311 -635 0
-216 -312 -636 0
-213 -313 -637 0
-214 -314 -638 0
-215 -315 -639 0
-216 -316 -640 0
-213 -317 -641 0
-214 -318 -642 0
-215 -319 -643 0
-216 -320 -644 0
-213 -321 -645 0
-214 -322 -646 0
-215 -323 -647 0
-216 -324 -648 0
-213 -325 -649 0
-214 -326 -650 0
-215 -327 -651 0
-216 -328 -652 0
-213 -329 -653 0
-214 -330 -654 0
-215 -331 -655 0
-216 -332 -656 0
-213 -333 -657 0
-214 -334 -658 0
-215 -335 -659 0
-216 -336 -660 0
-213 -337 -661 0
-214 -338 -662 0
-215 -339 -663 0
-216 -340 -664 0
-213 -341 -665 0
-214 -342 -666 0
-215 -343 -667 0
-216 -344 -668 0
-213 -345 -669 0
-214 -346 -670 0
-215 -347 -671 0
-216 -348 -672 0
-213 -349 -673 0
-214 -350 -674 0
-215 -351 -675 0
-216 -352 -676 0
-213 -353 -677 0
-214 -354 -678 0
-215 -355 -679 0
-216 -356 -680 0
-213 -357 -681 0
-214 -358 -682 0
-215 -359 -683 0
-216 -360 -684 0
-213 -361 -685 0
-214 -362 -686 0
-215 -363 -687 0
-216 -364 -688 0
-213 -365 -689 0
-214 -366 -690 0
-215 -367 -691 0
-216 -368 -692 0
-213 -369 -693 0
-214 -370 -694 0
-215 -371 -695 0
-216 -372 -696 0
-213 -373 -697 0
-214 -374 -698 0
-215 -375 -699 0
-216 -376 -700 0
-213 -377 -701 0
-214 -378 -702 0
-215 -379 -703 0
-216 -380 -704 0
-213 -381 -705 0
-214 -382 -706 0
-215 -383 -707 0
-216 -384 -708 0
-213 -385 -709 0
-214 -386 -710 0
-215 -387 -711 0
-216 -388 -712 0
-213 -389 -713 0
-214 -390 -714 0
-215 -391 -715 0
-216 -392 -716 0
-213 -393 -717 0
-214 -394 -718 0
-215 -395 -719 0
-216 -396 -720 0
-213 -397 -721 0
-214 -398 -722 0
-215 -399 -723 0
-216 -400 -724 0
-213 -401 -725 0
-214 -402 -726 0
-215 -403 -727 0
-216 -404 -728 0
-213 -405 -729 0
-214 -406 -730 0
-215 -407 -731 0
-216 -408 -732 0
-213 -409 -733 0
-214 -410 -734 0
-215 -411 -735 0
-216 -412 -736 0
-213 -413 -737 0
-214 -414 -738 0
-215 -415 -739 0
-216 -416 -740 0
-213 -417 -741 0
-214 -418 -742 0
-215 -419 -743 0
-216 -420 -744 0
-213 -421 -745 0
-214 -422 -746 0
-215 -423 -747 0
-216 -424 -748 0
-213 -425 -749 0
-214 -426 -750 0
-215 -427 -751 0
-216 -428 -752 0
-213 -429 -753 0
-214 -430 -754 0
-215 -431 -755 0
-216 -432 -756 0
-213 -433 -757 0
-214 -434 -758 0
-215 -435 -759 0
-216 -436 -760 0
-213 -437 -761 0
-214 -438 -762 0
-215 -439 -763 0
-216 -440 -764 0
-213 -441 -765 0
-214 -442 -766 0
-215 -443 -767 0
-216 -444 -768 0
-213 -445 -769 0
-214 -446 -770 0
-215 -447 -771 0
-216 -448 -772 0
-213 -449 -773 0
-214 -450 -774 0
-215 -451 -775 0
-216 -452 -776 0
-213 -453 -777 0
-214 -454 -778 0
-215 -455 -779 0
-216 -456 -780 0
-213 -457 -781 0
-214 -458 -782 0
-215 -459 -783 0
-216 -460 -784 0
-213 -461 -785 0
-214 -462 -786 0
-215 -463 -787 0
-216 -464 -788 0
-213 -465 -789 0
-214 -466 -790 0
-215 -467 -791 0
-216 -468 -792 0
-213 -469 -793 0
-214 -470 -794 0
-215 -471 -795 0
-216 -472 -796 0
-213 -473 -797 0
-214 -474 -798 0
-215 -475 -799 0
-216 -476 -800 0
-213 -477 -801 0
-214 -478 -802 0
-215 -479 -803 0
-216 -480 -804 0
-213 -481 -805 0
-214 -482 -806 0
-215 -483 -807 0
-216 -484 -808 0
-213 -485 -809 0
-214 -486 -810 0
-215 -487 -811 0
-216 -488 -812 0
-213 -489 -813 0
-214 -490 -814 0
-215 -491 -815 0
-216 -492 -816 0
-213 -493 -817 0
-214 -494 -818 0
-215 -495 -819 0
-216 -496 -820 0
-213 -497 -821 0
-214 -498 -822 0
-215 -499 -823 0
-216 -500 -824 0
-213 -501 -825 0
-214 -502 -826 0
-215 -503 -827 0
-216 -504 -828 0
-213 -505 -829 0
-214 -506 -830 0
-215 -507 -831 0
-216 -508 -832 0
-213 -509 -833 0
-214 -510 -834 0
-215 -511 -835 0
-216 -512 -836 0
-213 -513 -837 0
-214 -514 -838 0
-215 -515 -839 0
-216 -516 -840 0
-213 -517 -841 0
-214 -518 -842 0
-215 -519 -843 0
-216 -520 -844 0
-213 -521 -845 0
-214 -522 -846 0
-215 -523 -847 0
-216 -524 -848 0
-213 -525 -849 0
-214 -526 -850 0
-215 -527 -851 0
-216 -528 -852 0
-213 -529 -853 0
-214 -530 -854 0
-215 -531 -855 0
-216 -532 -856 0
-213 -533 -857 0
-214 -534 -858 0
-215 -535 -859 0
-216 -536 -860 0
-213 -537 -861 0
-214 -538 -862 0
-215 -539 -863 0
-216 -540 -864 0
-213 -541 -865 0
-214 -542 -866 0
-215 -543 -867 0
-216 -544 -868 0
-213 -545 -869 0
-214 -546 -870 0
-215 -547 -871 0
-216 -548 -872 0
-213 -549 -873 0
-214 -550 -874 0
-215 -551 -875 0
-216 -552 -876 0
-213 -553 -877 0
-214 -554 -878 0
-215 -555 -879 0
-216 -556 -880 0
-213 -557 -881 0
-214 -558 -882 0
-215 -559 -883 0
-216 -560 -884 0
-213 -561 -885 0
-214 -562 -886 0
-215 -563 -887 0
-216 -564 -888 0
-213 -565 -889 0
-214 -566 -890 0
-215 -567 -891 0
-216 -568 -892 0
-213 -569 -893 0
-214 -570 -894 0
-215 -571 -895 0
-216 -572 -896 0
-213 -573 -897 0
-214 -574 -898 0
-215 -575 -899 0
-216 -576 -900 0
-213 -577 -901 0
-214 -578 -902 0
-215 -579 -903 0
-216 -580 -904 0
-1 -221 -337 0
-2 -222 -338 0
-3 -223 -339 0
-4 -224 -340 0
-5 -221 -341 0
-6 -222 -342 0
-7 -223 -343 0
-8 -224 -344 0
-9 -221 -345 0
-10 -222 -346 0
-11 -223 -347 0
-12 -224 -348 0
-13 -221 -349 0
-14 -222 -350 0
-15 -223 -351 0
-16 -224 -352 0
-17 -221 -353 0
-18 -222 -354 0
-19 -223 -355 0
-20 -224 -356 0
-21 -221 -357 0
-22 -222 -358 0
-23 -223 -359 0
-24 -224 -360 0
-25 -221 -361 0
-26 -222 -362 0
-27 -223 -363 0
-28 -224 -364 0
-29 -221 -365 0
-30 -222 -366 0
-31 -223 -367 0
-32 -224 -368 0
-33 -221 -369 0
-34 -222 -370 0
-35 -223 -371 0
-36 -224 -372 0
-37 -221 -373 0
-38 -222 -374 0
-39 -223 -375 0
-40 -224 -376 0
-41 -221 -377 0
-42 -222 -378 0
-43 -223 -379 0
-44 -224 -380 0
-45 -221 -381 0
-46 -222 -382 0
-47 -223 -383 0
-48 -224 -384 0
-49 -221 -385 0
-50 -222 -386 0
-51 -223 -387 0
-52 -224 -388 0
-53 -221 -389 0
-54 -222 -390 0
-55 -223 -391 0
-56 -224 -392 0
-57 -221 -393 0
-58 -222 -394 0
-59 -223 -395 0
-60 -224 -396 0
-61 -221 -397 0
-62 -222 -398 0
-63 -223 -399 0
-64 -224 -400 0
-65 -221 -401 0
-66 -222 -402 0
-67 -223 -403 0
-68 -224 -404 0
-69 -221 -405 0
-70 -222 -406 0
-71 -223 -407 0
-72 -224 -408 0
-73 -221 -409 0
-74 -222 -410 0
-75 -223 -411 0
-76 -224 -412 0
-77 -221 -413 0
-78 -222 -414 0
-79 -223 -415 0
-80 -224 -416 0
-81 -221 -417 0
-82 -222 -418 0
-83 -223 -419 0
-84 -224 -420 0
-85 -221 -421 0
-86 -222 -422 0
-87 -223 -423 0
-88 -224 -424 0
-89 -221 -425 0
-90 -222 -426 0
-91 -223 -427 0
-92 -224 -428 0
-93 -221 -429 0
-94 -222 -430 0
-95 -223 -431 0
-96 -224 -432 0
-97 -221 -433 0
-98 -222 -434 0
-99 -223 -435 0
-100 -224 -436 0
-101 -221 -437 0
-102 -222 -438 0
-103 -223 -439 0
-104 -224 -440 0
-105 -221 -441 0
-106 -222 -442 0
-107 -223 -443 0
-108 -224 -444 0
-109 -221 -445 0
-110 -222 -446 0
-111 -223 -447 0
-112 -224 -448 0
-113 -221 -449 0
-114 -222 -450 0
-115 -223 -451 0
-116 -224 -452 0
-117 -221 -453 0
-118 -222 -454 0
-119 -223 -455 0
-120 -224 -456 0
-121 -221 -457 0
-122 -222 -458 0
-123 -223 -459 0
-124 -224 -460 0
-125 -221 -461 0
-126 -222 -462 0
-127 -223 -463 0
-128 -224 -464 0
-129 -221 -465 0
-130 -222 -466 0
-131 -223 -467 0
-132 -224 -468 0
-133 -221 -469 0
-134 -222 -470 0
-135 -223 -471 0
-136 -224 -472 0
-137 -221 -473 0
-138 -222 -474 0
-139 -223 -475 0
-140 -224 -476 0
-141 -221 -477 0
-142 -222 -478 0
-143 -223 -479 0
-144 -224 -480 0
-145 -221 -481 0
-146 -222 -482 0
-147 -223 -483 0
-148 -224 -484 0
-149 -221 -485 0
-150 -222 -486 0
-151 -223 -487 0
-152 -224 -488 0
-153 -221 -489 0
-154 -222 -490 0
-155 -223 -491 0
-156 -224 -492 0
-157 -221 -493 0
-158 -222 -494 0
-159 -223 -495 0
-160 -224 -496 0
-161 -221 -497 0
-162 -222 -498 0
-163 -223 -499 0
-164 -224 -500 0
-165 -221 -501 0
-166 -222 -502 0
-167 -223 -503 0
-168 -224 -504 0
-169 -221 -505 0
-170 -222 -506 0
-171 -223 -507 0
-172 -224 -508 0
-173 -221 -509 0
-174 -222 -510 0
-175 -223 -511 0
-176 -224 -512 0
-177 -221 -513 0
-178 -222 -514 0
-179 -223 -515 0
-180 -224 -516 0
-181 -221 -517 0
-182 -222 -518 0
-183 -223 -519 0
-184 -224 -520 0
-185 -221 -521 0
-186 -222 -522 0
-187 -223 -523 0
-188 -224 -524 0
-189 -221 -525 0
-190 -222 -526 0
-191 -223 -527 0
-192 -224 -528 0
-193 -221 -529 0
-194 -222 -530 0
-195 -223 -531 0
-196 -224 -532 0
-197 -221 -533 0
-198 -222 -534 0
-199 -223 -535 0
-200 -224 -536 0
-201 -221 -537 0
-202 -222 -538 0
-203 -223 -539 0
-204 -224 -540 0
-205 -221 -541 0
-206 -222 -542 0
-207 -223 -543 0
-208 -224 -544 0
-209 -221 -545 0
-210 -222 -546 0
-211 -223 -547 0
-212 -224 -548 0
-213 -221 -549 0
-214 -222 -550 0
-215 -223 -551 0
-216 -224 -552 0
-217 -221 -553 0
-218 -222 -554 0
-219 -223 -555 0
-220 -224 -556 0
-221 -557 0
-222 -558 0
-223 -559 0
-224 -560 0
-221 -225 -561 0
-222 -226 -562 0
-223 -227 -563 0
-224 -228 -564 0
-221 -229 -565 0
-222 -230 -566 0
-223 -231 -567 0
-224 -232 -568 0
-221 -233 -569 0
-222 -234 -570 0
-223 -235 -571 0
-224 -236 -572 0
-221 -237 -573 0
-222 -238 -574 0
-223 -239 -575 0
-224 -240 -576 0
-221 -241 -577 0
-222 -242 -578 0
-223 -243 -579 0
-224 -244 -580 0
-221 -245 -581 0
-222 -246 -582 0
-223 -247 -583 0
-224 -248 -584 0
-221 -249 -585 0
-222 -250 -586 0
-223 -251 -587 0
-224 -252 -588 0
-221 -253 -589 0
-222 -254 -590 0
-223 -255 -591 0
-224 -256 -592 0
-221 -257 -593 0
-222 -258 -594 0
-223 -259 -595 0
-224 -260 -596 0
-221 -261 -597 0
-222 -262 -598 0
-223 -263 -599 0
-224 -264 -600 0
-221 -265 -601 0
-222 -266 -602 0
-223 -267 -603 0
-224 -268 -604 0
-221 -269 -605 0
-222 -270 -606 0
-223 -271 -607 0
-224 -272 -608 0
-221 -273 -609 0
-222 -274 -610 0
-223 -275 -611 0
-224 -276 -612 0
-221 -277 -613 0
-222 -278 -614 0
-223 -279 -615 0
-224 -280 -616 0
-221 -281 -617 0
-222 -282 -618 0
-223 -283 -619 0
-224 -284 -620 0
-221 -285 -621 0
-222 -286 -622 0
-223 -287 -623 0
-224 -288 -624 0
-221 -289 -625 0
-222 -290 -626 0
-223 -291 -627 0
-224 -292 -628 0
-221 -293 -629 0
-222 -294 -630 0
-223 -295 -631 0
-224 -296 -632 0
-221 -297 -633 0
-222 -298 -634 0
-223 -299 -635 0
-224 -300 -636 0
-221 -301 -637 0
-222 -302 -638 0
-223 -303 -639 0
-224 -304 -640 0
-221 -305 -641 0
-222 -306 -642 0
-223 -307 -643 0
-224 -308 -644 0
-221 -309 -645 0
-222 -310 -646 0
-223 -311 -647 0
-224 -312 -648 0
-221 -313 -649 0
-222 -314 -650 0
-223 -315 -651 0
-224 -316 -652 0
-221 -317 -653 0
-222 -318 -654 0
-223 -319 -655 0
-224 -320 -656 0
-221 -321 -657 0
-222 -322 -658 0
-223 -323 -659 0
-224 -324 -660 0
-221 -325 -661 0
-222 -326 -662 0
-223 -327 -663 0
-224 -328 -664 0
-221 -329 -665 0
-222 -330 -666 0
-223 -331 -667 0
-224 -332 -668 0
-221 -333 -669 0
-222 -334 -670 0
-223 -335 -671 0
-224 -336 -672 0
-221 -337 -673 0
-222 -338 -674 0
-223 -339 -675 0
-224 -340 -676 0
-221 -341 -677 0
-222 -342 -678 0
-223 -343 -679 0
-224 -344 -680 0
-221 -345 -681 0
-222 -346 -682 0
-223 -347 -683 0
-224 -348 -684 0
-221 -349 -685 0
-222 -350 -686 0
-223 -351 -687 0
-224 -352 -688 0
-221 -353 -689 0
-222 -354 -690 0
-223 -355 -691 0
-224 -356 -692 0
-221 -357 -693 0
-222 -358 -694 0
-223 -359 -695 0
-224 -360 -696 0
-221 -361 -697 0
-222 -362 -698 0
-223 -363 -699 0
-224 -364 -700 0
-221 -365 -701 0
-222 -366 -702 0
-223 -367 -703 0
-224 -368 -704 0
-221 -369 -705 0
-222 -370 -706 0
-223 -371 -707 0
-224 -372 -708 0
-221 -373 -709 0
-222 -374 -710 0
-223 -375 -711 0
-224 -376 -712 0
-221 -377 -713 0
-222 -378 -714 0
-223 -379 -715 0
-224 -380 -716 0
-221 -381 -717 0
-222 -382 -718 0
-223 -383 -719 0
-224 -384 -720 0
-221 -385 -721 0
-222 -386 -722 0
-223 -387 -723 0
-224 -388 -724 0
-221 -389 -725 0
-222 -390 -726 0
-223 -391 -727 0
-224 -392 -728 0
-221 -393 -729 0
-222 -394 -730 0
-223 -395 -731 0
-224 -396 -732 0
-221 -397 -733 0
-222 -398 -734 0
-223 -399 -735 0
-224 -400 -736 0
-221 -401 -737 0
-222 -402 -738 0
-223 -403 -739 0
-224 -404 -740 0
-221 -405 -741 0
-222 -406 -742 0
-223 -407 -743 0
-224 -408 -744 0
-221 -409 -745 0
-222 -410 -746 0
-223 -411 -747 0
-224 -412 -748 0
-221 -413 -749 0
-222 -414 -750 0
-223 -415 -751 0
-224 -416 -752 0
-221 -417 -753 0
-222 -418 -754 0
-223 -419 -755 0
-224 -420 -756 0
-221 -421 -757 0
-222 -422 -758 0
-223 -423 -759 0
-224 -424 -760 0
-221 -425 -761 0
-222 -426 -762 0
-223 -427 -763 0
-224 -428 -764 0
-221 -429 -765 0
-222 -430 -766 0
-223 -431 -767 0
-224 -432 -768 0
-221 -433 -769 0
-222 -434 -770 0
-223 -435 -771 0
-224 -436 -772 0
-221 -437 -773 0
-222 -438 -774 0
-223 -439 -775 0
-224 -440 -776 0
-221 -441 -777 0
-222 -442 -778 0
-223 -443 -779 0
-224 -444 -780 0
-221 -445 -781 0
-222 -446 -782 0
-223 -447 -783 0
-224 -448 -784 0
-221 -449 -785 0
-222 -450 -786 0
-223 -451 -787 0
-224 -452 -788 0
-221 -453 -789 0
-222 -454 -790 0
-223 -455 -791 0
-224 -456 -792 0
-221 -457 -793 0
-222 -458 -794 0
-223 -459 -795 0
-224 -460 -796 0
-221 -461 -797 0
-222 -462 -798 0
-223 -463 -799 0
-224 -464 -800 0
-221 -465 -801 0
-222 -466 -802 0
-223 -467 -803 0
-224 -468 -804 0
-221 -469 -805 0
-222 -470 -806 0
-223 -471 -807 0
-224 -472 -808 0
-221 -473 -809 0
-222 -474 -810 0
-223 -475 -811 0
-224 -476 -812 0
-221 -477 -813 0
-222 -478 -814 0
-223 -479 -815 0
-224 -480 -816 0
-221 -481 -817 0
-222 -482 -818 0
-223 -483 -819 0
-224 -484 -820 0
-221 -485 -821 0
-222 -486 -822 0
-223 -487 -823 0
-224 -488 -824 0
-221 -489 -825 0
-222 -490 -826 0
-223 -491 -827 0
-224 -492 -828 0
-221 -493 -829 0
-222 -494 -830 0
-223 -495 -831 0
-224 -496 -832 0
-221 -497 -833 0
-222 -498 -834 0
-223 -499 -835 0
-224 -500 -836 0
-221 -501 -837 0
-222 -502 -838 0
-223 -503 -839 0
-224 -504 -840 0
-221 -505 -841 0
-222 -506 -842 0
-223 -507 -843 0
-224 -508 -844 0
-221 -509 -845 0
-222 -510 -846 0
-223 -511 -847 0
-224 -512 -848 0
-221 -513 -849 0
-222 -514 -850 0
-223 -515 -851 0
-224 -516 -852 0
-221 -517 -853 0
-222 -518 -854 0
-223 -519 -855 0
-224 -520 -856 0
-221 -521 -857 0
-222 -522 -858 0
-223 -523 -859 0
-224 -524 -860 0
-221 -525 -861 0
-222 -526 -862 0
-223 -527 -863 0
-224 -528 -864 0
-221 -529 -865 0
-222 -530 -866 0
-223 -531 -867 0
-224 -532 -868 0
-221 -533 -869 0
-222 -534 -870 0
-223 -535 -871 0
-224 -536 -872 0
-221 -537 -873 0
-222 -538 -874 0
-223 -539 -875 0
-224 -540 -876 0
-221 -541 -877 0
-222 -542 -878 0
-223 -543 -879 0
-224 -544 -880 0
-221 -545 -881 0
-222 -546 -882 0
-223 -547 -883 0
-224 -548 -884 0
-221 -549 -885 0
-222 -550 -886 0
-223 -551 -887 0
-224 -552 -888 0
-221 -553 -889 0
-222 -554 -890 0
-223 -555 -891 0
-224 -556 -892 0
-221 -557 -893 0
-222 -558 -894 0
-223 -559 -895 0
-224 -560 -896 0
-221 -561 -897 0
-222 -562 -898 0
-223 -563 -899 0
-224 -564 -900 0
-221 -565 -901 0
-222 -566 -902 0
-223 -567 -903 0
-224 -568 -904 0
-1 -229 -349 0
-2 -230 -350 0
-3 -231 -351 0
-4 -232 -352 0
-5 -229 -353 0
-6 -230 -354 0
-7 -231 -355 0
-8 -232 -356 0
-9 -229 -357 0
-10 -230 -358 0
-11 -231 -359 0
-12 -232 -360 0
-13 -229 -361 0
-14 -230 -362 0
-15 -231 -363 0
-16 -232 -364 0
-17 -229 -365 0
-18 -230 -366 0
-19 -231 -367 0
-20 -232 -368 0
-21 -229 -369 0
-22 -230 -370 0
-23 -231 -371 0
-24 -232 -372 0
-25 -229 -373 0
-26 -230 -374 0
-27 -231 -375 0
-28 -232 -376 0
-29 -229 -377 0
-30 -230 -378 0
-31 -231 -379 0
-32 -232 -380 0
-33 -229 -381 0
-34 -230 -382 0
-35 -231 -383 0
-36 -232 -384 0
-37 -229 -385 0
-38 -230 -386 0
-39 -231 -387 0
-40 -232 -388 0
-41 -229 -389 0
-42 -230 -390 0
-43 -231 -391 0
-44 -232 -392 0
-45 -229 -393 0
-46 -230 -394 0
-47 -231 -395 0
-48 -232 -396 0
-49 -229 -397 0
-50 -230 -398 0
-51 -231 -399 0
-52 -232 -400 0
-53 -229 -401 0
-54 -230 -402 0
-55 -231 -403 0
-56 -232 -404 0
-57 -229 -405 0
-58 -230 -406 0
-59 -231 -407 0
-60 -232 -408 0
-61 -229 -409 0
-62 -230 -410 0
-63 -231 -411 0
-64 -232 -412 0
-65 -229 -413 0
-66 -230 -414 0
-67 -231 -415 0
-68 -232 -416 0
-69 -229 -417 0
-70 -230 -418 0
-71 -231 -419 0
-72 -232 -420 0
-73 -229 -421 0
-74 -230 -422 0
-75 -231 -423 0
-76 -232 -424 0
-77 -229 -425 0
-78 -230 -426 0
-79 -231 -427 0
-80 -232 -428 0
-81 -229 -429 0
-82 -230 -430 0
-83 -231 -431 0
-84 -232 -432 0
-85 -229 -433 0
-86 -230 -434 0
-87 -231 -435 0
-88 -232 -436 0
-89 -229 -437 0
-90 -230 -438 0
-91 -231 -439 0
-92 -232 -440 0
-93 -229 -441 0
-94 -230 -442 0
-95 -231 -443 0
-96 -232 -444 0
-97 -229 -445 0
-98 -230 -446 0
-99 -231 -447 0
-100 -232 -448 0
-101 -229 -449 0
-102 -230 -450 0
-103 -231 -451 0
-104 -232 -452 0
-105 -229 -453 0
-106 -230 -454 0
-107 -231 -455 0
-108 -232 -456 0
-109 -229 -457 0
-110 -230 -458 0
-111 -231 -459 0
-112 -232 -460 0
-113 -229 -461 0
-114 -230 -462 0
-115 -231 -463 0
-116 -232 -464 0
-117 -229 -465 0
-118 -230 -466 0
-119 -231 -467 0
-120 -232 -468 0
-121 -229 -469 0
-122 -230 -470 0
-123 -231 -471 0
-124 -232 -472 0
-125 -229 -473 0
-126 -230 -474 0
-127 -231 -475 0
-128 -232 -476 0
-129 -229 -477 0
-130 -230 -478 0
-131 -231 -479 0
-132 -232 -480 0
-133 -229 -481 0
-134 -230 -482 0
-135 -231 -483 0
-136 -232 -484 0
-137 -229 -485 0
-138 -230 -486 0
-139 -231 -487 0
-140 -232 -488 0
-141 -229 -489 0
-142 -230 -490 0
-143 -231 -491 0
-144 -232 -492 0
-145 -229 -493 0
-146 -230 -494 0
-147 -231 -495 0
-148 -232 -496 0
-149 -229 -497 0
-150 -230 -498 0
-151 -231 -499 0
-152 -232 -500 0
-153 -229 -501 0
-154 -230 -502 0
-155 -231 -503 0
-156 -232 -504 0
-157 -229 -505 0
-158 -230 -506 0
-159 -231 -507 0
-160 -232 -508 0
-161 -229 -509 0
-162 -230 -510 0
-163 -231 -511 0
-164 -232 -512 0
-165 -229 -513 0
-166 -230 -514 0
-167 -231 -515 0
-168 -232 -516 0
-169 -229 -517 0
-170 -230 -518 0
-171 -231 -519 0
-172 -232 -520 0
-173 -229 -521 0
-174 -230 -522 0
-175 -231 -523 0
-176 -232 -524 0
-177 -229 -525 0
-178 -230 -526 0
-179 -231 -527 0
-180 -232 -528 0
-181 -229 -529 0
-182 -230 -530 0
-183 -231 -531 0
-184 -232 -532 0
-185 -229 -533 0
-186 -230 -534 0
-187 -231 -535 0
-188 -232 -536 0
-189 -229 -537 0
-190 -230 -538 0
-191 -231 -539 0
-192 -232 -540 0
-193 -229 -541 0
-194 -230 -542 0
-195 -231 -543 0
-196 -232 -544 0
-197 -229 -545 0
-198 -230 -546 0
-199 -231 -547 0
-200 -232 -548 0
-201 -229 -549 0
-202 -230 -550 0
-203 -231 -551 0
-204 -232 -552 0
-205 -229 -553 0
-206 -230 -554 0
-207 -231 -555 0
-208 -232 -556 0
-209 -229 -557 0
-210 -230 -558 0
-211 -231 -559 0
-212 -232 -560 0
-213 -229 -561 0
-214 -230 -562 0
-215 -231 -563 0
-216 -232 -564 0
-217 -229 -565 0
-218 -230 -566 0
-219 -231 -567 0
-220 -232 -568 0
-221 -229 -569 0
-222 -230 -570 0
-223 -231 -571 0
-224 -232 -572 0
-225 -229 -573 0
-226 -230 -574 0
-227 -231 -575 0
-228 -232 -576 0
-229 -577 0
-230 -578 0
-231 -579 0
-232 -580 0
-229 -233 -581 0
-230 -234 -582 0
-231 -235 -583 0
-232 -236 -584 0
-229 -237 -585 0
-230 -238 -586 0
-231 -239 -587 0
-232 -240 -588 0
-229 -241 -589 0
-230 -242 -590 0
-231 -243 -591 0
-232 -244 -592 0
-229 -245 -593 0
-230 -246 -594 0
-231 -247 -595 0
-232 -248 -596 0
-229 -249 -597 0
-230 -250 -598 0
-231 -251 -599 0
-232 -252 -600 0
-229 -253 -601 0
-230 -254 -602 0
-231 -255 -603 0
-232 -256 -604 0
-229 -257 -605 0
-230 -258 -606 0
-231 -259 -607 0
-232 -260 -608 0
-229 -261 -609 0
-230 -262 -610 0
-231 -263 -611 0
-232 -264 -612 0
-229 -265 -613 0
-230 -266 -614 0
-231 -267 -615 0
-232 -268 -616 0
-229 -269 -617 0
-230 -270 -618 0
-231 -271 -619 0
-232 -272 -620 0
-229 -273 -621 0
-230 -274 -622 0
-231 -275 -623 0
-232 -276 -624 0
-229 -277 -625 0
-230 -278 -626 0
-231 -279 -627 0
-232 -280 -628 0
-229 -281 -629 0
-230 -282 -630 0
-231 -283 -631 0
-232 -284 -632 0
-229 -285 -633 0
-230 -286 -634 0
-231 -287 -635 0
-232 -288 -636 0
-229 -289 -637 0
-230 -290 -638 0
-231 -291 -639 0
-232 -292 -640 0
-229 -293 -641 0
-230 -294 -642 0
-231 -295 -643 0
-232 -296 -644 0
-229 -297 -645 0
-230 -298 -646 0
-231 -299 -647 0
-232 -300 -648 0
-229 -301 -649 0
-230 -302 -650 0
-231 -303 -651 0
-232 -304 -652 0
-229 -305 -653 0
-230 -306 -654 0
-231 -307 -655 0
-232 -308 -656 0
-229 -309 -657 0
-230 -310 -658 0
-231 -311 -659 0
-232 -312 -660 0
-229 -313 -661 0
-230 -314 -662 0
-231 -315 -663 0
-232 -316 -664 0
-229 -317 -665 0
-230 -318 -666 0
-231 -319 -667 0
-232 -320 -668 0
-229 -321 -669 0
-230 -322 -670 0
-231 -323 -671 0
-232 -324 -672 0
-229 -325 -673 0
-230 -326 -674 0
-231 -327 -675 0
-232 -328 -676 0
-229 -329 -677 0
-230 -330 -678 0
-231 -331 -679 0
-232 -332 -680 0
-229 -333 -681 0
-230 -334 -682 0
-231 -335 -683 0
-232 -336 -684 0
-229 -337 -685 0
-230 -338 -686 0
-231 -339 -687 0
-232 -340 -688 0
-229 -341 -689 0
-230 -342 -690 0
-231 -343 -691 0
-232 -344 -692 0
-229 -345 -693 0
-230 -346 -694 0
-231 -347 -695 0
-232 -348 -696 0
-229 -349 -697 0
-230 -350 -698 0
-231 -351 -699 0
-232 -352 -700 0
-229 -353 -701 0
-230 -354 -702 0
-231 -355 -703 0
-232 -356 -704 0
-229 -357 -705 0
-230 -358 -706 0
-231 -359 -707 0
-232 -360 -708 0
-229 -361 -709 0
-230 -362 -710 0
-231 -363 -711 0
-232 -364 -712 0
-229 -365 -713 0
-230 -366 -714 0
-231 -367 -715 0
-232 -368 -716 0
-229 -369 -717 0
-230 -370 -718 0
-231 -371 -719 0
-232 -372 -720 0
-229 -373 -721 0
-230 -374 -722 0
-231 -375 -723 0
-232 -376 -724 0
-229 -377 -725 0
-230 -378 -726 0
-231 -379 -727 0
-232 -380 -728 0
-229 -381 -729 0
-230 -382 -730 0
-231 -383 -731 0
-232 -384 -732 0
-229 -385 -733 0
-230 -386 -734 0
-231 -387 -735 0
-232 -388 -736 0
-229 -389 -737 0
-230 -390 -738 0
-231 -391 -739 0
-232 -392 -740 0
-229 -393 -741 0
-230 -394 -742 0
-231 -395 -743 0
-232 -396 -744 0
-229 -397 -745 0
-230 -398 -746 0
-231 -399 -747 0
-232 -400 -748 0
-229 -401 -749 0
-230 -402 -750 0
-231 -403 -751 0
-232 -404 -752 0
-229 -405 -753 0
-230 -406 -754 0
-231 -407 -755 0
-232 -408 -756 0
-229 -409 -757 0
-230 -410 -758 0
-231 -411 -759 0
-232 -412 -760 0
-229 -413 -761 0
-230 -414 -762 0
-231 -415 -763 0
-232 -416 -764 0
-229 -417 -765 0
-230 -418 -766 0
-231 -419 -767 0
-232 -420 -768 0
-229 -421 -769 0
-230 -422 -770 0
-231 -423 -771 0
-232 -424 -772 0
-229 -425 -773 0
-230 -426 -774 0
-231 -427 -775 0
-232 -428 -776 0
-229 -429 -777 0
-230 -430 -778 0
-231 -431 -779 0
-232 -432 -780 0
-229 -433 -781 0
-230 -434 -782 0
-231 -435 -783 0
-232 -436 -784 0
-229 -437 -785 0
-230 -438 -786 0
-231 -439 -787 0
-232 -440 -788 0
-229 -441 -789 0
-230 -442 -790 0
-231 -443 -791 0
-232 -444 -792 0
-229 -445 -793 0
-230 -446 -794 0
-231 -447 -795 0
-232 -448 -796 0
-229 -449 -797 0
-230 -450 -798 0
-231 -451 -799 0
-232 -452 -800 0
-229 -453 -801 0
-230 -454 -802 0
-231 -455 -803 0
-232 -456 -804 0
-229 -457 -805 0
-230 -458 -806 0
-231 -459 -807 0
-232 -460 -808 0
-229 -461 -809 0
-230 -462 -810 0
-231 -463 -811 0
-232 -464 -812 0
-229 -465 -813 0
-230 -466 -814 0
-231 -467 -815 0
-232 -468 -816 0
-229 -469 -817 0
-230 -470 -818 0
-231 -471 -819 0
-232 -472 -820 0
-229 -473 -821 0
-230 -474 -822 0
-231 -475 -823 0
-232 -476 -824 0
-229 -477 -825 0
-230 -478 -826 0
-231 -479 -827 0
-232 -480 -828 0
-229 -481 -829 0
-230 -482 -830 0
-231 -483 -831 0
-232 -484 -832 0
-229 -485 -833 0
-230 -486 -834 0
-231 -487 -835 0
-232 -488 -836 0
-229 -489 -837 0
-230 -490 -838 0
-231 -491 -839 0
-232 -492 -840 0
-229 -493 -841 0
-230 -494 -842 0
-231 -495 -843 0
-232 -496 -844 0
-229 -497 -845 0
-230 -498 -846 0
-231 -499 -847 0
-232 -500 -848 0
-229 -501 -849 0
-230 -502 -850 0
-231 -503 -851 0
-232 -504 -852 0
-229 -505 -853 0
-230 -506 -854 0
-231 -507 -855 0
-232 -508 -856 0
-229 -509 -857 0
-230 -510 -858 0
-231 -511 -859 0
-232 -512 -860 0
-229 -513 -861 0
-230 -514 -862 0
-231 -515 -863 0
-232 -516 -864 0
-229 -517 -865 0
-230 -518 -866 0
-231 -519 -867 0
-232 -520 -868 0
-229 -521 -869 0
-230 -522 -870 0
-231 -523 -871 0
-232 -524 -872 0
-229 -525 -873 0
-230 -526 -874 0
-231 -527 -875 0
-232 -528 -876 0
-229 -529 -877 0
-230 -530 -878 0
-231 -531 -879 0
-232 -532 -880 0
-229 -533 -881 0
-230 -534 -882 0
-231 -535 -883 0
-232 -536 -884 0
-229 -537 -885 0
-230 -538 -886 0
-231 -539 -887 0
-232 -540 -888 0
-229 -541 -889 0
-230 -542 -890 0
-231 -543 -891 0
-232 -544 -892 0
-229 -545 -893 0
-230 -546 -894 0
-231 -547 -895 0
-232 -548 -896 0
-229 -549 -897 0
-230 -550 -898 0
-231 -551 -899 0
-232 -552 -900 0
-229 -553 -901 0
-230 -554 -902 0
-231 -555 -903 0
-232 -556 -904 0
-1 -237 -361 0
-2 -238 -362 0
-3 -239 -363 0
-4 -240 -364 0
-5 -237 -365 0
-6 -238 -366 0
-7 -239 -367 0
-8 -240 -368 0
-9 -237 -369 0
-10 -238 -370 0
-11 -239 -371 0
-12 -240 -372 0
-13 -237 -373 0
-14 -238 -374 0
-15 -239 -375 0
-16 -240 -376 0
-17 -237 -377 0
-18 -238 -378 0
-19 -239 -379 0
-20 -240 -380 0
-21 -237 -381 0
-22 -238 -382 0
-23 -239 -383 0
-24 -240 -384 0
-25 -237 -385 0
-26 -238 -386 0
-27 -239 -387 0
-28 -240 -388 0
-29 -237 -389 0
-30 -238 -390 0
-31 -239 -391 0
-32 -240 -392 0
-33 -237 -393 0
-34 -238 -394 0
-35 -239 -395 0
-36 -240 -396 0
-37 -237 -397 0
-38 -238 -398 0
-39 -239 -399 0
-40 -240 -400 0
-41 -237 -401 0
-42 -238 -402 0
-43 -239 -403 0
-44 -240 -404 0
-45 -237 -405 0
-46 -238 -406 0
-47 -239 -407 0
-48 -240 -408 0
-49 -237 -409 0
-50 -238 -410 0
-51 -239 -411 0
-52 -240 -412 0
-53 -237 -413 0
-54 -238 -414 0
-55 -239 -415 0
-56 -240 -416 0
-57 -237 -417 0
-58 -238 -418 0
-59 -239 -419 0
-60 -240 -420 0
-61 -237 -421 0
-62 -238 -422 0
-63 -239 -423 0
-64 -240 -424 0
-65 -237 -425 0
-66 -238 -426 0
-67 -239 -427 0
-68 -240 -428 0
-69 -237 -429 0
-70 -238 -430 0
-71 -239 -431 0
-72 -240 -432 0
-73 -237 -433 0
-74 -238 -434 0
-75 -239 -435 0
-76 -240 -436 0
-77 -237 -437 0
-78 -238 -438 0
-79 -239 -439 0
-80 -240 -440 0
-81 -237 -441 0
-82 -238 -442 0
-83 -239 -443 0
-84 -240 -444 0
-85 -237 -445 0
-86 -238 -446 0
-87 -239 -447 0
-88 -240 -448 0
-89 -237 -449 0
-90 -238 -450 0
-91 -239 -451 0
-92 -240 -452 0
-93 -237 -453 0
-94 -238 -454 0
-95 -239 -455 0
-96 -240 -456 0
-97 -237 -457 0
-98 -238 -458 0
-99 -239 -459 0
-100 -240 -460 0
-101 -237 -461 0
-102 -238 -462 0
-103 -239 -463 0
-104 -240 -464 0
-105 -237 -465 0
-106 -238 -466 0
-107 -239 -467 0
-108 -240 -468 0
-109 -237 -469 0
-110 -238 -470 0
-111 -239 -471 0
-112 -240 -472 0
-113 -237 -473 0
-114 -238 -474 0
-115 -239 -475 0
-116 -240 -476 0
-117 -237 -477 0
-118 -238 -478 0
-119 -239 -479 0
-120 -240 -480 0
-121 -237 -481 0
-122 -238 -482 0
-123 -239 -483 0
-124 -240 -484 0
-125 -237 -485 0
-126 -238 -486 0
-127 -239 -487 0
-128 -240 -488 0
-129 -237 -489 0
-130 -238 -490 0
-131 -239 -491 0
-132 -240 -492 0
-133 -237 -493 0
-134 -238 -494 0
-135 -239 -495 0
-136 -240 -496 0
-137 -237 -497 0
-138 -238 -498 0
-139 -239 -499 0
-140 -240 -500 0
-141 -237 -501 0
-142 -238 -502 0
-143 -239 -503 0
-144 -240 -504 0
-145 -237 -505 0
-146 -238 -506 0
-147 -239 -507 0
-148 -240 -508 0
-149 -237 -509 0
-150 -238 -510 0
-151 -239 -511 0
-152 -240 -512 0
-153 -237 -513 0
-154 -238 -514 0
-155 -239 -515 0
-156 -240 -516 0
-157 -237 -517 0
-158 -238 -518 0
-159 -239 -519 0
-160 -240 -520 0
-161 -237 -521 0
-162 -238 -522 0
-163 -239 -523 0
-164 -240 -524 0
-165 -237 -525 0
-166 -238 -526 0
-167 -239 -527 0
-168 -240 -528 0
-169 -237 -529 0
-170 -238 -530 0
-171 -239 -531 0
-172 -240 -532 0
-173 -237 -533 0
-174 -238 -534 0
-175 -239 -535 0
-176 -240 -536 0
-177 -237 -537 0
-178 -238 -538 0
-179 -239 -539 0
-180 -240 -540 0
-181 -237 -541 0
-182 -238 -542 0
-183 -239 -543 0
-184 -240 -544 0
-185 -237 -545 0
-186 -238 -546 0
-187 -239 -547 0
-188 -240 -548 0
-189 -237 -549 0
-190 -238 -550 0
-191 -239 -551 0
-192 -240 -552 0
-193 -237 -553 0
-194 -238 -554 0
-195 -239 -555 0
-196 -240 -556 0
-197 -237 -557 0
-198 -238 -558 0
-199 -239 -559 0
-200 -240 -560 0
-201 -237 -561 0
-202 -238 -562 0
-203 -239 -563 0
-204 -240 -564 0
-205 -237 -565 0
-206 -238 -566 0
-207 -239 -567 0
-208 -240 -568 0
-209 -237 -569 0
-210 -238 -570 0
-211 -239 -571 0
-212 -240 -572 0
-213 -237 -573 0
-214 -238 -574 0
-215 -239 -575 0
-216 -240 -576 0
-217 -237 -577 0
-218 -238 -578 0
-219 -239 -579 0
-220 -240 -580 0
-221 -237 -581 0
-222 -238 -582 0
-223 -239 -583 0
-224 -240 -584 0
-225 -237 -585 0
-226 -238 -586 0
-227 -239 -587 0
-228 -240 -588 0
-229 -237 -589 0
-230 -238 -590 0
-231 -239 -591 0
-232 -240 -592 0
-233 -237 -593 0
-234 -238 -594 0
-235 -239 -595 0
-236 -240 -596 0
-237 -597 0
-238 -598 0
-239 -599 0
-240 -600 0
-237 -241 -601 0
-238 -242 -602 0
-239 -243 -603 0
-240 -244 -604 0
-237 -245 -605 0
-238 -246 -606 0
-239 -247 -607 0
-240 -248 -608 0
-237 -249 -609 0
-238 -250 -610 0
-239 -251 -611 0
-240 -252 -612 0
-237 -253 -613 0
-238 -254 -614 0
-239 -255 -615 0
-240 -256 -616 0
-237 -257 -617 0
-238 -258 -618 0
-239 -259 -619 0
-240 -260 -620 0
-237 -261 -621 0
-238 -262 -622 0
-239 -263 -623 0
-240 -264 -624 0
-237 -265 -625 0
-238 -266 -626 0
-239 -267 -627 0
-240 -268 -628 0
-237 -269 -629 0
-238 -270 -630 0
-239 -271 -631 0
-240 -272 -632 0
-237 -273 -633 0
-238 -274 -634 0
-239 -275 -635 0
-240 -276 -636 0
-237 -277 -637 0
-238 -278 -638 0
-239 -279 -639 0
-240 -280 -640 0
-237 -281 -641 0
-238 -282 -642 0
-239 -283 -643 0
-240 -284 -644 0
-237 -285 -645 0
-238 -286 -646 0
-239 -287 -647 0
-240 -288 -648 0
-237 -289 -649 0
-238 -290 -650 0
-239 -291 -651 0
-240 -292 -652 0
-237 -293 -653 0
-238 -294 -654 0
-239 -295 -655 0
-240 -296 -656 0
-237 -297 -657 0
-238 -298 -658 0
-239 -299 -659 0
-240 -300 -660 0
-237 -301 -661 0
-238 -302 -662 0
-239 -303 -663 0
-240 -304 -664 0
-237 -305 -665 0
-238 -306 -666 0
-239 -307 -667 0
-240 -308 -668 0
-237 -309 -669 0
-238 -310 -670 0
-239 -311 -671 0
-240 -312 -672 0
-237 -313 -673 0
-238 -314 -674 0
-239 -315 -675 0
-240 -316 -676 0
-237 -317 -677 0
-238 -318 -678 0
-239 -319 -679 0
-240 -320 -680 0
-237 -321 -681 0
-238 -322 -682 0
-239 -323 -683 0
-240 -324 -684 0
-237 -325 -685 0
-238 -326 -686 0
-239 -327 -687 0
-240 -328 -688 0
-237 -329 -689 0
-238 -330 -690 0
-239 -331 -691 0
-240 -332 -692 0
-237 -333 -693 0
-238 -334 -694 0
-239 -335 -695 0
-240 -336 -696 0
-237 -337 -697 0
-238 -338 -698 0
-239 -339 -699 0
-240 -340 -700 0
-237 -341 -701 0
-238 -342 -702 0
-239 -343 -703 0
-240 -344 -704 0
-237 -345 -705 0
-238 -346 -706 0
-239 -347 -707 0
-240 -348 -708 0
-237 -349 -709 0
-238 -350 -710 0
-239 -351 -711 0
-240 -352 -712 0
-237 -353 -713 0
-238 -354 -714 0
-239 -355 -715 0
-240 -356 -716 0
-237 -357 -717 0
-238 -358 -718 0
-239 -359 -719 0
-240 -360 -720 0
-237 -361 -721 0
-238 -362 -722 0
-239 -363 -723 0
-240 -364 -724 0
-237 -365 -725 0
-238 -366 -726 0
-239 -367 -727 0
-240 -368 -728 0
-237 -369 -729 0
-238 -370 -730 0
-239 -371 -731 0
-240 -372 -732 0
-237 -373 -733 0
-238 -374 -734 0
-239 -375 -735 0
-240 -376 -736 0
-237 -377 -737 0
-238 -378 -738 0
-239 -379 -739 0
-240 -380 -740 0
-237 -381 -741 0
-238 -382 -742 0
-239 -383 -743 0
-240 -384 -744 0
-237 -385 -745 0
-238 -386 -746 0
-239 -387 -747 0
-240 -388 -748 0
-237 -389 -749 0
-238 -390 -750 0
-239 -391 -751 0
-240 -392 -752 0
-237 -393 -753 0
-238 -394 -754 0
-239 -395 -755 0
-240 -396 -756 0
-237 -397 -757 0
-238 -398 -758 0
-239 -399 -759 0
-240 -400 -760 0
-237 -401 -761 0
-238 -402 -762 0
-239 -403 -763 0
-240 -404 -764 0
-237 -405 -765 0
-238 -406 -766 0
-239 -407 -767 0
-240 -408 -768 0
-237 -409 -769 0
-238 -410 -770 0
-239 -411 -771 0
-240 -412 -772 0
-237 -413 -773 0
-238 -414 -774 0
-239 -415 -775 0
-240 -416 -776 0
-237 -417 -777 0
-238 -418 -778 0
-239 -419 -779 0
-240 -420 -780 0
-237 -421 -781 0
-238 -422 -782 0
-239 -423 -783 0
-240 -424 -784 0
-237 -425 -785 0
-238 -426 -786 0
-239 -427 -787 0
-240 -428 -788 0
-237 -429 -789 0
-238 -430 -790 0
-239 -431 -791 0
-240 -432 -792 0
-237 -433 -793 0
-238 -434 -794 0
-239 -435 -795 0
-240 -436 -796 0
-237 -437 -797 0
-238 -438 -798 0
-239 -439 -799 0
-240 -440 -800 0
-237 -441 -801 0
-238 -442 -802 0
-239 -443 -803 0
-240 -444 -804 0
-237 -445 -805 0
-238 -446 -806 0
-239 -447 -807 0
-240 -448 -808 0
-237 -449 -809 0
-238 -450 -810 0
-239 -451 -811 0
-240 -452 -812 0
-237 -453 -813 0
-238 -454 -814 0
-239 -455 -815 0
-240 -456 -816 0
-237 -457 -817 0
-238 -458 -818 0
-239 -459 -819 0
-240 -460 -820 0
-237 -461 -821 0
-238 -462 -822 0
-239 -463 -823 0
-240 -464 -824 0
-237 -465 -825 0
-238 -466 -826 0
-239 -467 -827 0
-240 -468 -828 0
-237 -469 -829 0
-238 -470 -830 0
-239 -471 -831 0
-240 -472 -832 0
-237 -473 -833 0
-238 -474 -834 0
-239 -475 -835 0
-240 -476 -836 0
-237 -477 -837 0
-238 -478 -838 0
-239 -479 -839 0
-240 -480 -840 0
-237 -481 -841 0
-238 -482 -842 0
-239 -483 -843 0
-240 -484 -844 0
-237 -485 -845 0
-238 -486 -846 0
-239 -487 -847 0
-240 -488 -848 0
-237 -489 -849 0
-238 -490 -850 0
-239 -491 -851 0
-240 -492 -852 0
-237 -493 -853 0
-238 -494 -854 0
-239 -495 -855 0
-240 -496 -856 0
-237 -497 -857 0
-238 -498 -858 0
-239 -499 -859 0
-240 -500 -860 0
-237 -501 -861 0
-238 -502 -862 0
-239 -503 -863 0
-240 -504 -864 0
-237 -505 -865 0
-238 -506 -866 0
-239 -507 -867 0
-240 -508 -868 0
-237 -509 -869 0
-238 -510 -870 0
-239 -511 -871 0
-240 -512 -872 0
-237 -513 -873 0
-238 -514 -874 0
-239 -515 -875 0
-240 -516 -876 0
-237 -517 -877 0
-238 -518 -878 0
-239 -519 -879 0
-240 -520 -880 0
-237 -521 -881 0
-238 -522 -882 0
-239 -523 -883 0
-240 -524 -884 0
-237 -525 -885 0
-238 -526 -886 0
-239 -527 -887 0
-240 -528 -888 0
-237 -529 -889 0
-238 -530 -890 0
-239 -531 -891 0
-240 -532 -892 0
-237 -533 -893 0
-238 -534 -894 0
-239 -535 -895 0
-240 -536 -896 0
-237 -537 -897 0
-238 -538 -898 0
-239 -539 -899 0
-240 -540 -900 0
-237 -541 -901 0
-238 -542 -902 0
-239 -543 -903 0
-240 -544 -904 0
-1 -245 -373 0
-2 -246 -374 0
-3 -247 -375 0
-4 -248 -376 0
-5 -245 -377 0
-6 -246 -378 0
-7 -247 -379 0
-8 -248 -380 0
-9 -245 -381 0
-10 -246 -382 0
-11 -247 -383 0
-12 -248 -384 0
-13 -245 -385 0
-14 -246 -386 0
-15 -247 -387 0
-16 -248 -388 0
-17 -245 -389 0
-18 -246 -390 0
-19 -247 -391 0
-20 -248 -392 0
-21 -245 -393 0
-22 -246 -394 0
-23 -247 -395 0
-24 -248 -396 0
-25 -245 -397 0
-26 -246 -398 0
-27 -247 -399 0
-28 -248 -400 0
-29 -245 -401 0
-30 -246 -402 0
-31 -247 -403 0
-32 -248 -404 0
-33 -245 -405 0
-34 -246 -406 0
-35 -247 -407 0
-36 -248 -408 0
-37 -245 -409 0
-38 -246 -410 0
-39 -247 -411 0
-40 -248 -412 0
-41 -245 -413 0
-42 -246 -414 0
-43 -247 -415 0
-44 -248 -416 0
-45 -245 -417 0
-46 -246 -418 0
-47 -247 -419 0
-48 -248 -420 0
-49 -245 -421 0
-50 -246 -422 0
-51 -247 -423 0
-52 -248 -424 0
-53 -245 -425 0
-54 -246 -426 0
-55 -247 -427 0
-56 -248 -428 0
-57 -245 -429 0
-58 -246 -430 0
-59 -247 -431 0
-60 -248 -432 0
-61 -245 -433 0
-62 -246 -434 0
-63 -247 -435 0
-64 -248 -436 0
-65 -245 -437 0
-66 -246 -438 0
-67 -247 -439 0
-68 -248 -440 0
-69 -245 -441 0
-70 -246 -442 0
-71 -247 -443 0
-72 -248 -444 0
-73 -245 -445 0
-74 -246 -446 0
-75 -247 -447 0
-76 -248 -448 0
-77 -245 -449 0
-78 -246 -450 0
-79 -247 -451 0
-80 -248 -452 0
-81 -245 -453 0
-82 -246 -454 0
-83 -247 -455 0
-84 -248 -456 0
-85 -245 -457 0
-86 -246 -458 0
-87 -247 -459 0
-88 -248 -460 0
-89 -245 -461 0
-90 -246 -462 0
-91 -247 -463 0
-92 -248 -464 0
-93 -245 -465 0
-94 -246 -466 0
-95 -247 -467 0
-96 -248 -468 0
-97 -245 -469 0
-98 -246 -470 0
-99 -247 -471 0
-100 -248 -472 0
-101 -245 -473 0
-102 -246 -474 0
-103 -247 -475 0
-104 -248 -476 0
-105 -245 -477 0
-106 -246 -478 0
-107 -247 -479 0
-108 -248 -480 0
-109 -245 -481 0
-110 -246 -482 0
-111 -247 -483 0
-112 -248 -484 0
-113 -245 -485 0
-114 -246 -486 0
-115 -247 -487 0
-116 -248 -488 0
-117 -245 -489 0
-118 -246 -490 0
-119 -247 -491 0
-120 -248 -492 0
-121 -245 -493 0
-122 -246 -494 0
-123 -247 -495 0
-124 -248 -496 0
-125 -245 -497 0
-126 -246 -498 0
-127 -247 -499 0
-128 -248 -500 0
-129 -245 -501 0
-130 -246 -502 0
-131 -247 -503 0
-132 -248 -504 0
-133 -245 -505 0
-134 -246 -506 0
-135 -247 -507 0
-136 -248 -508 0
-137 -245 -509 0
-138 -246 -510 0
-139 -247 -511 0
-140 -248 -512 0
-141 -245 -513 0
-142 -246 -514 0
-143 -247 -515 0
-144 -248 -516 0
-145 -245 -517 0
-146 -246 -518 0
-147 -247 -519 0
-148 -248 -520 0
-149 -245 -521 0
-150 -246 -522 0
-151 -247 -523 0
-152 -248 -524 0
-153 -245 -525 0
-154 -246 -526 0
-155 -247 -527 0
-156 -248 -528 0
-157 -245 -529 0
-158 -246 -530 0
-159 -247 -531 0
-160 -248 -532 0
-161 -245 -533 0
-162 -246 -534 0
-163 -247 -535 0
-164 -248 -536 0
-165 -245 -537 0
-166 -246 -538 0
-167 -247 -539 0
-168 -248 -540 0
-169 -245 -541 0
-170 -246 -542 0
-171 -247 -543 0
-172 -248 -544 0
-173 -245 -545 0
-174 -246 -546 0
-175 -247 -547 0
-176 -248 -548 0
-177 -245 -549 0
-178 -246 -550 0
-179 -247 -551 0
-180 -248 -552 0
-181 -245 -553 0
-182 -246 -554 0
-183 -247 -555 0
-184 -248 -556 0
-185 -245 -557 0
-186 -246 -558 0
-187 -247 -559 0
-188 -248 -560 0
-189 -245 -561 0
-190 -246 -562 0
-191 -247 -563 0
-192 -248 -564 0
-193 -245 -565 0
-194 -246 -566 0
-195 -247 -567 0
-196 -248 -568 0
-197 -245 -569 0
-198 -246 -570 0
-199 -247 -571 0
-200 -248 -572 0
-201 -245 -573 0
-202 -246 -574 0
-203 -247 -575 0
-204 -248 -576 0
-205 -245 -577 0
-206 -246 -578 0
-207 -247 -579 0
-208 -248 -580 0
-209 -245 -581 0
-210 -246 -582 0
-211 -247 -583 0
-212 -248 -584 0
-213 -245 -585 0
-214 -246 -586 0
-215 -247 -587 0
-216 -248 -588 0
-217 -245 -589 0
-218 -246 -590 0
-219 -247 -591 0
-220 -248 -592 0
-221 -245 -593 0
-222 -246 -594 0
-223 -247 -595 0
-224 -248 -596 0
-225 -245 -597 0
-226 -246 -598 0
-227 -247 -599 0
-228 -248 -600 0
-229 -245 -601 0
-230 -246 -602 0
-231 -247 -603 0
-232 -248 -604 0
-233 -245 -605 0
-234 -246 -606 0
-235 -247 -607 0
-236 -248 -608 0
-237 -245 -609 0
-238 -246 -610 0
-239 -247 -611 0
-240 -248 -612 0
-241 -245 -613 0
-242 -246 -614 0
-243 -247 -615 0
-244 -248 -616 0
-245 -617 0
-246 -618 0
-247 -619 0
-248 -620 0
-245 -249 -621 0
-246 -250 -622 0
-247 -251 -623 0
-248 -252 -624 0
-245 -253 -625 0
-246 -254 -626 0
-247 -255 -627 0
-248 -256 -628 0
-245 -257 -629 0
-246 -258 -630 0
-247 -259 -631 0
-248 -260 -632 0
-245 -261 -633 0
-246 -262 -634 0
-247 -263 -635 0
-248 -264 -636 0
-245 -265 -637 0
-246 -266 -638 0
-247 -267 -639 0
-248 -268 -640 0
-245 -269 -641 0
-246 -270 -642 0
-247 -271 -643 0
-248 -272 -644 0
-245 -273 -645 0
-246 -274 -646 0
-247 -275 -647 0
-248 -276 -648 0
-245 -277 -649 0
-246 -278 -650 0
-247 -279 -651 0
-248 -280 -652 0
-245 -281 -653 0
-246 -282 -654 0
-247 -283 -655 0
-248 -284 -656 0
-245 -285 -657 0
-246 -286 -658 0
-247 -287 -659 0
-248 -288 -660 0
-245 -289 -661 0
-246 -290 -662 0
-247 -291 -663 0
-248 -292 -664 0
-245 -293 -665 0
-246 -294 -666 0
-247 -295 -667 0
-248 -296 -668 0
-245 -297 -669 0
-246 -298 -670 0
-247 -299 -671 0
-248 -300 -672 0
-245 -301 -673 0
-246 -302 -674 0
-247 -303 -675 0
-248 -304 -676 0
-245 -305 -677 0
-246 -306 -678 0
-247 -307 -679 0
-248 -308 -680 0
-245 -309 -681 0
-246 -310 -682 0
-247 -311 -683 0
-248 -312 -684 0
-245 -313 -685 0
-246 -314 -686 0
-247 -315 -687 0
-248 -316 -688 0
-245 -317 -689 0
-246 -318 -690 0
-247 -319 -691 0
-248 -320 -692 0
-245 -321 -693 0
-246 -322 -694 0
-247 -323 -695 0
-248 -324 -696 0
-245 -325 -697 0
-246 -326 -698 0
-247 -327 -699 0
-248 -328 -700 0
-245 -329 -701 0
-246 -330 -702 0
-247 -331 -703 0
-248 -332 -704 0
-245 -333 -705 0
-246 -334 -706 0
-247 -335 -707 0
-248 -336 -708 0
-245 -337 -709 0
-246 -338 -710 0
-247 -339 -711 0
-248 -340 -712 0
-245 -341 -713 0
-246 -342 -714 0
-247 -343 -715 0
-248 -344 -716 0
-245 -345 -717 0
-246 -346 -718 0
-247 -347 -719 0
-248 -348 -720 0
-245 -349 -721 0
-246 -350 -722 0
-247 -351 -723 0
-248 -352 -724 0
-245 -353 -725 0
-246 -354 -726 0
-247 -355 -727 0
-248 -356 -728 0
-245 -357 -729 0
-246 -358 -730 0
-247 -359 -731 0
-248 -360 -732 0
-245 -361 -733 0
-246 -362 -734 0
-247 -363 -735 0
-248 -364 -736 0
-245 -365 -737 0
-246 -366 -738 0
-247 -367 -739 0
-248 -368 -740 0
-245 -369 -741 0
-246 -370 -742 0
-247 -371 -743 0
-248 -372 -744 0
-245 -373 -745 0
-246 -374 -746 0
-247 -375 -747 0
-248 -376 -748 0
-245 -377 -749 0
-246 -378 -750 0
-247 -379 -751 0
-248 -380 -752 0
-245 -381 -753 0
-246 -382 -754 0
-247 -383 -755 0
-248 -384 -756 0
-245 -385 -757 0
-246 -386 -758 0
-247 -387 -759 0
-248 -388 -760 0
-245 -389 -761 0
-246 -390 -762 0
-247 -391 -763 0
-248 -392 -764 0
-245 -393 -765 0
-246 -394 -766 0
-247 -395 -767 0
-248 -396 -768 0
-245 -397 -769 0
-246 -398 -770 0
-247 -399 -771 0
-248 -400 -772 0
-245 -401 -773 0
-246 -402 -774 0
-247 -403 -775 0
-248 -404 -776 0
-245 -405 -777 0
-246 -406 -778 0
-247 -407 -779 0
-248 -408 -780 0
-245 -409 -781 0
-246 -410 -782 0
-247 -411 -783 0
-248 -412 -784 0
-245 -413 -785 0
-246 -414 -786 0
-247 -415 -787 0
-248 -416 -788 0
-245 -417 -789 0
-246 -418 -790 0
-247 -419 -791 0
-248 -420 -792 0
-245 -421 -793 0
-246 -422 -794 0
-247 -423 -795 0
-248 -424 -796 0
-245 -425 -797 0
-246 -426 -798 0
-247 -427 -799 0
-248 -428 -800 0
-245 -429 -801 0
-246 -430 -802 0
-247 -431 -803 0
-248 -432 -804 0
-245 -433 -805 0
-246 -434 -806 0
-247 -435 -807 0
-248 -436 -808 0
-245 -437 -809 0
-246 -438 -810 0
-247 -439 -811 0
-248 -440 -812 0
-245 -441 -813 0
-246 -442 -814 0
-247 -443 -815 0
-248 -444 -816 0
-245 -445 -817 0
-246 -446 -818 0
-247 -447 -819 0
-248 -448 -820 0
-245 -449 -821 0
-246 -450 -822 0
-247 -451 -823 0
-248 -452 -824 0
-245 -453 -825 0
-246 -454 -826 0
-247 -455 -827 0
-248 -456 -828 0
-245 -457 -829 0
-246 -458 -830 0
-247 -459 -831 0
-248 -460 -832 0
-245 -461 -833 0
-246 -462 -834 0
-247 -463 -835 0
-248 -464 -836 0
-245 -465 -837 0
-246 -466 -838 0
-247 -467 -839 0
-248 -468 -840 0
-245 -469 -841 0
-246 -470 -842 0
-247 -471 -843 0
-248 -472 -844 0
-245 -473 -845 0
-246 -474 -846 0
-247 -475 -847 0
-248 -476 -848 0
-245 -477 -849 0
-246 -478 -850 0
-247 -479 -851 0
-248 -480 -852 0
-245 -481 -853 0
-246 -482 -854 0
-247 -483 -855 0
-248 -484 -856 0
-245 -485 -857 0
-246 -486 -858 0
-247 -487 -859 0
-248 -488 -860 0
-245 -489 -861 0
-246 -490 -862 0
-247 -491 -863 0
-248 -492 -864 0
-245 -493 -865 0
-246 -494 -866 0
-247 -495 -867 0
-248 -496 -868 0
-245 -497 -869 0
-246 -498 -870 0
-247 -499 -871 0
-248 -500 -872 0
-245 -501 -873 0
-246 -502 -874 0
-247 -503 -875 0
-248 -504 -876 0
-245 -505 -877 0
-246 -506 -878 0
-247 -507 -879 0
-248 -508 -880 0
-245 -509 -881 0
-246 -510 -882 0
-247 -511 -883 0
-248 -512 -884 0
-245 -513 -885 0
-246 -514 -886 0
-247 -515 -887 0
-248 -516 -888 0
-245 -517 -889 0
-246 -518 -890 0
-247 -519 -891 0
-248 -520 -892 0
-245 -521 -893 0
-246 -522 -894 0
-247 -523 -895 0
-248 -524 -896 0
-245 -525 -897 0
-246 -526 -898 0
-247 -527 -899 0
-248 -528 -900 0
-245 -529 -901 0
-246 -530 -902 0
-247 -531 -903 0
-248 -532 -904 0
-1 -253 -385 0
-2 -254 -386 0
-3 -255 -387 0
-4 -256 -388 0
-5 -253 -389 0
-6 -254 -390 0
-7 -255 -391 0
-8 -256 -392 0
-9 -253 -393 0
-10 -254 -394 0
-11 -255 -395 0
-12 -256 -396 0
-13 -253 -397 0
-14 -254 -398 0
-15 -255 -399 0
-16 -256 -400 0
-17 -253 -401 0
-18 -254 -402 0
-19 -255 -403 0
-20 -256 -404 0
-21 -253 -405 0
-22 -254 -406 0
-23 -255 -407 0
-24 -256 -408 0
-25 -253 -409 0
-26 -254 -410 0
-27 -255 -411 0
-28 -256 -412 0
-29 -253 -413 0
-30 -254 -414 0
-31 -255 -415 0
-32 -256 -416 0
-33 -253 -417 0
-34 -254 -418 0
-35 -255 -419 0
-36 -256 -420 0
-37 -253 -421 0
-38 -254 -422 0
-39 -255 -423 0
-40 -256 -424 0
-41 -253 -425 0
-42 -254 -426 0
-43 -255 -427 0
-44 -256 -428 0
-45 -253 -429 0
-46 -254 -430 0
-47 -255 -431 0
-48 -256 -432 0
-49 -253 -433 0
-50 -254 -434 0
-51 -255 -435 0
-52 -256 -436 0
-53 -253 -437 0
-54 -254 -438 0
-55 -255 -439 0
-56 -256 -440 0
-57 -253 -441 0
-58 -254 -442 0
-59 -255 -443 0
-60 -256 -444 0
-61 -253 -445 0
-62 -254 -446 0
-63 -255 -447 0
-64 -256 -448 0
-65 -253 -449 0
-66 -254 -450 0
-67 -255 -451 0
-68 -256 -452 0
-69 -253 -453 0
-70 -254 -454 0
-71 -255 -455 0
-72 -256 -456 0
-73 -253 -457 0
-74 -254 -458 0
-75 -255 -459 0
-76 -256 -460 0
-77 -253 -461 0
-78 -254 -462 0
-79 -255 -463 0
-80 -256 -464 0
-81 -253 -465 0
-82 -254 -466 0
-83 -255 -467 0
-84 -256 -468 0
-85 -253 -469 0
-86 -254 -470 0
-87 -255 -471 0
-88 -256 -472 0
-89 -253 -473 0
-90 -254 -474 0
-91 -255 -475 0
-92 -256 -476 0
-93 -253 -477 0
-94 -254 -478 0
-95 -255 -479 0
-96 -256 -480 0
-97 -253 -481 0
-98 -254 -482 0
-99 -255 -483 0
-100 -256 -484 0
-101 -253 -485 0
-102 -254 -486 0
-103 -255 -487 0
-104 -256 -488 0
-105 -253 -489 0
-106 -254 -490 0
-107 -255 -491 0
-108 -256 -492 0
-109 -253 -493 0
-110 -254 -494 0
-111 -255 -495 0
-112 -256 -496 0
-113 -253 -497 0
-114 -254 -498 0
-115 -255 -499 0
-116 -256 -500 0
-117 -253 -501 0
-118 -254 -502 0
-119 -255 -503 0
-120 -256 -504 0
-121 -253 -505 0
-122 -254 -506 0
-123 -255 -507 0
-124 -256 -508 0
-125 -253 -509 0
-126 -254 -510 0
-127 -255 -511 0
-128 -256 -512 0
-129 -253 -513 0
-130 -254 -514 0
-131 -255 -515 0
-132 -256 -516 0
-133 -253 -517 0
-134 -254 -518 0
-135 -255 -519 0
-136 -256 -520 0
-137 -253 -521 0
-138 -254 -522 0
-139 -255 -523 0
-140 -256 -524 0
-141 -253 -525 0
-142 -254 -526 0
-143 -255 -527 0
-144 -256 -528 0
-145 -253 -529 0
-146 -254 -530 0
-147 -255 -531 0
-148 -256 -532 0
-149 -253 -533 0
-150 -254 -534 0
-151 -255 -535 0
-152 -256 -536 0
-153 -253 -537 0
-154 -254 -538 0
-155 -255 -539 0
-156 -256 -540 0
-157 -253 -541 0
-158 -254 -542 0
-159 -255 -543 0
-160 -256 -544 0
-161 -253 -545 0
-162 -254 -546 0
-163 -255 -547 0
-164 -256 -548 0
-165 -253 -549 0
-166 -254 -550 0
-167 -255 -551 0
-168 -256 -552 0
-169 -253 -553 0
-170 -254 -554 0
-171 -255 -555 0
-172 -256 -556 0
-173 -253 -557 0
-174 -254 -558 0
-175 -255 -559 0
-176 -256 -560 0
-177 -253 -561 0
-178 -254 -562 0
-179 -255 -563 0
-180 -256 -564 0
-181 -253 -565 0
-182 -254 -566 0
-183 -255 -567 0
-184 -256 -568 0
-185 -253 -569 0
-186 -254 -570 0
-187 -255 -571 0
-188 -256 -572 0
-189 -253 -573 0
-190 -254 -574 0
-191 -255 -575 0
-192 -256 -576 0
-193 -253 -577 0
-194 -254 -578 0
-195 -255 -579 0
-196 -256 -580 0
-197 -253 -581 0
-198 -254 -582 0
-199 -255 -583 0
-200 -256 -584 0
-201 -253 -585 0
-202 -254 -586 0
-203 -255 -587 0
-204 -256 -588 0
-205 -253 -589 0
-206 -254 -590 0
-207 -255 -591 0
-208 -256 -592 0
-209 -253 -593 0
-210 -254 -594 0
-211 -255 -595 0
-212 -256 -596 0
-213 -253 -597 0
-214 -254 -598 0
-215 -255 -599 0
-216 -256 -600 0
-217 -253 -601 0
-218 -254 -602 0
-219 -255 -603 0
-220 -256 -604 0
-221 -253 -605 0
-222 -254 -606 0
-223 -255 -607 0
-224 -256 -608 0
-225 -253 -609 0
-226 -254 -610 0
-227 -255 -611 0
-228 -256 -612 0
-229 -253 -613 0
-230 -254 -614 0
-231 -255 -615 0
-232 -256 -616 0
-233 -253 -617 0
-234 -254 -618 0
-235 -255 -619 0
-236 -256 -620 0
-237 -253 -621 0
-238 -254 -622 0
-239 -255 -623 0
-240 -256 -624 0
-241 -253 -625 0
-242 -254 -626 0
-243 -255 -627 0
-244 -256 -628 0
-245 -253 -629 0
-246 -254 -630 0
-247 -255 -631 0
-248 -256 -632 0
-249 -253 -633 0
-250 -254 -634 0
-251 -255 -635 0
-252 -256 -636 0
-253 -637 0
-254 -638 0
-255 -639 0
-256 -640 0
-253 -257 -641 0
-254 -258 -642 0
-255 -259 -643 0
-256 -260 -644 0
-253 -261 -645 0
-254 -262 -646 0
-255 -263 -647 0
-256 -264 -648 0
-253 -265 -649 0
-254 -266 -650 0
-255 -267 -651 0
-256 -268 -652 0
-253 -269 -653 0
-254 -270 -654 0
-255 -271 -655 0
-256 -272 -656 0
-253 -273 -657 0
-254 -274 -658 0
-255 -275 -659 0
-256 -276 -660 0
-253 -277 -661 0
-254 -278 -662 0
-255 -279 -663 0
-256 -280 -664 0
-253 -281 -665 0
-254 -282 -666 0
-255 -283 -667 0
-256 -284 -668 0
-253 -285 -669 0
-254 -286 -670 0
-255 -287 -671 0
-256 -288 -672 0
-253 -289 -673 0
-254 -290 -674 0
-255 -291 -675 0
-256 -292 -676 0
-253 -293 -677 0
-254 -294 -678 0
-255 -295 -679 0
-256 -296 -680 0
-253 -297 -681 0
-254 -298 -682 0
-255 -299 -683 0
-256 -300 -684 0
-253 -301 -685 0
-254 -302 -686 0
-255 -303 -687 0
-256 -304 -688 0
-253 -305 -689 0
-254 -306 -690 0
-255 -307 -691 0
-256 -308 -692 0
-253 -309 -693 0
-254 -310 -694 0
-255 -311 -695 0
-256 -312 -696 0
-253 -313 -697 0
-254 -314 -698 0
-255 -315 -699 0
-256 -316 -700 0
-253 -317 -701 0
-254 -318 -702 0
-255 -319 -703 0
-256 -320 -704 0
-253 -321 -705 0
-254 -322 -706 0
-255 -323 -707 0
-256 -324 -708 0
-253 -325 -709 0
-254 -326 -710 0
-255 -327 -711 0
-256 -328 -712 0
-253 -329 -713 0
-254 -330 -714 0
-255 -331 -715 0
-256 -332 -716 0
-253 -333 -717 0
-254 -334 -718 0
-255 -335 -719 0
-256 -336 -720 0
-253 -337 -721 0
-254 -338 -722 0
-255 -339 -723 0
-256 -340 -724 0
-253 -341 -725 0
-254 -342 -726 0
-255 -343 -727 0
-256 -344 -728 0
-253 -345 -729 0
-254 -346 -730 0
-255 -347 -731 0
-256 -348 -732 0
-253 -349 -733 0
-254 -350 -734 0
-255 -351 -735 0
-256 -352 -736 0
-253 -353 -737 0
-254 -354 -738 0
-255 -355 -739 0
-256 -356 -740 0
-253 -357 -741 0
-254 -358 -742 0
-255 -359 -743 0
-256 -360 -744 0
-253 -361 -745 0
-254 -362 -746 0
-255 -363 -747 0
-256 -364 -748 0
-253 -365 -749 0
-254 -366 -750 0
-255 -367 -751 0
-256 -368 -752 0
-253 -369 -753 0
-254 -370 -754 0
-255 -371 -755 0
-256 -372 -756 0
-253 -373 -757 0
-254 -374 -758 0
-255 -375 -759 0
-256 -376 -760 0
-253 -377 -761 0
-254 -378 -762 0
-255 -379 -763 0
-256 -380 -764 0
-253 -381 -765 0
-254 -382 -766 0
-255 -383 -767 0
-256 -384 -768 0
-253 -385 -769 0
-254 -386 -770 0
-255 -387 -771 0
-256 -388 -772 0
-253 -389 -773 0
-254 -390 -774 0
-255 -391 -775 0
-256 -392 -776 0
-253 -393 -777 0
-254 -394 -778 0
-255 -395 -779 0
-256 -396 -780 0
-253 -397 -781 0
-254 -398 -782 0
-255 -399 -783 0
-256 -400 -784 0
-253 -401 -785 0
-254 -402 -786 0
-255 -403 -787 0
-256 -404 -788 0
-253 -405 -789 0
-254 -406 -790 0
-255 -407 -791 0
-256 -408 -792 0
-253 -409 -793 0
-254 -410 -794 0
-255 -411 -795 0
-256 -412 -796 0
-253 -413 -797 0
-254 -414 -798 0
-255 -415 -799 0
-256 -416 -800 0
-253 -417 -801 0
-254 -418 -802 0
-255 -419 -803 0
-256 -420 -804 0
-253 -421 -805 0
-254 -422 -806 0
-255 -423 -807 0
-256 -424 -808 0
-253 -425 -809 0
-254 -426 -810 0
-255 -427 -811 0
-256 -428 -812 0
-253 -429 -813 0
-254 -430 -814 0
-255 -431 -815 0
-256 -432 -816 0
-253 -433 -817 0
-254 -434 -818 0
-255 -435 -819 0
-256 -436 -820 0
-253 -437 -821 0
-254 -438 -822 0
-255 -439 -823 0
-256 -440 -824 0
-253 -441 -825 0
-254 -442 -826 0
-255 -443 -827 0
-256 -444 -828 0
-253 -445 -829 0
-254 -446 -830 0
-255 -447 -831 0
-256 -448 -832 0
-253 -449 -833 0
-254 -450 -834 0
-255 -451 -835 0
-256 -452 -836 0
-253 -453 -837 0
-254 -454 -838 0
-255 -455 -839 0
-256 -456 -840 0
-253 -457 -841 0
-254 -458 -842 0
-255 -459 -843 0
-256 -460 -844 0
-253 -461 -845 0
-254 -462 -846 0
-255 -463 -847 0
-256 -464 -848 0
-253 -465 -849 0
-254 -466 -850 0
-255 -467 -851 0
-256 -468 -852 0
-253 -469 -853 0
-254 -470 -854 0
-255 -471 -855 0
-256 -472 -856 0
-253 -473 -857 0
-254 -474 -858 0
-255 -475 -859 0
-256 -476 -860 0
-253 -477 -861 0
-254 -478 -862 0
-255 -479 -863 0
-256 -480 -864 0
-253 -481 -865 0
-254 -482 -866 0
-255 -483 -867 0
-256 -484 -868 0
-253 -485 -869 0
-254 -486 -870 0
-255 -487 -871 0
-256 -488 -872 0
-253 -489 -873 0
-254 -490 -874 0
-255 -491 -875 0
-256 -492 -876 0
-253 -493 -877 0
-254 -494 -878 0
-255 -495 -879 0
-256 -496 -880 0
-253 -497 -881 0
-254 -498 -882 0
-255 -499 -883 0
-256 -500 -884 0
-253 -501 -885 0
-254 -502 -886 0
-255 -503 -887 0
-256 -504 -888 0
-253 -505 -889 0
-254 -506 -890 0
-255 -507 -891 0
-256 -508 -892 0
-253 -509 -893 0
-254 -510 -894 0
-255 -511 -895 0
-256 -512 -896 0
-253 -513 -897 0
-254 -514 -898 0
-255 -515 -899 0
-256 -516 -900 0
-253 -517 -901 0
-254 -518 -902 0
-255 -519 -903 0
-256 -520 -904 0
-1 -261 -397 0
-2 -262 -398 0
-3 -263 -399 0
-4 -264 -400 0
-5 -261 -401 0
-6 -262 -402 0
-7 -263 -403 0
-8 -264 -404 0
-9 -261 -405 0
-10 -262 -406 0
-11 -263 -407 0
-12 -264 -408 0
-13 -261 -409 0
-14 -262 -410 0
-15 -263 -411 0
-16 -264 -412 0
-17 -261 -413 0
-18 -262 -414 0
-19 -263 -415 0
-20 -264 -416 0
-21 -261 -417 0
-22 -262 -418 0
-23 -263 -419 0
-24 -264 -420 0
-25 -261 -421 0
-26 -262 -422 0
-27 -263 -423 0
-28 -264 -424 0
-29 -261 -425 0
-30 -262 -426 0
-31 -263 -427 0
-32 -264 -428 0
-33 -261 -429 0
-34 -262 -430 0
-35 -263 -431 0
-36 -264 -432 0
-37 -261 -433 0
-38 -262 -434 0
-39 -263 -435 0
-40 -264 -436 0
-41 -261 -437 0
-42 -262 -438 0
-43 -263 -439 0
-44 -264 -440 0
-45 -261 -441 0
-46 -262 -442 0
-47 -263 -443 0
-48 -264 -444 0
-49 -261 -445 0
-50 -262 -446 0
-51 -263 -447 0
-52 -264 -448 0
-53 -261 -449 0
-54 -262 -450 0
-55 -263 -451 0
-56 -264 -452 0
-57 -261 -453 0
-58 -262 -454 0
-59 -263 -455 0
-60 -264 -456 0
-61 -261 -457 0
-62 -262 -458 0
-63 -263 -459 0
-64 -264 -460 0
-65 -261 -461 0
-66 -262 -462 0
-67 -263 -463 0
-68 -264 -464 0
-69 -261 -465 0
-70 -262 -466 0
-71 -263 -467 0
-72 -264 -468 0
-73 -261 -469 0
-74 -262 -470 0
-75 -263 -471 0
-76 -264 -472 0
-77 -261 -473 0
-78 -262 -474 0
-79 -263 -475 0
-80 -264 -476 0
-81 -261 -477 0
-82 -262 -478 0
-83 -263 -479 0
-84 -264 -480 0
-85 -261 -481 0
-86 -262 -482 0
-87 -263 -483 0
-88 -264 -484 0
-89 -261 -485 0
-90 -262 -486 0
-91 -263 -487 0
-92 -264 -488 0
-93 -261 -489 0
-94 -262 -490 0
-95 -263 -491 0
-96 -264 -492 0
-97 -261 -493 0
-98 -262 -494 0
-99 -263 -495 0
-100 -264 -496 0
-101 -261 -497 0
-102 -262 -498 0
-103 -263 -499 0
-104 -264 -500 0
-105 -261 -501 0
-106 -262 -502 0
-107 -263 -503 0
-108 -264 -504 0
-109 -261 -505 0
-110 -262 -506 0
-111 -263 -507 0
-112 -264 -508 0
-113 -261 -509 0
-114 -262 -510 0
-115 -263 -511 0
-116 -264 -512 0
-117 -261 -513 0
-118 -262 -514 0
-119 -263 -515 0
-120 -264 -516 0
-121 -261 -517 0
-122 -262 -518 0
-123 -263 -519 0
-124 -264 -520 0
-125 -261 -521 0
-126 -262 -522 0
-127 -263 -523 0
-128 -264 -524 0
-129 -261 -525 0
-130 -262 -526 0
-131 -263 -527 0
-132 -264 -528 0
-133 -261 -529 0
-134 -262 -530 0
-135 -263 -531 0
-136 -264 -532 0
-137 -261 -533 0
-138 -262 -534 0
-139 -263 -535 0
-140 -264 -536 0
-141 -261 -537 0
-142 -262 -538 0
-143 -263 -539 0
-144 -264 -540 0
-145 -261 -541 0
-146 -262 -542 0
-147 -263 -543 0
-148 -264 -544 0
-149 -261 -545 0
-150 -262 -546 0
-151 -263 -547 0
-152 -264 -548 0
-153 -261 -549 0
-154 -262 -550 0
-155 -263 -551 0
-156 -264 -552 0
-157 -261 -553 0
-158 -262 -554 0
-159 -263 -555 0
-160 -264 -556 0
-161 -261 -557 0
-162 -262 -558 0
-163 -263 -559 0
-164 -264 -560 0
-165 -261 -561 0
-166 -262 -562 0
-167 -263 -563 0
-168 -264 -564 0
-169 -261 -565 0
-170 -262 -566 0
-171 -263 -567 0
-172 -264 -568 0
-173 -261 -569 0
-174 -262 -570 0
-175 -263 -571 0
-176 -264 -572 0
-177 -261 -573 0
-178 -262 -574 0
-179 -263 -575 0
-180 -264 -576 0
-181 -261 -577 0
-182 -262 -578 0
-183 -263 -579 0
-184 -264 -580 0
-185 -261 -581 0
-186 -262 -582 0
-187 -263 -583 0
-188 -264 -584 0
-189 -261 -585 0
-190 -262 -586 0
-191 -263 -587 0
-192 -264 -588 0
-193 -261 -589 0
-194 -262 -590 0
-195 -263 -591 0
-196 -264 -592 0
-197 -261 -593 0
-198 -262 -594 0
-199 -263 -595 0
-200 -264 -596 0
-201 -261 -597 0
-202 -262 -598 0
-203 -263 -599 0
-204 -264 -600 0
-205 -261 -601 0
-206 -262 -602 0
-207 -263 -603 0
-208 -264 -604 0
-209 -261 -605 0
-210 -262 -606 0
-211 -263 -607 0
-212 -264 -608 0
-213 -261 -609 0
-214 -262 -610 0
-215 -263 -611 0
-216 -264 -612 0
-217 -261 -613 0
-218 -262 -614 0
-219 -263 -615 0
-220 -264 -616 0
-221 -261 -617 0
-222 -262 -618 0
-223 -263 -619 0
-224 -264 -620 0
-225 -261 -621 0
-226 -262 -622 0
-227 -263 -623 0
-228 -264 -624 0
-229 -261 -625 0
-230 -262 -626 0
-231 -263 -627 0
-232 -264 -628 0
-233 -261 -629 0
-234 -262 -630 0
-235 -263 -631 0
-236 -264 -632 0
-237 -261 -633 0
-238 -262 -634 0
-239 -263 -635 0
-240 -264 -636 0
-241 -261 -637 0
-242 -262 -638 0
-243 -263 -639 0
-244 -264 -640 0
-245 -261 -641 0
-246 -262 -642 0
-247 -263 -643 0
-248 -264 -644 0
-249 -261 -645 0
-250 -262 -646 0
-251 -263 -647 0
-252 -264 -648 0
-253 -261 -649 0
-254 -262 -650 0
-255 -263 -651 0
-256 -264 -652 0
-257 -261 -653 0
-258 -262 -654 0
-259 -263 -655 0
-260 -264 -656 0
-261 -657 0
-262 -658 0
-263 -659 0
-264 -660 0
-261 -265 -661 0
-262 -266 -662 0
-263 -267 -663 0
-264 -268 -664 0
-261 -269 -665 0
-262 -270 -666 0
-263 -271 -667 0
-264 -272 -668 0
-261 -273 -669 0
-262 -274 -670 0
-263 -275 -671 0
-264 -276 -672 0
-261 -277 -673 0
-262 -278 -674 0
-263 -279 -675 0
-264 -280 -676 0
-261 -281 -677 0
-262 -282 -678 0
-263 -283 -679 0
-264 -284 -680 0
-261 -285 -681 0
-262 -286 -682 0
-263 -287 -683 0
-264 -288 -684 0
-261 -289 -685 0
-262 -290 -686 0
-263 -291 -687 0
-264 -292 -688 0
-261 -293 -689 0
-262 -294 -690 0
-263 -295 -691 0
-264 -296 -692 0
-261 -297 -693 0
-262 -298 -694 0
-263 -299 -695 0
-264 -300 -696 0
-261 -301 -697 0
-262 -302 -698 0
-263 -303 -699 0
-264 -304 -700 0
-261 -305 -701 0
-262 -306 -702 0
-263 -307 -703 0
-264 -308 -704 0
-261 -309 -705 0
-262 -310 -706 0
-263 -311 -707 0
-264 -312 -708 0
-261 -313 -709 0
-262 -314 -710 0
-263 -315 -711 0
-264 -316 -712 0
-261 -317 -713 0
-262 -318 -714 0
-263 -319 -715 0
-264 -320 -716 0
-261 -321 -717 0
-262 -322 -718 0
-263 -323 -719 0
-264 -324 -720 0
-261 -325 -721 0
-262 -326 -722 0
-263 -327 -723 0
-264 -328 -724 0
-261 -329 -725 0
-262 -330 -726 0
-263 -331 -727 0
-264 -332 -728 0
-261 -333 -729 0
-262 -334 -730 0
-263 -335 -731 0
-264 -336 -732 0
-261 -337 -733 0
-262 -338 -734 0
-263 -339 -735 0
-264 -340 -736 0
-261 -341 -737 0
-262 -342 -738 0
-263 -343 -739 0
-264 -344 -740 0
-261 -345 -741 0
-262 -346 -742 0
-263 -347 -743 0
-264 -348 -744 0
-261 -349 -745 0
-262 -350 -746 0
-263 -351 -747 0
-264 -352 -748 0
-261 -353 -749 0
-262 -354 -750 0
-263 -355 -751 0
-264 -356 -752 0
-261 -357 -753 0
-262 -358 -754 0
-263 -359 -755 0
-264 -360 -756 0
-261 -361 -757 0
-262 -362 -758 0
-263 -363 -759 0
-264 -364 -760 0
-261 -365 -761 0
-262 -366 -762 0
-263 -367 -763 0
-264 -368 -764 0
-261 -369 -765 0
-262 -370 -766 0
-263 -371 -767 0
-264 -372 -768 0
-261 -373 -769 0
-262 -374 -770 0
-263 -375 -771 0
-264 -376 -772 0
-261 -377 -773 0
-262 -378 -774 0
-263 -379 -775 0
-264 -380 -776 0
-261 -381 -777 0
-262 -382 -778 0
-263 -383 -779 0
-264 -384 -780 0
-261 -385 -781 0
-262 -386 -782 0
-263 -387 -783 0
-264 -388 -784 0
-261 -389 -785 0
-262 -390 -786 0
-263 -391 -787 0
-264 -392 -788 0
-261 -393 -789 0
-262 -394 -790 0
-263 -395 -791 0
-264 -396 -792 0
-261 -397 -793 0
-262 -398 -794 0
-263 -399 -795 0
-264 -400 -796 0
-261 -401 -797 0
-262 -402 -798 0
-263 -403 -799 0
-264 -404 -800 0
-261 -405 -801 0
-262 -406 -802 0
-263 -407 -803 0
-264 -408 -804 0
-261 -409 -805 0
-262 -410 -806 0
-263 -411 -807 0
-264 -412 -808 0
-261 -413 -809 0
-262 -414 -810 0
-263 -415 -811 0
-264 -416 -812 0
-261 -417 -813 0
-262 -418 -814 0
-263 -419 -815 0
-264 -420 -816 0
-261 -421 -817 0
-262 -422 -818 0
-263 -423 -819 0
-264 -424 -820 0
-261 -425 -821 0
-262 -426 -822 0
-263 -427 -823 0
-264 -428 -824 0
-261 -429 -825 0
-262 -430 -826 0
-263 -431 -827 0
-264 -432 -828 0
-261 -433 -829 0
-262 -434 -830 0
-263 -435 -831 0
-264 -436 -832 0
-261 -437 -833 0
-262 -438 -834 0
-263 -439 -835 0
-264 -440 -836 0
-261 -441 -837 0
-262 -442 -838 0
-263 -443 -839 0
-264 -444 -840 0
-261 -445 -841 0
-262 -446 -842 0
-263 -447 -843 0
-264 -448 -844 0
-261 -449 -845 0
-262 -450 -846 0
-263 -451 -847 0
-264 -452 -848 0
-261 -453 -849 0
-262 -454 -850 0
-263 -455 -851 0
-264 -456 -852 0
-261 -457 -853 0
-262 -458 -854 0
-263 -459 -855 0
-264 -460 -856 0
-261 -461 -857 0
-262 -462 -858 0
-263 -463 -859 0
-264 -464 -860 0
-261 -465 -861 0
-262 -466 -862 0
-263 -467 -863 0
-264 -468 -864 0
-261 -469 -865 0
-262 -470 -866 0
-263 -471 -867 0
-264 -472 -868 0
-261 -473 -869 0
-262 -474 -870 0
-263 -475 -871 0
-264 -476 -872 0
-261 -477 -873 0
-262 -478 -874 0
-263 -479 -875 0
-264 -480 -876 0
-261 -481 -877 0
-262 -482 -878 0
-263 -483 -879 0
-264 -484 -880 0
-261 -485 -881 0
-262 -486 -882 0
-263 -487 -883 0
-264 -488 -884 0
-261 -489 -885 0
-262 -490 -886 0
-263 -491 -887 0
-264 -492 -888 0
-261 -493 -889 0
-262 -494 -890 0
-263 -495 -891 0
-264 -496 -892 0
-261 -497 -893 0
-262 -498 -894 0
-263 -499 -895 0
-264 -500 -896 0
-261 -501 -897 0
-262 -502 -898 0
-263 -503 -899 0
-264 -504 -900 0
-261 -505 -901 0
-262 -506 -902 0
-263 -507 -903 0
-264 -508 -904 0
-1 -269 -409 0
-2 -270 -410 0
-3 -271 -411 0
-4 -272 -412 0
-5 -269 -413 0
-6 -270 -414 0
-7 -271 -415 0
-8 -272 -416 0
-9 -269 -417 0
-10 -270 -418 0
-11 -271 -419 0
-12 -272 -420 0
-13 -269 -421 0
-14 -270 -422 0
-15 -271 -423 0
-16 -272 -424 0
-17 -269 -425 0
-18 -270 -426 0
-19 -271 -427 0
-20 -272 -428 0
-21 -269 -429 0
-22 -270 -430 0
-23 -271 -431 0
-24 -272 -432 0
-25 -269 -433 0
-26 -270 -434 0
-27 -271 -435 0
-28 -272 -436 0
-29 -269 -437 0
-30 -270 -438 0
-31 -271 -439 0
-32 -272 -440 0
-33 -269 -441 0
-34 -270 -442 0
-35 -271 -443 0
-36 -272 -444 0
-37 -269 -445 0
-38 -270 -446 0
-39 -271 -447 0
-40 -272 -448 0
-41 -269 -449 0
-42 -270 -450 0
-43 -271 -451 0
-44 -272 -452 0
-45 -269 -453 0
-46 -270 -454 0
-47 -271 -455 0
-48 -272 -456 0
-49 -269 -457 0
-50 -270 -458 0
-51 -271 -459 0
-52 -272 -460 0
-53 -269 -461 0
-54 -270 -462 0
-55 -271 -463 0
-56 -272 -464 0
-57 -269 -465 0
-58 -270 -466 0
-59 -271 -467 0
-60 -272 -468 0
-61 -269 -469 0
-62 -270 -470 0
-63 -271 -471 0
-64 -272 -472 0
-65 -269 -473 0
-66 -270 -474 0
-67 -271 -475 0
-68 -272 -476 0
-69 -269 -477 0
-70 -270 -478 0
-71 -271 -479 0
-72 -272 -480 0
-73 -269 -481 0
-74 -270 -482 0
-75 -271 -483 0
-76 -272 -484 0
-77 -269 -485 0
-78 -270 -486 0
-79 -271 -487 0
-80 -272 -488 0
-81 -269 -489 0
-82 -270 -490 0
-83 -271 -491 0
-84 -272 -492 0
-85 -269 -493 0
-86 -270 -494 0
-87 -271 -495 0
-88 -272 -496 0
-89 -269 -497 0
-90 -270 -498 0
-91 -271 -499 0
-92 -272 -500 0
-93 -269 -501 0
-94 -270 -502 0
-95 -271 -503 0
-96 -272 -504 0
-97 -269 -505 0
-98 -270 -506 0
-99 -271 -507 0
-100 -272 -508 0
-101 -269 -509 0
-102 -270 -510 0
-103 -271 -511 0
-104 -272 -512 0
-105 -269 -513 0
-106 -270 -514 0
-107 -271 -515 0
-108 -272 -516 0
-109 -269 -517 0
-110 -270 -518 0
-111 -271 -519 0
-112 -272 -520 0
-113 -269 -521 0
-114 -270 -522 0
-115 -271 -523 0
-116 -272 -524 0
-117 -269 -525 0
-118 -270 -526 0
-119 -271 -527 0
-120 -272 -528 0
-121 -269 -529 0
-122 -270 -530 0
-123 -271 -531 0
-124 -272 -532 0
-125 -269 -533 0
-126 -270 -534 0
-127 -271 -535 0
-128 -272 -536 0
-129 -269 -537 0
-130 -270 -538 0
-131 -271 -539 0
-132 -272 -540 0
-133 -269 -541 0
-134 -270 -542 0
-135 -271 -543 0
-136 -272 -544 0
-137 -269 -545 0
-138 -270 -546 0
-139 -271 -547 0
-140 -272 -548 0
-141 -269 -549 0
-142 -270 -550 0
-143 -271 -551 0
-144 -272 -552 0
-145 -269 -553 0
-146 -270 -554 0
-147 -271 -555 0
-148 -272 -556 0
-149 -269 -557 0
-150 -270 -558 0
-151 -271 -559 0
-152 -272 -560 0
-153 -269 -561 0
-154 -270 -562 0
-155 -271 -563 0
-156 -272 -564 0
-157 -269 -565 0
-158 -270 -566 0
-159 -271 -567 0
-160 -272 -568 0
-161 -269 -569 0
-162 -270 -570 0
-163 -271 -571 0
-164 -272 -572 0
-165 -269 -573 0
-166 -270 -574 0
-167 -271 -575 0
-168 -272 -576 0
-169 -269 -577 0
-170 -270 -578 0
-171 -271 -579 0
-172 -272 -580 0
-173 -269 -581 0
-174 -270 -582 0
-175 -271 -583 0
-176 -272 -584 0
-177 -269 -585 0
-178 -270 -586 0
-179 -271 -587 0
-180 -272 -588 0
-181 -269 -589 0
-182 -270 -590 0
-183 -271 -591 0
-184 -272 -592 0
-185 -269 -593 0
-186 -270 -594 0
-187 -271 -595 0
-188 -272 -596 0
-189 -269 -597 0
-190 -270 -598 0
-191 -271 -599 0
-192 -272 -600 0
-193 -269 -601 0
-194 -270 -602 0
-195 -271 -603 0
-196 -272 -604 0
-197 -269 -605 0
-198 -270 -606 0
-199 -271 -607 0
-200 -272 -608 0
-201 -269 -609 0
-202 -270 -610 0
-203 -271 -611 0
-204 -272 -612 0
-205 -269 -613 0
-206 -270 -614 0
-207 -271 -615 0
-208 -272 -616 0
-209 -269 -617 0
-210 -270 -618 0
-211 -271 -619 0
-212 -272 -620 0
-213 -269 -621 0
-214 -270 -622 0
-215 -271 -623 0
-216 -272 -624 0
-217 -269 -625 0
-218 -270 -626 0
-219 -271 -627 0
-220 -272 -628 0
-221 -269 -629 0
-222 -270 -630 0
-223 -271 -631 0
-224 -272 -632 0
-225 -269 -633 0
-226 -270 -634 0
-227 -271 -635 0
-228 -272 -636 0
-229 -269 -637 0
-230 -270 -638 0
-231 -271 -639 0
-232 -272 -640 0
-233 -269 -641 0
-234 -270 -642 0
-235 -271 -643 0
-236 -272 -644 0
-237 -269 -645 0
-238 -270 -646 0
-239 -271 -647 0
-240 -272 -648 0
-241 -269 -649 0
-242 -270 -650 0
-243 -271 -651 0
-244 -272 -652 0
-245 -269 -653 0
-246 -270 -654 0
-247 -271 -655 0
-248 -272 -656 0
-249 -269 -657 0
-250 -270 -658 0
-251 -271 -659 0
-252 -272 -660 0
-253 -269 -661 0
-254 -270 -662 0
-255 -271 -663 0
-256 -272 -664 0
-257 -269 -665 0
-258 -270 -666 0
-259 -271 -667 0
-260 -272 -668 0
-261 -269 -669 0
-262 -270 -670 0
-263 -271 -671 0
-264 -272 -672 0
-265 -269 -673 0
-266 -270 -674 0
-267 -271 -675 0
-268 -272 -676 0
-269 -677 0
-270 -678 0
-271 -679 0
-272 -680 0
-269 -273 -681 0
-270 -274 -682 0
-271 -275 -683 0
-272 -276 -684 0
-269 -277 -685 0
-270 -278 -686 0
-271 -279 -687 0
-272 -280 -688 0
-269 -281 -689 0
-270 -282 -690 0
-271 -283 -691 0
-272 -284 -692 0
-269 -285 -693 0
-270 -286 -694 0
-271 -287 -695 0
-272 -288 -696 0
-269 -289 -697 0
-270 -290 -698 0
-271 -291 -699 0
-272 -292 -700 0
-269 -293 -701 0
-270 -294 -702 0
-271 -295 -703 0
-272 -296 -704 0
-269 -297 -705 0
-270 -298 -706 0
-271 -299 -707 0
-272 -300 -708 0
-269 -301 -709 0
-270 -302 -710 0
-271 -303 -711 0
-272 -304 -712 0
-269 -305 -713 0
-270 -306 -714 0
-271 -307 -715 0
-272 -308 -716 0
-269 -309 -717 0
-270 -310 -718 0
-271 -311 -719 0
-272 -312 -720 0
-269 -313 -721 0
-270 -314 -722 0
-271 -315 -723 0
-272 -316 -724 0
-269 -317 -725 0
-270 -318 -726 0
-271 -319 -727 0
-272 -320 -728 0
-269 -321 -729 0
-270 -322 -730 0
-271 -323 -731 0
-272 -324 -732 0
-269 -325 -733 0
-270 -326 -734 0
-271 -327 -735 0
-272 -328 -736 0
-269 -329 -737 0
-270 -330 -738 0
-271 -331 -739 0
-272 -332 -740 0
-269 -333 -741 0
-270 -334 -742 0
-271 -335 -743 0
-272 -336 -744 0
-269 -337 -745 0
-270 -338 -746 0
-271 -339 -747 0
-272 -340 -748 0
-269 -341 -749 0
-270 -342 -750 0
-271 -343 -751 0
-272 -344 -752 0
-269 -345 -753 0
-270 -346 -754 0
-271 -347 -755 0
-272 -348 -756 0
-269 -349 -757 0
-270 -350 -758 0
-271 -351 -759 0
-272 -352 -760 0
-269 -353 -761 0
-270 -354 -762 0
-271 -355 -763 0
-272 -356 -764 0
-269 -357 -765 0
-270 -358 -766 0
-271 -359 -767 0
-272 -360 -768 0
-269 -361 -769 0
-270 -362 -770 0
-271 -363 -771 0
-272 -364 -772 0
-269 -365 -773 0
-270 -366 -774 0
-271 -367 -775 0
-272 -368 -776 0
-269 -369 -777 0
-270 -370 -778 0
-271 -371 -779 0
-272 -372 -780 0
-269 -373 -781 0
-270 -374 -782 0
-271 -375 -783 0
-272 -376 -784 0
-269 -377 -785 0
-270 -378 -786 0
-271 -379 -787 0
-272 -380 -788 0
-269 -381 -789 0
-270 -382 -790 0
-271 -383 -791 0
-272 -384 -792 0
-269 -385 -793 0
-270 -386 -794 0
-271 -387 -795 0
-272 -388 -796 0
-269 -389 -797 0
-270 -390 -798 0
-271 -391 -799 0
-272 -392 -800 0
-269 -393 -801 0
-270 -394 -802 0
-271 -395 -803 0
-272 -396 -804 0
-269 -397 -805 0
-270 -398 -806 0
-271 -399 -807 0
-272 -400 -808 0
-269 -401 -809 0
-270 -402 -810 0
-271 -403 -811 0
-272 -404 -812 0
-269 -405 -813 0
-270 -406 -814 0
-271 -407 -815 0
-272 -408 -816 0
-269 -409 -817 0
-270 -410 -818 0
-271 -411 -819 0
-272 -412 -820 0
-269 -413 -821 0
-270 -414 -822 0
-271 -415 -823 0
-272 -416 -824 0
-269 -417 -825 0
-270 -418 -826 0
-271 -419 -827 0
-272 -420 -828 0
-269 -421 -829 0
-270 -422 -830 0
-271 -423 -831 0
-272 -424 -832 0
-269 -425 -833 0
-270 -426 -834 0
-271 -427 -835 0
-272 -428 -836 0
-269 -429 -837 0
-270 -430 -838 0
-271 -431 -839 0
-272 -432 -840 0
-269 -433 -841 0
-270 -434 -842 0
-271 -435 -843 0
-272 -436 -844 0
-269 -437 -845 0
-270 -438 -846 0
-271 -439 -847 0
-272 -440 -848 0
-269 -441 -849 0
-270 -442 -850 0
-271 -443 -851 0
-272 -444 -852 0
-269 -445 -853 0
-270 -446 -854 0
-271 -447 -855 0
-272 -448 -856 0
-269 -449 -857 0
-270 -450 -858 0
-271 -451 -859 0
-272 -452 -860 0
-269 -453 -861 0
-270 -454 -862 0
-271 -455 -863 0
-272 -456 -864 0
-269 -457 -865 0
-270 -458 -866 0
-271 -459 -867 0
-272 -460 -868 0
-269 -461 -869 0
-270 -462 -870 0
-271 -463 -871 0
-272 -464 -872 0
-269 -465 -873 0
-270 -466 -874 0
-271 -467 -875 0
-272 -468 -876 0
-269 -469 -877 0
-270 -470 -878 0
-271 -471 -879 0
-272 -472 -880 0
-269 -473 -881 0
-270 -474 -882 0
-271 -475 -883 0
-272 -476 -884 0
-269 -477 -885 0
-270 -478 -886 0
-271 -479 -887 0
-272 -480 -888 0
-269 -481 -889 0
-270 -482 -890 0
-271 -483 -891 0
-272 -484 -892 0
-269 -485 -893 0
-270 -486 -894 0
-271 -487 -895 0
-272 -488 -896 0
-269 -489 -897 0
-270 -490 -898 0
-271 -491 -899 0
-272 -492 -900 0
-269 -493 -901 0
-270 -494 -902 0
-271 -495 -903 0
-272 -496 -904 0
-1 -277 -421 0
-2 -278 -422 0
-3 -279 -423 0
-4 -280 -424 0
-5 -277 -425 0
-6 -278 -426 0
-7 -279 -427 0
-8 -280 -428 0
-9 -277 -429 0
-10 -278 -430 0
-11 -279 -431 0
-12 -280 -432 0
-13 -277 -433 0
-14 -278 -434 0
-15 -279 -435 0
-16 -280 -436 0
-17 -277 -437 0
-18 -278 -438 0
-19 -279 -439 0
-20 -280 -440 0
-21 -277 -441 0
-22 -278 -442 0
-23 -279 -443 0
-24 -280 -444 0
-25 -277 -445 0
-26 -278 -446 0
-27 -279 -447 0
-28 -280 -448 0
-29 -277 -449 0
-30 -278 -450 0
-31 -279 -451 0
-32 -280 -452 0
-33 -277 -453 0
-34 -278 -454 0
-35 -279 -455 0
-36 -280 -456 0
-37 -277 -457 0
-38 -278 -458 0
-39 -279 -459 0
-40 -280 -460 0
-41 -277 -461 0
-42 -278 -462 0
-43 -279 -463 0
-44 -280 -464 0
-45 -277 -465 0
-46 -278 -466 0
-47 -279 -467 0
-48 -280 -468 0
-49 -277 -469 0
-50 -278 -470 0
-51 -279 -471 0
-52 -280 -472 0
-53 -277 -473 0
-54 -278 -474 0
-55 -279 -475 0
-56 -280 -476 0
-57 -277 -477 0
-58 -278 -478 0
-59 -279 -479 0
-60 -280 -480 0
-61 -277 -481 0
-62 -278 -482 0
-63 -279 -483 0
-64 -280 -484 0
-65 -277 -485 0
-66 -278 -486 0
-67 -279 -487 0
-68 -280 -488 0
-69 -277 -489 0
-70 -278 -490 0
-71 -279 -491 0
-72 -280 -492 0
-73 -277 -493 0
-74 -278 -494 0
-75 -279 -495 0
-76 -280 -496 0
-77 -277 -497 0
-78 -278 -498 0
-79 -279 -499 0
-80 -280 -500 0
-81 -277 -501 0
-82 -278 -502 0
-83 -279 -503 0
-84 -280 -504 0
-85 -277 -505 0
-86 -278 -506 0
-87 -279 -507 0
-88 -280 -508 0
-89 -277 -509 0
-90 -278 -510 0
-91 -279 -511 0
-92 -280 -512 0
-93 -277 -513 0
-94 -278 -514 0
-95 -279 -515 0
-96 -280 -516 0
-97 -277 -517 0
-98 -278 -518 0
-99 -279 -519 0
-100 -280 -520 0
-101 -277 -521 0
-102 -278 -522 0
-103 -279 -523 0
-104 -280 -524 0
-105 -277 -525 0
-106 -278 -526 0
-107 -279 -527 0
-108 -280 -528 0
-109 -277 -529 0
-110 -278 -530 0
-111 -279 -531 0
-112 -280 -532 0
-113 -277 -533 0
-114 -278 -534 0
-115 -279 -535 0
-116 -280 -536 0
-117 -277 -537 0
-118 -278 -538 0
-119 -279 -539 0
-120 -280 -540 0
-121 -277 -541 0
-122 -278 -542 0
-123 -279 -543 0
-124 -280 -544 0
-125 -277 -545 0
-126 -278 -546 0
-127 -279 -547 0
-128 -280 -548 0
-129 -277 -549 0
-130 -278 -550 0
-131 -279 -551 0
-132 -280 -552 0
-133 -277 -553 0
-134 -278 -554 0
-135 -279 -555 0
-136 -280 -556 0
-137 -277 -557 0
-138 -278 -558 0
-139 -279 -559 0
-140 -280 -560 0
-141 -277 -561 0
-142 -278 -562 0
-143 -279 -563 0
-144 -280 -564 0
-145 -277 -565 0
-146 -278 -566 0
-147 -279 -567 0
-148 -280 -568 0
-149 -277 -569 0
-150 -278 -570 0
-151 -279 -571 0
-152 -280 -572 0
-153 -277 -573 0
-154 -278 -574 0
-155 -279 -575 0
-156 -280 -576 0
-157 -277 -577 0
-158 -278 -578 0
-159 -279 -579 0
-160 -280 -580 0
-161 -277 -581 0
-162 -278 -582 0
-163 -279 -583 0
-164 -280 -584 0
-165 -277 -585 0
-166 -278 -586 0
-167 -279 -587 0
-168 -280 -588 0
-169 -277 -589 0
-170 -278 -590 0
-171 -279 -591 0
-172 -280 -592 0
-173 -277 -593 0
-174 -278 -594 0
-175 -279 -595 0
-176 -280 -596 0
-177 -277 -597 0
-178 -278 -598 0
-179 -279 -599 0
-180 -280 -600 0
-181 -277 -601 0
-182 -278 -602 0
-183 -279 -603 0
-184 -280 -604 0
-185 -277 -605 0
-186 -278 -606 0
-187 -279 -607 0
-188 -280 -608 0
-189 -277 -609 0
-190 -278 -610 0
-191 -279 -611 0
-192 -280 -612 0
-193 -277 -613 0
-194 -278 -614 0
-195 -279 -615 0
-196 -280 -616 0
-197 -277 -617 0
-198 -278 -618 0
-199 -279 -619 0
-200 -280 -620 0
-201 -277 -621 0
-202 -278 -622 0
-203 -279 -623 0
-204 -280 -624 0
-205 -277 -625 0
-206 -278 -626 0
-207 -279 -627 0
-208 -280 -628 0
-209 -277 -629 0
-210 -278 -630 0
-211 -279 -631 0
-212 -280 -632 0
-213 -277 -633 0
-214 -278 -634 0
-215 -279 -635 0
-216 -280 -636 0
-217 -277 -637 0
-218 -278 -638 0
-219 -279 -639 0
-220 -280 -640 0
-221 -277 -641 0
-222 -278 -642 0
-223 -279 -643 0
-224 -280 -644 0
-225 -277 -645 0
-226 -278 -646 0
-227 -279 -647 0
-228 -280 -648 0
-229 -277 -649 0
-230 -278 -650 0
-231 -279 -651 0
-232 -280 -652 0
-233 -277 -653 0
-234 -278 -654 0
-235 -279 -655 0
-236 -280 -656 0
-237 -277 -657 0
-238 -278 -658 0
-239 -279 -659 0
-240 -280 -660 0
-241 -277 -661 0
-242 -278 -662 0
-243 -279 -663 0
-244 -280 -664 0
-245 -277 -665 0
-246 -278 -666 0
-247 -279 -667 0
-248 -280 -668 0
-249 -277 -669 0
-250 -278 -670 0
-251 -279 -671 0
-252 -280 -672 0
-253 -277 -673 0
-254 -278 -674 0
-255 -279 -675 0
-256 -280 -676 0
-257 -277 -677 0
-258 -278 -678 0
-259 -279 -679 0
-260 -280 -680 0
-261 -277 -681 0
-262 -278 -682 0
-263 -279 -683 0
-264 -280 -684 0
-265 -277 -685 0
-266 -278 -686 0
-267 -279 -687 0
-268 -280 -688 0
-269 -277 -689 0
-270 -278 -690 0
-271 -279 -691 0
-272 -280 -692 0
-273 -277 -693 0
-274 -278 -694 0
-275 -279 -695 0
-276 -280 -696 0
-277 -697 0
-278 -698 0
-279 -699 0
-280 -700 0
-277 -281 -701 0
-278 -282 -702 0
-279 -283 -703 0
-280 -284 -704 0
-277 -285 -705 0
-278 -286 -706 0
-279 -287 -707 0
-280 -288 -708 0
-277 -289 -709 0
-278 -290 -710 0
-279 -291 -711 0
-280 -292 -712 0
-277 -293 -713 0
-278 -294 -714 0
-279 -295 -715 0
-280 -296 -716 0
-277 -297 -717 0
-278 -298 -718 0
-279 -299 -719 0
-280 -300 -720 0
-277 -301 -721 0
-278 -302 -722 0
-279 -303 -723 0
-280 -304 -724 0
-277 -305 -725 0
-278 -306 -726 0
-279 -307 -727 0
-280 -308 -728 0
-277 -309 -729 0
-278 -310 -730 0
-279 -311 -731 0
-280 -312 -732 0
-277 -313 -733 0
-278 -314 -734 0
-279 -315 -735 0
-280 -316 -736 0
-277 -317 -737 0
-278 -318 -738 0
-279 -319 -739 0
-280 -320 -740 0
-277 -321 -741 0
-278 -322 -742 0
-279 -323 -743 0
-280 -324 -744 0
-277 -325 -745 0
-278 -326 -746 0
-279 -327 -747 0
-280 -328 -748 0
-277 -329 -749 0
-278 -330 -750 0
-279 -331 -751 0
-280 -332 -752 0
-277 -333 -753 0
-278 -334 -754 0
-279 -335 -755 0
-280 -336 -756 0
-277 -337 -757 0
-278 -338 -758 0
-279 -339 -759 0
-280 -340 -760 0
-277 -341 -761 0
-278 -342 -762 0
-279 -343 -763 0
-280 -344 -764 0
-277 -345 -765 0
-278 -346 -766 0
-279 -347 -767 0
-280 -348 -768 0
-277 -349 -769 0
-278 -350 -770 0
-279 -351 -771 0
-280 -352 -772 0
-277 -353 -773 0
-278 -354 -774 0
-279 -355 -775 0
-280 -356 -776 0
-277 -357 -777 0
-278 -358 -778 0
-279 -359 -779 0
-280 -360 -780 0
-277 -361 -781 0
-278 -362 -782 0
-279 -363 -783 0
-280 -364 -784 0
-277 -365 -785 0
-278 -366 -786 0
-279 -367 -787 0
-280 -368 -788 0
-277 -369 -789 0
-278 -370 -790 0
-279 -371 -791 0
-280 -372 -792 0
-277 -373 -793 0
-278 -374 -794 0
-279 -375 -795 0
-280 -376 -796 0
-277 -377 -797 0
-278 -378 -798 0
-279 -379 -799 0
-280 -380 -800 0
-277 -381 -801 0
-278 -382 -802 0
-279 -383 -803 0
-280 -384 -804 0
-277 -385 -805 0
-278 -386 -806 0
-279 -387 -807 0
-280 -388 -808 0
-277 -389 -809 0
-278 -390 -810 0
-279 -391 -811 0
-280 -392 -812 0
-277 -393 -813 0
-278 -394 -814 0
-279 -395 -815 0
-280 -396 -816 0
-277 -397 -817 0
-278 -398 -818 0
-279 -399 -819 0
-280 -400 -820 0
-277 -401 -821 0
-278 -402 -822 0
-279 -403 -823 0
-280 -404 -824 0
-277 -405 -825 0
-278 -406 -826 0
-279 -407 -827 0
-280 -408 -828 0
-277 -409 -829 0
-278 -410 -830 0
-279 -411 -831 0
-280 -412 -832 0
-277 -413 -833 0
-278 -414 -834 0
-279 -415 -835 0
-280 -416 -836 0
-277 -417 -837 0
-278 -418 -838 0
-279 -419 -839 0
-280 -420 -840 0
-277 -421 -841 0
-278 -422 -842 0
-279 -423 -843 0
-280 -424 -844 0
-277 -425 -845 0
-278 -426 -846 0
-279 -427 -847 0
-280 -428 -848 0
-277 -429 -849 0
-278 -430 -850 0
-279 -431 -851 0
-280 -432 -852 0
-277 -433 -853 0
-278 -434 -854 0
-279 -435 -855 0
-280 -436 -856 0
-277 -437 -857 0
-278 -438 -858 0
-279 -439 -859 0
-280 -440 -860 0
-277 -441 -861 0
-278 -442 -862 0
-279 -443 -863 0
-280 -444 -864 0
-277 -445 -865 0
-278 -446 -866 0
-279 -447 -867 0
-280 -448 -868 0
-277 -449 -869 0
-278 -450 -870 0
-279 -451 -871 0
-280 -452 -872 0
-277 -453 -873 0
-278 -454 -874 0
-279 -455 -875 0
-280 -456 -876 0
-277 -457 -877 0
-278 -458 -878 0
-279 -459 -879 0
-280 -460 -880 0
-277 -461 -881 0
-278 -462 -882 0
-279 -463 -883 0
-280 -464 -884 0
-277 -465 -885 0
-278 -466 -886 0
-279 -467 -887 0
-280 -468 -888 0
-277 -469 -889 0
-278 -470 -890 0
-279 -471 -891 0
-280 -472 -892 0
-277 -473 -893 0
-278 -474 -894 0
-279 -475 -895 0
-280 -476 -896 0
-277 -477 -897 0
-278 -478 -898 0
-279 -479 -899 0
-280 -480 -900 0
-277 -481 -901 0
-278 -482 -902 0
-279 -483 -903 0
-280 -484 -904 0
-1 -285 -433 0
-2 -286 -434 0
-3 -287 -435 0
-4 -288 -436 0
-5 -285 -437 0
-6 -286 -438 0
-7 -287 -439 0
-8 -288 -440 0
-9 -285 -441 0
-10 -286 -442 0
-11 -287 -443 0
-12 -288 -444 0
-13 -285 -445 0
-14 -286 -446 0
-15 -287 -447 0
-16 -288 -448 0
-17 -285 -449 0
-18 -286 -450 0
-19 -287 -451 0
-20 -288 -452 0
-21 -285 -453 0
-22 -286 -454 0
-23 -287 -455 0
-24 -288 -456 0
-25 -285 -457 0
-26 -286 -458 0
-27 -287 -459 0
-28 -288 -460 0
-29 -285 -461 0
-30 -286 -462 0
-31 -287 -463 0
-32 -288 -464 0
-33 -285 -465 0
-34 -286 -466 0
-35 -287 -467 0
-36 -288 -468 0
-37 -285 -469 0
-38 -286 -470 0
-39 -287 -471 0
-40 -288 -472 0
-41 -285 -473 0
-42 -286 -474 0
-43 -287 -475 0
-44 -288 -476 0
-45 -285 -477 0
-46 -286 -478 0
-47 -287 -479 0
-48 -288 -480 0
-49 -285 -481 0
-50 -286 -482 0
-51 -287 -483 0
-52 -288 -484 0
-53 -285 -485 0
-54 -286 -486 0
-55 -287 -487 0
-56 -288 -488 0
-57 -285 -489 0
-58 -286 -490 0
-59 -287 -491 0
-60 -288 -492 0
-61 -285 -493 0
-62 -286 -494 0
-63 -287 -495 0
-64 -288 -496 0
-65 -285 -497 0
-66 -286 -498 0
-67 -287 -499 0
-68 -288 -500 0
-69 -285 -501 0
-70 -286 -502 0
-71 -287 -503 0
-72 -288 -504 0
-73 -285 -505 0
-74 -286 -506 0
-75 -287 -507 0
-76 -288 -508 0
-77 -285 -509 0
-78 -286 -510 0
-79 -287 -511 0
-80 -288 -512 0
-81 -285 -513 0
-82 -286 -514 0
-83 -287 -515 0
-84 -288 -516 0
-85 -285 -517 0
-86 -286 -518 0
-87 -287 -519 0
-88 -288 -520 0
-89 -285 -521 0
-90 -286 -522 0
-91 -287 -523 0
-92 -288 -524 0
-93 -285 -525 0
-94 -286 -526 0
-95 -287 -527 0
-96 -288 -528 0
-97 -285 -529 0
-98 -286 -530 0
-99 -287 -531 0
-100 -288 -532 0
-101 -285 -533 0
-102 -286 -534 0
-103 -287 -535 0
-104 -288 -536 0
-105 -285 -537 0
-106 -286 -538 0
-107 -287 -539 0
-108 -288 -540 0
-109 -285 -541 0
-110 -286 -542 0
-111 -287 -543 0
-112 -288 -544 0
-113 -285 -545 0
-114 -286 -546 0
-115 -287 -547 0
-116 -288 -548 0
-117 -285 -549 0
-118 -286 -550 0
-119 -287 -551 0
-120 -288 -552 0
-121 -285 -553 0
-122 -286 -554 0
-123 -287 -555 0
-124 -288 -556 0
-125 -285 -557 0
-126 -286 -558 0
-127 -287 -559 0
-128 -288 -560 0
-129 -285 -561 0
-130 -286 -562 0
-131 -287 -563 0
-132 -288 -564 0
-133 -285 -565 0
-134 -286 -566 0
-135 -287 -567 0
-136 -288 -568 0
-137 -285 -569 0
-138 -286 -570 0
-139 -287 -571 0
-140 -288 -572 0
-141 -285 -573 0
-142 -286 -574 0
-143 -287 -575 0
-144 -288 -576 0
-145 -285 -577 0
-146 -286 -578 0
-147 -287 -579 0
-148 -288 -580 0
-149 -285 -581 0
-150 -286 -582 0
-151 -287 -583 0
-152 -288 -584 0
-153 -285 -585 0
-154 -286 -586 0
-155 -287 -587 0
-156 -288 -588 0
-157 -285 -589 0
-158 -286 -590 0
-159 -287 -591 0
-160 -288 -592 0
-161 -285 -593 0
-162 -286 -594 0
-163 -287 -595 0
-164 -288 -596 0
-165 -285 -597 0
-166 -286 -598 0
-167 -287 -599 0
-168 -288 -600 0
-169 -285 -601 0
-170 -286 -602 0
-171 -287 -603 0
-172 -288 -604 0
-173 -285 -605 0
-174 -286 -606 0
-175 -287 -607 0
-176 -288 -608 0
-177 -285 -609 0
-178 -286 -610 0
-179 -287 -611 0
-180 -288 -612 0
-181 -285 -613 0
-182 -286 -614 0
-183 -287 -615 0
-184 -288 -616 0
-185 -285 -617 0
-186 -286 -618 0
-187 -287 -619 0
-188 -288 -620 0
-189 -285 -621 0
-190 -286 -622 0
-191 -287 -623 0
-192 -288 -624 0
-193 -285 -625 0
-194 -286 -626 0
-195 -287 -627 0
-196 -288 -628 0
-197 -285 -629 0
-198 -286 -630 0
-199 -287 -631 0
-200 -288 -632 0
-201 -285 -633 0
-202 -286 -634 0
-203 -287 -635 0
-204 -288 -636 0
-205 -285 -637 0
-206 -286 -638 0
-207 -287 -639 0
-208 -288 -640 0
-209 -285 -641 0
-210 -286 -642 0
-211 -287 -643 0
-212 -288 -644 0
-213 -285 -645 0
-214 -286 -646 0
-215 -287 -647 0
-216 -288 -648 0
-217 -285 -649 0
-218 -286 -650 0
-219 -287 -651 0
-220 -288 -652 0
-221 -285 -653 0
-222 -286 -654 0
-223 -287 -655 0
-224 -288 -656 0
-225 -285 -657 0
-226 -286 -658 0
-227 -287 -659 0
-228 -288 -660 0
-229 -285 -661 0
-230 -286 -662 0
-231 -287 -663 0
-232 -288 -664 0
-233 -285 -665 0
-234 -286 -666 0
-235 -287 -667 0
-236 -288 -668 0
-237 -285 -669 0
-238 -286 -670 0
-239 -287 -671 0
-240 -288 -672 0
-241 -285 -673 0
-242 -286 -674 0
-243 -287 -675 0
-244 -288 -676 0
-245 -285 -677 0
-246 -286 -678 0
-247 -287 -679 0
-248 -288 -680 0
-249 -285 -681 0
-250 -286 -682 0
-251 -287 -683 0
-252 -288 -684 0
-253 -285 -685 0
-254 -286 -686 0
-255 -287 -687 0
-256 -288 -688 0
-257 -285 -689 0
-258 -286 -690 0
-259 -287 -691 0
-260 -288 -692 0
-261 -285 -693 0
-262 -286 -694 0
-263 -287 -695 0
-264 -288 -696 0
-265 -285 -697 0
-266 -286 -698 0
-267 -287 -699 0
-268 -288 -700 0
-269 -285 -701 0
-270 -286 -702 0
-271 -287 -703 0
-272 -288 -704 0
-273 -285 -705 0
-274 -286 -706 0
-275 -287 -707 0
-276 -288 -708 0
-277 -285 -709 0
-278 -286 -710 0
-279 -287 -711 0
-280 -288 -712 0
-281 -285 -713 0
-282 -286 -714 0
-283 -287 -715 0
-284 -288 -716 0
-285 -717 0
-286 -718 0
-287 -719 0
-288 -720 0
-285 -289 -721 0
-286 -290 -722 0
-287 -291 -723 0
-288 -292 -724 0
-285 -293 -725 0
-286 -294 -726 0
-287 -295 -727 0
-288 -296 -728 0
-285 -297 -729 0
-286 -298 -730 0
-287 -299 -731 0
-288 -300 -732 0
-285 -301 -733 0
-286 -302 -734 0
-287 -303 -735 0
-288 -304 -736 0
-285 -305 -737 0
-286 -306 -738 0
-287 -307 -739 0
-288 -308 -740 0
-285 -309 -741 0
-286 -310 -742 0
-287 -311 -743 0
-288 -312 -744 0
-285 -313 -745 0
-286 -314 -746 0
-287 -315 -747 0
-288 -316 -748 0
-285 -317 -749 0
-286 -318 -750 0
-287 -319 -751 0
-288 -320 -752 0
-285 -321 -753 0
-286 -322 -754 0
-287 -323 -755 0
-288 -324 -756 0
-285 -325 -757 0
-286 -326 -758 0
-287 -327 -759 0
-288 -328 -760 0
-285 -329 -761 0
-286 -330 -762 0
-287 -331 -763 0
-288 -332 -764 0
-285 -333 -765 0
-286 -334 -766 0
-287 -335 -767 0
-288 -336 -768 0
-285 -337 -769 0
-286 -338 -770 0
-287 -339 -771 0
-288 -340 -772 0
-285 -341 -773 0
-286 -342 -774 0
-287 -343 -775 0
-288 -344 -776 0
-285 -345 -777 0
-286 -346 -778 0
-287 -347 -779 0
-288 -348 -780 0
-285 -349 -781 0
-286 -350 -782 0
-287 -351 -783 0
-288 -352 -784 0
-285 -353 -785 0
-286 -354 -786 0
-287 -355 -787 0
-288 -356 -788 0
-285 -357 -789 0
-286 -358 -790 0
-287 -359 -791 0
-288 -360 -792 0
-285 -361 -793 0
-286 -362 -794 0
-287 -363 -795 0
-288 -364 -796 0
-285 -365 -797 0
-286 -366 -798 0
-287 -367 -799 0
-288 -368 -800 0
-285 -369 -801 0
-286 -370 -802 0
-287 -371 -803 0
-288 -372 -804 0
-285 -373 -805 0
-286 -374 -806 0
-287 -375 -807 0
-288 -376 -808 0
-285 -377 -809 0
-286 -378 -810 0
-287 -379 -811 0
-288 -380 -812 0
-285 -381 -813 0
-286 -382 -814 0
-287 -383 -815 0
-288 -384 -816 0
-285 -385 -817 0
-286 -386 -818 0
-287 -387 -819 0
-288 -388 -820 0
-285 -389 -821 0
-286 -390 -822 0
-287 -391 -823 0
-288 -392 -824 0
-285 -393 -825 0
-286 -394 -826 0
-287 -395 -827 0
-288 -396 -828 0
-285 -397 -829 0
-286 -398 -830 0
-287 -399 -831 0
-288 -400 -832 0
-285 -401 -833 0
-286 -402 -834 0
-287 -403 -835 0
-288 -404 -836 0
-285 -405 -837 0
-286 -406 -838 0
-287 -407 -839 0
-288 -408 -840 0
-285 -409 -841 0
-286 -410 -842 0
-287 -411 -843 0
-288 -412 -844 0
-285 -413 -845 0
-286 -414 -846 0
-287 -415 -847 0
-288 -416 -848 0
-285 -417 -849 0
-286 -418 -850 0
-287 -419 -851 0
-288 -420 -852 0
-285 -421 -853 0
-286 -422 -854 0
-287 -423 -855 0
-288 -424 -856 0
-285 -425 -857 0
-286 -426 -858 0
-287 -427 -859 0
-288 -428 -860 0
-285 -429 -861 0
-286 -430 -862 0
-287 -431 -863 0
-288 -432 -864 0
-285 -433 -865 0
-286 -434 -866 0
-287 -435 -867 0
-288 -436 -868 0
-285 -437 -869 0
-286 -438 -870 0
-287 -439 -871 0
-288 -440 -872 0
-285 -441 -873 0
-286 -442 -874 0
-287 -443 -875 0
-288 -444 -876 0
-285 -445 -877 0
-286 -446 -878 0
-287 -447 -879 0
-288 -448 -880 0
-285 -449 -881 0
-286 -450 -882 0
-287 -451 -883 0
-288 -452 -884 0
-285 -453 -885 0
-286 -454 -886 0
-287 -455 -887 0
-288 -456 -888 0
-285 -457 -889 0
-286 -458 -890 0
-287 -459 -891 0
-288 -460 -892 0
-285 -461 -893 0
-286 -462 -894 0
-287 -463 -895 0
-288 -464 -896 0
-285 -465 -897 0
-286 -466 -898 0
-287 -467 -899 0
-288 -468 -900 0
-285 -469 -901 0
-286 -470 -902 0
-287 -471 -903 0
-288 -472 -904 0
-1 -293 -445 0
-2 -294 -446 0
-3 -295 -447 0
-4 -296 -448 0
-5 -293 -449 0
-6 -294 -450 0
-7 -295 -451 0
-8 -296 -452 0
-9 -293 -453 0
-10 -294 -454 0
-11 -295 -455 0
-12 -296 -456 0
-13 -293 -457 0
-14 -294 -458 0
-15 -295 -459 0
-16 -296 -460 0
-17 -293 -461 0
-18 -294 -462 0
-19 -295 -463 0
-20 -296 -464 0
-21 -293 -465 0
-22 -294 -466 0
-23 -295 -467 0
-24 -296 -468 0
-25 -293 -469 0
-26 -294 -470 0
-27 -295 -471 0
-28 -296 -472 0
-29 -293 -473 0
-30 -294 -474 0
-31 -295 -475 0
-32 -296 -476 0
-33 -293 -477 0
-34 -294 -478 0
-35 -295 -479 0
-36 -296 -480 0
-37 -293 -481 0
-38 -294 -482 0
-39 -295 -483 0
-40 -296 -484 0
-41 -293 -485 0
-42 -294 -486 0
-43 -295 -487 0
-44 -296 -488 0
-45 -293 -489 0
-46 -294 -490 0
-47 -295 -491 0
-48 -296 -492 0
-49 -293 -493 0
-50 -294 -494 0
-51 -295 -495 0
-52 -296 -496 0
-53 -293 -497 0
-54 -294 -498 0
-55 -295 -499 0
-56 -296 -500 0
-57 -293 -501 0
-58 -294 -502 0
-59 -295 -503 0
-60 -296 -504 0
-61 -293 -505 0
-62 -294 -506 0
-63 -295 -507 0
-64 -296 -508 0
-65 -293 -509 0
-66 -294 -510 0
-67 -295 -511 0
-68 -296 -512 0
-69 -293 -513 0
-70 -294 -514 0
-71 -295 -515 0
-72 -296 -516 0
-73 -293 -517 0
-74 -294 -518 0
-75 -295 -519 0
-76 -296 -520 0
-77 -293 -521 0
-78 -294 -522 0
-79 -295 -523 0
-80 -296 -524 0
-81 -293 -525 0
-82 -294 -526 0
-83 -295 -527 0
-84 -296 -528 0
-85 -293 -529 0
-86 -294 -530 0
-87 -295 -531 0
-88 -296 -532 0
-89 -293 -533 0
-90 -294 -534 0
-91 -295 -535 0
-92 -296 -536 0
-93 -293 -537 0
-94 -294 -538 0
-95 -295 -539 0
-96 -296 -540 0
-97 -293 -541 0
-98 -294 -542 0
-99 -295 -543 0
-100 -296 -544 0
-101 -293 -545 0
-102 -294 -546 0
-103 -295 -547 0
-104 -296 -548 0
-105 -293 -549 0
-106 -294 -550 0
-107 -295 -551 0
-108 -296 -552 0
-109 -293 -553 0
-110 -294 -554 0
-111 -295 -555 0
-112 -296 -556 0
-113 -293 -557 0
-114 -294 -558 0
-115 -295 -559 0
-116 -296 -560 0
-117 -293 -561 0
-118 -294 -562 0
-119 -295 -563 0
-120 -296 -564 0
-121 -293 -565 0
-122 -294 -566 0
-123 -295 -567 0
-124 -296 -568 0
-125 -293 -569 0
-126 -294 -570 0
-127 -295 -571 0
-128 -296 -572 0
-129 -293 -573 0
-130 -294 -574 0
-131 -295 -575 0
-132 -296 -576 0
-133 -293 -577 0
-134 -294 -578 0
-135 -295 -579 0
-136 -296 -580 0
-137 -293 -581 0
-138 -294 -582 0
-139 -295 -583 0
-140 -296 -584 0
-141 -293 -585 0
-142 -294 -586 0
-143 -295 -587 0
-144 -296 -588 0
-145 -293 -589 0
-146 -294 -590 0
-147 -295 -591 0
-148 -296 -592 0
-149 -293 -593 0
-150 -294 -594 0
-151 -295 -595 0
-152 -296 -596 0
-153 -293 -597 0
-154 -294 -598 0
-155 -295 -599 0
-156 -296 -600 0
-157 -293 -601 0
-158 -294 -602 0
-159 -295 -603 0
-160 -296 -604 0
-161 -293 -605 0
-162 -294 -606 0
-163 -295 -607 0
-164 -296 -608 0
-165 -293 -609 0
-166 -294 -610 0
-167 -295 -611 0
-168 -296 -612 0
-169 -293 -613 0
-170 -294 -614 0
-171 -295 -615 0
-172 -296 -616 0
-173 -293 -617 0
-174 -294 -618 0
-175 -295 -619 0
-176 -296 -620 0
-177 -293 -621 0
-178 -294 -622 0
-179 -295 -623 0
-180 -296 -624 0
-181 -293 -625 0
-182 -294 -626 0
-183 -295 -627 0
-184 -296 -628 0
-185 -293 -629 0
-186 -294 -630 0
-187 -295 -631 0
-188 -296 -632 0
-189 -293 -633 0
-190 -294 -634 0
-191 -295 -635 0
-192 -296 -636 0
-193 -293 -637 0
-194 -294 -638 0
-195 -295 -639 0
-196 -296 -640 0
-197 -293 -641 0
-198 -294 -642 0
-199 -295 -643 0
-200 -296 -644 0
-201 -293 -645 0
-202 -294 -646 0
-203 -295 -647 0
-204 -296 -648 0
-205 -293 -649 0
-206 -294 -650 0
-207 -295 -651 0
-208 -296 -652 0
-209 -293 -653 0
-210 -294 -654 0
-211 -295 -655 0
-212 -296 -656 0
-213 -293 -657 0
-214 -294 -658 0
-215 -295 -659 0
-216 -296 -660 0
-217 -293 -661 0
-218 -294 -662 0
-219 -295 -663 0
-220 -296 -664 0
-221 -293 -665 0
-222 -294 -666 0
-223 -295 -667 0
-224 -296 -668 0
-225 -293 -669 0
-226 -294 -670 0
-227 -295 -671 0
-228 -296 -672 0
-229 -293 -673 0
-230 -294 -674 0
-231 -295 -675 0
-232 -296 -676 0
-233 -293 -677 0
-234 -294 -678 0
-235 -295 -679 0
-236 -296 -680 0
-237 -293 -681 0
-238 -294 -682 0
-239 -295 -683 0
-240 -296 -684 0
-241 -293 -685 0
-242 -294 -686 0
-243 -295 -687 0
-244 -296 -688 0
-245 -293 -689 0
-246 -294 -690 0
-247 -295 -691 0
-248 -296 -692 0
-249 -293 -693 0
-250 -294 -694 0
-251 -295 -695 0
-252 -296 -696 0
-253 -293 -697 0
-254 -294 -698 0
-255 -295 -699 0
-256 -296 -700 0
-257 -293 -701 0
-258 -294 -702 0
-259 -295 -703 0
-260 -296 -704 0
-261 -293 -705 0
-262 -294 -706 0
-263 -295 -707 0
-264 -296 -708 0
-265 -293 -709 0
-266 -294 -710 0
-267 -295 -711 0
-268 -296 -712 0
-269 -293 -713 0
-270 -294 -714 0
-271 -295 -715 0
-272 -296 -716 0
-273 -293 -717 0
-274 -294 -718 0
-275 -295 -719 0
-276 -296 -720 0
-277 -293 -721 0
-278 -294 -722 0
-279 -295 -723 0
-280 -296 -724 0
-281 -293 -725 0
-282 -294 -726 0
-283 -295 -727 0
-284 -296 -728 0
-285 -293 -729 0
-286 -294 -730 0
-287 -295 -731 0
-288 -296 -732 0
-289 -293 -733 0
-290 -294 -734 0
-291 -295 -735 0
-292 -296 -736 0
-293 -737 0
-294 -738 0
-295 -739 0
-296 -740 0
-293 -297 -741 0
-294 -298 -742 0
-295 -299 -743 0
-296 -300 -744 0
-293 -301 -745 0
-294 -302 -746 0
-295 -303 -747 0
-296 -304 -748 0
-293 -305 -749 0
-294 -306 -750 0
-295 -307 -751 0
-296 -308 -752 0
-293 -309 -753 0
-294 -310 -754 0
-295 -311 -755 0
-296 -312 -756 0
-293 -313 -757 0
-294 -314 -758 0
-295 -315 -759 0
-296 -316 -760 0
-293 -317 -761 0
-294 -318 -762 0
-295 -319 -763 0
-296 -320 -764 0
-293 -321 -765 0
-294 -322 -766 0
-295 -323 -767 0
-296 -324 -768 0
-293 -325 -769 0
-294 -326 -770 0
-295 -327 -771 0
-296 -328 -772 0
-293 -329 -773 0
-294 -330 -774 0
-295 -331 -775 0
-296 -332 -776 0
-293 -333 -777 0
-294 -334 -778 0
-295 -335 -779 0
-296 -336 -780 0
-293 -337 -781 0
-294 -338 -782 0
-295 -339 -783 0
-296 -340 -784 0
-293 -341 -785 0
-294 -342 -786 0
-295 -343 -787 0
-296 -344 -788 0
-293 -345 -789 0
-294 -346 -790 0
-295 -347 -791 0
-296 -348 -792 0
-293 -349 -793 0
-294 -350 -794 0
-295 -351 -795 0
-296 -352 -796 0
-293 -353 -797 0
-294 -354 -798 0
-295 -355 -799 0
-296 -356 -800 0
-293 -357 -801 0
-294 -358 -802 0
-295 -359 -803 0
-296 -360 -804 0
-293 -361 -805 0
-294 -362 -806 0
-295 -363 -807 0
-296 -364 -808 0
-293 -365 -809 0
-294 -366 -810 0
-295 -367 -811 0
-296 -368 -812 0
-293 -369 -813 0
-294 -370 -814 0
-295 -371 -815 0
-296 -372 -816 0
-293 -373 -817 0
-294 -374 -818 0
-295 -375 -819 0
-296 -376 -820 0
-293 -377 -821 0
-294 -378 -822 0
-295 -379 -823 0
-296 -380 -824 0
-293 -381 -825 0
-294 -382 -826 0
-295 -383 -827 0
-296 -384 -828 0
-293 -385 -829 0
-294 -386 -830 0
-295 -387 -831 0
-296 -388 -832 0
-293 -389 -833 0
-294 -390 -834 0
-295 -391 -835 0
-296 -392 -836 0
-293 -393 -837 0
-294 -394 -838 0
-295 -395 -839 0
-296 -396 -840 0
-293 -397 -841 0
-294 -398 -842 0
-295 -399 -843 0
-296 -400 -844 0
-293 -401 -845 0
-294 -402 -846 0
-295 -403 -847 0
-296 -404 -848 0
-293 -405 -849 0
-294 -406 -850 0
-295 -407 -851 0
-296 -408 -852 0
-293 -409 -853 0
-294 -410 -854 0
-295 -411 -855 0
-296 -412 -856 0
-293 -413 -857 0
-294 -414 -858 0
-295 -415 -859 0
-296 -416 -860 0
-293 -417 -861 0
-294 -418 -862 0
-295 -419 -863 0
-296 -420 -864 0
-293 -421 -865 0
-294 -422 -866 0
-295 -423 -867 0
-296 -424 -868 0
-293 -425 -869 0
-294 -426 -870 0
-295 -427 -871 0
-296 -428 -872 0
-293 -429 -873 0
-294 -430 -874 0
-295 -431 -875 0
-296 -432 -876 0
-293 -433 -877 0
-294 -434 -878 0
-295 -435 -879 0
-296 -436 -880 0
-293 -437 -881 0
-294 -438 -882 0
-295 -439 -883 0
-296 -440 -884 0
-293 -441 -885 0
-294 -442 -886 0
-295 -443 -887 0
-296 -444 -888 0
-293 -445 -889 0
-294 -446 -890 0
-295 -447 -891 0
-296 -448 -892 0
-293 -449 -893 0
-294 -450 -894 0
-295 -451 -895 0
-296 -452 -896 0
-293 -453 -897 0
-294 -454 -898 0
-295 -455 -899 0
-296 -456 -900 0
-293 -457 -901 0
-294 -458 -902 0
-295 -459 -903 0
-296 -460 -904 0
-1 -301 -457 0
-2 -302 -458 0
-3 -303 -459 0
-4 -304 -460 0
-5 -301 -461 0
-6 -302 -462 0
-7 -303 -463 0
-8 -304 -464 0
-9 -301 -465 0
-10 -302 -466 0
-11 -303 -467 0
-12 -304 -468 0
-13 -301 -469 0
-14 -302 -470 0
-15 -303 -471 0
-16 -304 -472 0
-17 -301 -473 0
-18 -302 -474 0
-19 -303 -475 0
-20 -304 -476 0
-21 -301 -477 0
-22 -302 -478 0
-23 -303 -479 0
-24 -304 -480 0
-25 -301 -481 0
-26 -302 -482 0
-27 -303 -483 0
-28 -304 -484 0
-29 -301 -485 0
-30 -302 -486 0
-31 -303 -487 0
-32 -304 -488 0
-33 -301 -489 0
-34 -302 -490 0
-35 -303 -491 0
-36 -304 -492 0
-37 -301 -493 0
-38 -302 -494 0
-39 -303 -495 0
-40 -304 -496 0
-41 -301 -497 0
-42 -302 -498 0
-43 -303 -499 0
-44 -304 -500 0
-45 -301 -501 0
-46 -302 -502 0
-47 -303 -503 0
-48 -304 -504 0
-49 -301 -505 0
-50 -302 -506 0
-51 -303 -507 0
-52 -304 -508 0
-53 -301 -509 0
-54 -302 -510 0
-55 -303 -511 0
-56 -304 -512 0
-57 -301 -513 0
-58 -302 -514 0
-59 -303 -515 0
-60 -304 -516 0
-61 -301 -517 0
-62 -302 -518 0
-63 -303 -519 0
-64 -304 -520 0
-65 -301 -521 0
-66 -302 -522 0
-67 -303 -523 0
-68 -304 -524 0
-69 -301 -525 0
-70 -302 -526 0
-71 -303 -527 0
-72 -304 -528 0
-73 -301 -529 0
-74 -302 -530 0
-75 -303 -531 0
-76 -304 -532 0
-77 -301 -533 0
-78 -302 -534 0
-79 -303 -535 0
-80 -304 -536 0
-81 -301 -537 0
-82 -302 -538 0
-83 -303 -539 0
-84 -304 -540 0
-85 -301 -541 0
-86 -302 -542 0
-87 -303 -543 0
-88 -304 -544 0
-89 -301 -545 0
-90 -302 -546 0
-91 -303 -547 0
-92 -304 -548 0
-93 -301 -549 0
-94 -302 -550 0
-95 -303 -551 0
-96 -304 -552 0
-97 -301 -553 0
-98 -302 -554 0
-99 -303 -555 0
-100 -304 -556 0
-101 -301 -557 0
-102 -302 -558 0
-103 -303 -559 0
-104 -304 -560 0
-105 -301 -561 0
-106 -302 -562 0
-107 -303 -563 0
-108 -304 -564 0
-109 -301 -565 0
-110 -302 -566 0
-111 -303 -567 0
-112 -304 -568 0
-113 -301 -569 0
-114 -302 -570 0
-115 -303 -571 0
-116 -304 -572 0
-117 -301 -573 0
-118 -302 -574 0
-119 -303 -575 0
-120 -304 -576 0
-121 -301 -577 0
-122 -302 -578 0
-123 -303 -579 0
-124 -304 -580 0
-125 -301 -581 0
-126 -302 -582 0
-127 -303 -583 0
-128 -304 -584 0
-129 -301 -585 0
-130 -302 -586 0
-131 -303 -587 0
-132 -304 -588 0
-133 -301 -589 0
-134 -302 -590 0
-135 -303 -591 0
-136 -304 -592 0
-137 -301 -593 0
-138 -302 -594 0
-139 -303 -595 0
-140 -304 -596 0
-141 -301 -597 0
-142 -302 -598 0
-143 -303 -599 0
-144 -304 -600 0
-145 -301 -601 0
-146 -302 -602 0
-147 -303 -603 0
-148 -304 -604 0
-149 -301 -605 0
-150 -302 -606 0
-151 -303 -607 0
-152 -304 -608 0
-153 -301 -609 0
-154 -302 -610 0
-155 -303 -611 0
-156 -304 -612 0
-157 -301 -613 0
-158 -302 -614 0
-159 -303 -615 0
-160 -304 -616 0
-161 -301 -617 0
-162 -302 -618 0
-163 -303 -619 0
-164 -304 -620 0
-165 -301 -621 0
-166 -302 -622 0
-167 -303 -623 0
-168 -304 -624 0
-169 -301 -625 0
-170 -302 -626 0
-171 -303 -627 0
-172 -304 -628 0
-173 -301 -629 0
-174 -302 -630 0
-175 -303 -631 0
-176 -304 -632 0
-177 -301 -633 0
-178 -302 -634 0
-179 -303 -635 0
-180 -304 -636 0
-181 -301 -637 0
-182 -302 -638 0
-183 -303 -639 0
-184 -304 -640 0
-185 -301 -641 0
-186 -302 -642 0
-187 -303 -643 0
-188 -304 -644 0
-189 -301 -645 0
-190 -302 -646 0
-191 -303 -647 0
-192 -304 -648 0
-193 -301 -649 0
-194 -302 -650 0
-195 -303 -651 0
-196 -304 -652 0
-197 -301 -653 0
-198 -302 -654 0
-199 -303 -655 0
-200 -304 -656 0
-201 -301 -657 0
-202 -302 -658 0
-203 -303 -659 0
-204 -304 -660 0
-205 -301 -661 0
-206 -302 -662 0
-207 -303 -663 0
-208 -304 -664 0
-209 -301 -665 0
-210 -302 -666 0
-211 -303 -667 0
-212 -304 -668 0
-213 -301 -669 0
-214 -302 -670 0
-215 -303 -671 0
-216 -304 -672 0
-217 -301 -673 0
-218 -302 -674 0
-219 -303 -675 0
-220 -304 -676 0
-221 -301 -677 0
-222 -302 -678 0
-223 -303 -679 0
-224 -304 -680 0
-225 -301 -681 0
-226 -302 -682 0
-227 -303 -683 0
-228 -304 -684 0
-229 -301 -685 0
-230 -302 -686 0
-231 -303 -687 0
-232 -304 -688 0
-233 -301 -689 0
-234 -302 -690 0
-235 -303 -691 0
-236 -304 -692 0
-237 -301 -693 0
-238 -302 -694 0
-239 -303 -695 0
-240 -304 -696 0
-241 -301 -697 0
-242 -302 -698 0
-243 -303 -699 0
-244 -304 -700 0
-245 -301 -701 0
-246 -302 -702 0
-247 -303 -703 0
-248 -304 -704 0
-249 -301 -705 0
-250 -302 -706 0
-251 -303 -707 0
-252 -304 -708 0
-253 -301 -709 0
-254 -302 -710 0
-255 -303 -711 0
-256 -304 -712 0
-257 -301 -713 0
-258 -302 -714 0
-259 -303 -715 0
-260 -304 -716 0
-261 -301 -717 0
-262 -302 -718 0
-263 -303 -719 0
-264 -304 -720 0
-265 -301 -721 0
-266 -302 -722 0
-267 -303 -723 0
-268 -304 -724 0
-269 -301 -725 0
-270 -302 -726 0
-271 -303 -727 0
-272 -304 -728 0
-273 -301 -729 0
-274 -302 -730 0
-275 -303 -731 0
-276 -304 -732 0
-277 -301 -733 0
-278 -302 -734 0
-279 -303 -735 0
-280 -304 -736 0
-281 -301 -737 0
-282 -302 -738 0
-283 -303 -739 0
-284 -304 -740 0
-285 -301 -741 0
-286 -302 -742 0
-287 -303 -743 0
-288 -304 -744 0
-289 -301 -745 0
-290 -302 -746 0
-291 -303 -747 0
-292 -304 -748 0
-293 -301 -749 0
-294 -302 -750 0
-295 -303 -751 0
-296 -304 -752 0
-297 -301 -753 0
-298 -302 -754 0
-299 -303 -755 0
-300 -304 -756 0
-301 -757 0
-302 -758 0
-303 -759 0
-304 -760 0
-301 -305 -761 0
-302 -306 -762 0
-303 -307 -763 0
-304 -308 -764 0
-301 -309 -765 0
-302 -310 -766 0
-303 -311 -767 0
-304 -312 -768 0
-301 -313 -769 0
-302 -314 -770 0
-303 -315 -771 0
-304 -316 -772 0
-301 -317 -773 0
-302 -318 -774 0
-303 -319 -775 0
-304 -320 -776 0
-301 -321 -777 0
-302 -322 -778 0
-303 -323 -779 0
-304 -324 -780 0
-301 -325 -781 0
-302 -326 -782 0
-303 -327 -783 0
-304 -328 -784 0
-301 -329 -785 0
-302 -330 -786 0
-303 -331 -787 0
-304 -332 -788 0
-301 -333 -789 0
-302 -334 -790 0
-303 -335 -791 0
-304 -336 -792 0
-301 -337 -793 0
-302 -338 -794 0
-303 -339 -795 0
-304 -340 -796 0
-301 -341 -797 0
-302 -342 -798 0
-303 -343 -799 0
-304 -344 -800 0
-301 -345 -801 0
-302 -346 -802 0
-303 -347 -803 0
-304 -348 -804 0
-301 -349 -805 0
-302 -350 -806 0
-303 -351 -807 0
-304 -352 -808 0
-301 -353 -809 0
-302 -354 -810 0
-303 -355 -811 0
-304 -356 -812 0
-301 -357 -813 0
-302 -358 -814 0
-303 -359 -815 0
-304 -360 -816 0
-301 -361 -817 0
-302 -362 -818 0
-303 -363 -819 0
-304 -364 -820 0
-301 -365 -821 0
-302 -366 -822 0
-303 -367 -823 0
-304 -368 -824 0
-301 -369 -825 0
-302 -370 -826 0
-303 -371 -827 0
-304 -372 -828 0
-301 -373 -829 0
-302 -374 -830 0
-303 -375 -831 0
-304 -376 -832 0
-301 -377 -833 0
-302 -378 -834 0
-303 -379 -835 0
-304 -380 -836 0
-301 -381 -837 0
-302 -382 -838 0
-303 -383 -839 0
-304 -384 -840 0
-301 -385 -841 0
-302 -386 -842 0
-303 -387 -843 0
-304 -388 -844 0
-301 -389 -845 0
-302 -390 -846 0
-303 -391 -847 0
-304 -392 -848 0
-301 -393 -849 0
-302 -394 -850 0
-303 -395 -851 0
-304 -396 -852 0
-301 -397 -853 0
-302 -398 -854 0
-303 -399 -855 0
-304 -400 -856 0
-301 -401 -857 0
-302 -402 -858 0
-303 -403 -859 0
-304 -404 -860 0
-301 -405 -861 0
-302 -406 -862 0
-303 -407 -863 0
-304 -408 -864 0
-301 -409 -865 0
-302 -410 -866 0
-303 -411 -867 0
-304 -412 -868 0
-301 -413 -869 0
-302 -414 -870 0
-303 -415 -871 0
-304 -416 -872 0
-301 -417 -873 0
-302 -418 -874 0
-303 -419 -875 0
-304 -420 -876 0
-301 -421 -877 0
-302 -422 -878 0
-303 -423 -879 0
-304 -424 -880 0
-301 -425 -881 0
-302 -426 -882 0
-303 -427 -883 0
-304 -428 -884 0
-301 -429 -885 0
-302 -430 -886 0
-303 -431 -887 0
-304 -432 -888 0
-301 -433 -889 0
-302 -434 -890 0
-303 -435 -891 0
-304 -436 -892 0
-301 -437 -893 0
-302 -438 -894 0
-303 -439 -895 0
-304 -440 -896 0
-301 -441 -897 0
-302 -442 -898 0
-303 -443 -899 0
-304 -444 -900 0
-301 -445 -901 0
-302 -446 -902 0
-303 -447 -903 0
-304 -448 -904 0
-1 -309 -469 0
-2 -310 -470 0
-3 -311 -471 0
-4 -312 -472 0
-5 -309 -473 0
-6 -310 -474 0
-7 -311 -475 0
-8 -312 -476 0
-9 -309 -477 0
-10 -310 -478 0
-11 -311 -479 0
-12 -312 -480 0
-13 -309 -481 0
-14 -310 -482 0
-15 -311 -483 0
-16 -312 -484 0
-17 -309 -485 0
-18 -310 -486 0
-19 -311 -487 0
-20 -312 -488 0
-21 -309 -489 0
-22 -310 -490 0
-23 -311 -491 0
-24 -312 -492 0
-25 -309 -493 0
-26 -310 -494 0
-27 -311 -495 0
-28 -312 -496 0
-29 -309 -497 0
-30 -310 -498 0
-31 -311 -499 0
-32 -312 -500 0
-33 -309 -501 0
-34 -310 -502 0
-35 -311 -503 0
-36 -312 -504 0
-37 -309 -505 0
-38 -310 -506 0
-39 -311 -507 0
-40 -312 -508 0
-41 -309 -509 0
-42 -310 -510 0
-43 -311 -511 0
-44 -312 -512 0
-45 -309 -513 0
-46 -310 -514 0
-47 -311 -515 0
-48 -312 -516 0
-49 -309 -517 0
-50 -310 -518 0
-51 -311 -519 0
-52 -312 -520 0
-53 -309 -521 0
-54 -310 -522 0
-55 -311 -523 0
-56 -312 -524 0
-57 -309 -525 0
-58 -310 -526 0
-59 -311 -527 0
-60 -312 -528 0
-61 -309 -529 0
-62 -310 -530 0
-63 -311 -531 0
-64 -312 -532 0
-65 -309 -533 0
-66 -310 -534 0
-67 -311 -535 0
-68 -312 -536 0
-69 -309 -537 0
-70 -310 -538 0
-71 -311 -539 0
-72 -312 -540 0
-73 -309 -541 0
-74 -310 -542 0
-75 -311 -543 0
-76 -312 -544 0
-77 -309 -545 0
-78 -310 -546 0
-79 -311 -547 0
-80 -312 -548 0
-81 -309 -549 0
-82 -310 -550 0
-83 -311 -551 0
-84 -312 -552 0
-85 -309 -553 0
-86 -310 -554 0
-87 -311 -555 0
-88 -312 -556 0
-89 -309 -557 0
-90 -310 -558 0
-91 -311 -559 0
-92 -312 -560 0
-93 -309 -561 0
-94 -310 -562 0
-95 -311 -563 0
-96 -312 -564 0
-97 -309 -565 0
-98 -310 -566 0
-99 -311 -567 0
-100 -312 -568 0
-101 -309 -569 0
-102 -310 -570 0
-103 -311 -571 0
-104 -312 -572 0
-105 -309 -573 0
-106 -310 -574 0
-107 -311 -575 0
-108 -312 -576 0
-109 -309 -577 0
-110 -310 -578 0
-111 -311 -579 0
-112 -312 -580 0
-113 -309 -581 0
-114 -310 -582 0
-115 -311 -583 0
-116 -312 -584 0
-117 -309 -585 0
-118 -310 -586 0
-119 -311 -587 0
-120 -312 -588 0
-121 -309 -589 0
-122 -310 -590 0
-123 -311 -591 0
-124 -312 -592 0
-125 -309 -593 0
-126 -310 -594 0
-127 -311 -595 0
-128 -312 -596 0
-129 -309 -597 0
-130 -310 -598 0
-131 -311 -599 0
-132 -312 -600 0
-133 -309 -601 0
-134 -310 -602 0
-135 -311 -603 0
-136 -312 -604 0
-137 -309 -605 0
-138 -310 -606 0
-139 -311 -607 0
-140 -312 -608 0
-141 -309 -609 0
-142 -310 -610 0
-143 -311 -611 0
-144 -312 -612 0
-145 -309 -613 0
-146 -310 -614 0
-147 -311 -615 0
-148 -312 -616 0
-149 -309 -617 0
-150 -310 -618 0
-151 -311 -619 0
-152 -312 -620 0
-153 -309 -621 0
-154 -310 -622 0
-155 -311 -623 0
-156 -312 -624 0
-157 -309 -625 0
-158 -310 -626 0
-159 -311 -627 0
-160 -312 -628 0
-161 -309 -629 0
-162 -310 -630 0
-163 -311 -631 0
-164 -312 -632 0
-165 -309 -633 0
-166 -310 -634 0
-167 -311 -635 0
-168 -312 -636 0
-169 -309 -637 0
-170 -310 -638 0
-171 -311 -639 0
-172 -312 -640 0
-173 -309 -641 0
-174 -310 -642 0
-175 -311 -643 0
-176 -312 -644 0
-177 -309 -645 0
-178 -310 -646 0
-179 -311 -647 0
-180 -312 -648 0
-181 -309 -649 0
-182 -310 -650 0
-183 -311 -651 0
-184 -312 -652 0
-185 -309 -653 0
-186 -310 -654 0
-187 -311 -655 0
-188 -312 -656 0
-189 -309 -657 0
-190 -310 -658 0
-191 -311 -659 0
-192 -312 -660 0
-193 -309 -661 0
-194 -310 -662 0
-195 -311 -663 0
-196 -312 -664 0
-197 -309 -665 0
-198 -310 -666 0
-199 -311 -667 0
-200 -312 -668 0
-201 -309 -669 0
-202 -310 -670 0
-203 -311 -671 0
-204 -312 -672 0
-205 -309 -673 0
-206 -310 -674 0
-207 -311 -675 0
-208 -312 -676 0
-209 -309 -677 0
-210 -310 -678 0
-211 -311 -679 0
-212 -312 -680 0
-213 -309 -681 0
-214 -310 -682 0
-215 -311 -683 0
-216 -312 -684 0
-217 -309 -685 0
-218 -310 -686 0
-219 -311 -687 0
-220 -312 -688 0
-221 -309 -689 0
-222 -310 -690 0
-223 -311 -691 0
-224 -312 -692 0
-225 -309 -693 0
-226 -310 -694 0
-227 -311 -695 0
-228 -312 -696 0
-229 -309 -697 0
-230 -310 -698 0
-231 -311 -699 0
-232 -312 -700 0
-233 -309 -701 0
-234 -310 -702 0
-235 -311 -703 0
-236 -312 -704 0
-237 -309 -705 0
-238 -310 -706 0
-239 -311 -707 0
-240 -312 -708 0
-241 -309 -709 0
-242 -310 -710 0
-243 -311 -711 0
-244 -312 -712 0
-245 -309 -713 0
-246 -310 -714 0
-247 -311 -715 0
-248 -312 -716 0
-249 -309 -717 0
-250 -310 -718 0
-251 -311 -719 0
-252 -312 -720 0
-253 -309 -721 0
-254 -310 -722 0
-255 -311 -723 0
-256 -312 -724 0
-257 -309 -725 0
-258 -310 -726 0
-259 -311 -727 0
-260 -312 -728 0
-261 -309 -729 0
-262 -310 -730 0
-263 -311 -731 0
-264 -312 -732 0
-265 -309 -733 0
-266 -310 -734 0
-267 -311 -735 0
-268 -312 -736 0
-269 -309 -737 0
-270 -310 -738 0
-271 -311 -739 0
-272 -312 -740 0
-273 -309 -741 0
-274 -310 -742 0
-275 -311 -743 0
-276 -312 -744 0
-277 -309 -745 0
-278 -310 -746 0
-279 -311 -747 0
-280 -312 -748 0
-281 -309 -749 0
-282 -310 -750 0
-283 -311 -751 0
-284 -312 -752 0
-285 -309 -753 0
-286 -310 -754 0
-287 -311 -755 0
-288 -312 -756 0
-289 -309 -757 0
-290 -310 -758 0
-291 -311 -759 0
-292 -312 -760 0
-293 -309 -761 0
-294 -310 -762 0
-295 -311 -763 0
-296 -312 -764 0
-297 -309 -765 0
-298 -310 -766 0
-299 -311 -767 0
-300 -312 -768 0
-301 -309 -769 0
-302 -310 -770 0
-303 -311 -771 0
-304 -312 -772 0
-305 -309 -773 0
-306 -310 -774 0
-307 -311 -775 0
-308 -312 -776 0
-309 -777 0
-310 -778 0
-311 -779 0
-312 -780 0
-309 -313 -781 0
-310 -314 -782 0
-311 -315 -783 0
-312 -316 -784 0
-309 -317 -785 0
-310 -318 -786 0
-311 -319 -787 0
-312 -320 -788 0
-309 -321 -789 0
-310 -322 -790 0
-311 -323 -791 0
-312 -324 -792 0
-309 -325 -793 0
-310 -326 -794 0
-311 -327 -795 0
-312 -328 -796 0
-309 -329 -797 0
-310 -330 -798 0
-311 -331 -799 0
-312 -332 -800 0
-309 -333 -801 0
-310 -334 -802 0
-311 -335 -803 0
-312 -336 -804 0
-309 -337 -805 0
-310 -338 -806 0
-311 -339 -807 0
-312 -340 -808 0
-309 -341 -809 0
-310 -342 -810 0
-311 -343 -811 0
-312 -344 -812 0
-309 -345 -813 0
-310 -346 -814 0
-311 -347 -815 0
-312 -348 -816 0
-309 -349 -817 0
-310 -350 -818 0
-311 -351 -819 0
-312 -352 -820 0
-309 -353 -821 0
-310 -354 -822 0
-311 -355 -823 0
-312 -356 -824 0
-309 -357 -825 0
-310 -358 -826 0
-311 -359 -827 0
-312 -360 -828 0
-309 -361 -829 0
-310 -362 -830 0
-311 -363 -831 0
-312 -364 -832 0
-309 -365 -833 0
-310 -366 -834 0
-311 -367 -835 0
-312 -368 -836 0
-309 -369 -837 0
-310 -370 -838 0
-311 -371 -839 0
-312 -372 -840 0
-309 -373 -841 0
-310 -374 -842 0
-311 -375 -843 0
-312 -376 -844 0
-309 -377 -845 0
-310 -378 -846 0
-311 -379 -847 0
-312 -380 -848 0
-309 -381 -849 0
-310 -382 -850 0
-311 -383 -851 0
-312 -384 -852 0
-309 -385 -853 0
-310 -386 -854 0
-311 -387 -855 0
-312 -388 -856 0
-309 -389 -857 0
-310 -390 -858 0
-311 -391 -859 0
-312 -392 -860 0
-309 -393 -861 0
-310 -394 -862 0
-311 -395 -863 0
-312 -396 -864 0
-309 -397 -865 0
-310 -398 -866 0
-311 -399 -867 0
-312 -400 -868 0
-309 -401 -869 0
-310 -402 -870 0
-311 -403 -871 0
-312 -404 -872 0
-309 -405 -873 0
-310 -406 -874 0
-311 -407 -875 0
-312 -408 -876 0
-309 -409 -877 0
-310 -410 -878 0
-311 -411 -879 0
-312 -412 -880 0
-309 -413 -881 0
-310 -414 -882 0
-311 -415 -883 0
-312 -416 -884 0
-309 -417 -885 0
-310 -418 -886 0
-311 -419 -887 0
-312 -420 -888 0
-309 -421 -889 0
-310 -422 -890 0
-311 -423 -891 0
-312 -424 -892 0
-309 -425 -893 0
-310 -426 -894 0
-311 -427 -895 0
-312 -428 -896 0
-309 -429 -897 0
-310 -430 -898 0
-311 -431 -899 0
-312 -432 -900 0
-309 -433 -901 0
-310 -434 -902 0
-311 -435 -903 0
-312 -436 -904 0
-1 -317 -481 0
-2 -318 -482 0
-3 -319 -483 0
-4 -320 -484 0
-5 -317 -485 0
-6 -318 -486 0
-7 -319 -487 0
-8 -320 -488 0
-9 -317 -489 0
-10 -318 -490 0
-11 -319 -491 0
-12 -320 -492 0
-13 -317 -493 0
-14 -318 -494 0
-15 -319 -495 0
-16 -320 -496 0
-17 -317 -497 0
-18 -318 -498 0
-19 -319 -499 0
-20 -320 -500 0
-21 -317 -501 0
-22 -318 -502 0
-23 -319 -503 0
-24 -320 -504 0
-25 -317 -505 0
-26 -318 -506 0
-27 -319 -507 0
-28 -320 -508 0
-29 -317 -509 0
-30 -318 -510 0
-31 -319 -511 0
-32 -320 -512 0
-33 -317 -513 0
-34 -318 -514 0
-35 -319 -515 0
-36 -320 -516 0
-37 -317 -517 0
-38 -318 -518 0
-39 -319 -519 0
-40 -320 -520 0
-41 -317 -521 0
-42 -318 -522 0
-43 -319 -523 0
-44 -320 -524 0
-45 -317 -525 0
-46 -318 -526 0
-47 -319 -527 0
-48 -320 -528 0
-49 -317 -529 0
-50 -318 -530 0
-51 -319 -531 0
-52 -320 -532 0
-53 -317 -533 0
-54 -318 -534 0
-55 -319 -535 0
-56 -320 -536 0
-57 -317 -537 0
-58 -318 -538 0
-59 -319 -539 0
-60 -320 -540 0
-61 -317 -541 0
-62 -318 -542 0
-63 -319 -543 0
-64 -320 -544 0
-65 -317 -545 0
-66 -318 -546 0
-67 -319 -547 0
-68 -320 -548 0
-69 -317 -549 0
-70 -318 -550 0
-71 -319 -551 0
-72 -320 -552 0
-73 -317 -553 0
-74 -318 -554 0
-75 -319 -555 0
-76 -320 -556 0
-77 -317 -557 0
-78 -318 -558 0
-79 -319 -559 0
-80 -320 -560 0
-81 -317 -561 0
-82 -318 -562 0
-83 -319 -563 0
-84 -320 -564 0
-85 -317 -565 0
-86 -318 -566 0
-87 -319 -567 0
-88 -320 -568 0
-89 -317 -569 0
-90 -318 -570 0
-91 -319 -571 0
-92 -320 -572 0
-93 -317 -573 0
-94 -318 -574 0
-95 -319 -575 0
-96 -320 -576 0
-97 -317 -577 0
-98 -318 -578 0
-99 -319 -579 0
-100 -320 -580 0
-101 -317 -581 0
-102 -318 -582 0
-103 -319 -583 0
-104 -320 -584 0
-105 -317 -585 0
-106 -318 -586 0
-107 -319 -587 0
-108 -320 -588 0
-109 -317 -589 0
-110 -318 -590 0
-111 -319 -591 0
-112 -320 -592 0
-113 -317 -593 0
-114 -318 -594 0
-115 -319 -595 0
-116 -320 -596 0
-117 -317 -597 0
-118 -318 -598 0
-119 -319 -599 0
-120 -320 -600 0
-121 -317 -601 0
-122 -318 -602 0
-123 -319 -603 0
-124 -320 -604 0
-125 -317 -605 0
-126 -318 -606 0
-127 -319 -607 0
-128 -320 -608 0
-129 -317 -609 0
-130 -318 -610 0
-131 -319 -611 0
-132 -320 -612 0
-133 -317 -613 0
-134 -318 -614 0
-135 -319 -615 0
-136 -320 -616 0
-137 -317 -617 0
-138 -318 -618 0
-139 -319 -619 0
-140 -320 -620 0
-141 -317 -621 0
-142 -318 -622 0
-143 -319 -623 0
-144 -320 -624 0
-145 -317 -625 0
-146 -318 -626 0
-147 -319 -627 0
-148 -320 -628 0
-149 -317 -629 0
-150 -318 -630 0
-151 -319 -631 0
-152 -320 -632 0
-153 -317 -633 0
-154 -318 -634 0
-155 -319 -635 0
-156 -320 -636 0
-157 -317 -637 0
-158 -318 -638 0
-159 -319 -639 0
-160 -320 -640 0
-161 -317 -641 0
-162 -318 -642 0
-163 -319 -643 0
-164 -320 -644 0
-165 -317 -645 0
-166 -318 -646 0
-167 -319 -647 0
-168 -320 -648 0
-169 -317 -649 0
-170 -318 -650 0
-171 -319 -651 0
-172 -320 -652 0
-173 -317 -653 0
-174 -318 -654 0
-175 -319 -655 0
-176 -320 -656 0
-177 -317 -657 0
-178 -318 -658 0
-179 -319 -659 0
-180 -320 -660 0
-181 -317 -661 0
-182 -318 -662 0
-183 -319 -663 0
-184 -320 -664 0
-185 -317 -665 0
-186 -318 -666 0
-187 -319 -667 0
-188 -320 -668 0
-189 -317 -669 0
-190 -318 -670 0
-191 -319 -671 0
-192 -320 -672 0
-193 -317 -673 0
-194 -318 -674 0
-195 -319 -675 0
-196 -320 -676 0
-197 -317 -677 0
-198 -318 -678 0
-199 -319 -679 0
-200 -320 -680 0
-201 -317 -681 0
-202 -318 -682 0
-203 -319 -683 0
-204 -320 -684 0
-205 -317 -685 0
-206 -318 -686 0
-207 -319 -687 0
-208 -320 -688 0
-209 -317 -689 0
-210 -318 -690 0
-211 -319 -691 0
-212 -320 -692 0
-213 -317 -693 0
-214 -318 -694 0
-215 -319 -695 0
-216 -320 -696 0
-217 -317 -697 0
-218 -318 -698 0
-219 -319 -699 0
-220 -320 -700 0
-221 -317 -701 0
-222 -318 -702 0
-223 -319 -703 0
-224 -320 -704 0
-225 -317 -705 0
-226 -318 -706 0
-227 -319 -707 0
-228 -320 -708 0
-229 -317 -709 0
-230 -318 -710 0
-231 -319 -711 0
-232 -320 -712 0
-233 -317 -713 0
-234 -318 -714 0
-235 -319 -715 0
-236 -320 -716 0
-237 -317 -717 0
-238 -318 -718 0
-239 -319 -719 0
-240 -320 -720 0
-241 -317 -721 0
-242 -318 -722 0
-243 -319 -723 0
-244 -320 -724 0
-245 -317 -725 0
-246 -318 -726 0
-247 -319 -727 0
-248 -320 -728 0
-249 -317 -729 0
-250 -318 -730 0
-251 -319 -731 0
-252 -320 -732 0
-253 -317 -733 0
-254 -318 -734 0
-255 -319 -735 0
-256 -320 -736 0
-257 -317 -737 0
-258 -318 -738 0
-259 -319 -739 0
-260 -320 -740 0
-261 -317 -741 0
-262 -318 -742 0
-263 -319 -743 0
-264 -320 -744 0
-265 -317 -745 0
-266 -318 -746 0
-267 -319 -747 0
-268 -320 -748 0
-269 -317 -749 0
-270 -318 -750 0
-271 -319 -751 0
-272 -320 -752 0
-273 -317 -753 0
-274 -318 -754 0
-275 -319 -755 0
-276 -320 -756 0
-277 -317 -757 0
-278 -318 -758 0
-279 -319 -759 0
-280 -320 -760 0
-281 -317 -761 0
-282 -318 -762 0
-283 -319 -763 0
-284 -320 -764 0
-285 -317 -765 0
-286 -318 -766 0
-287 -319 -767 0
-288 -320 -768 0
-289 -317 -769 0
-290 -318 -770 0
-291 -319 -771 0
-292 -320 -772 0
-293 -317 -773 0
-294 -318 -774 0
-295 -319 -775 0
-296 -320 -776 0
-297 -317 -777 0
-298 -318 -778 0
-299 -319 -779 0
-300 -320 -780 0
-301 -317 -781 0
-302 -318 -782 0
-303 -319 -783 0
-304 -320 -784 0
-305 -317 -785 0
-306 -318 -786 0
-307 -319 -787 0
-308 -320 -788 0
-309 -317 -789 0
-310 -318 -790 0
-311 -319 -791 0
-312 -320 -792 0
-313 -317 -793 0
-314 -318 -794 0
-315 -319 -795 0
-316 -320 -796 0
-317 -797 0
-318 -798 0
-319 -799 0
-320 -800 0
-317 -321 -801 0
-318 -322 -802 0
-319 -323 -803 0
-320 -324 -804 0
-317 -325 -805 0
-318 -326 -806 0
-319 -327 -807 0
-320 -328 -808 0
-317 -329 -809 0
-318 -330 -810 0
-319 -331 -811 0
-320 -332 -812 0
-317 -333 -813 0
-318 -334 -814 0
-319 -335 -815 0
-320 -336 -816 0
-317 -337 -817 0
-318 -338 -818 0
-319 -339 -819 0
-320 -340 -820 0
-317 -341 -821 0
-318 -342 -822 0
-319 -343 -823 0
-320 -344 -824 0
-317 -345 -825 0
-318 -346 -826 0
-319 -347 -827 0
-320 -348 -828 0
-317 -349 -829 0
-318 -350 -830 0
-319 -351 -831 0
-320 -352 -832 0
-317 -353 -833 0
-318 -354 -834 0
-319 -355 -835 0
-320 -356 -836 0
-317 -357 -837 0
-318 -358 -838 0
-319 -359 -839 0
-320 -360 -840 0
-317 -361 -841 0
-318 -362 -842 0
-319 -363 -843 0
-320 -364 -844 0
-317 -365 -845 0
-318 -366 -846 0
-319 -367 -847 0
-320 -368 -848 0
-317 -369 -849 0
-318 -370 -850 0
-319 -371 -851 0
-320 -372 -852 0
-317 -373 -853 0
-318 -374 -854 0
-319 -375 -855 0
-320 -376 -856 0
-317 -377 -857 0
-318 -378 -858 0
-319 -379 -859 0
-320 -380 -860 0
-317 -381 -861 0
-318 -382 -862 0
-319 -383 -863 0
-320 -384 -864 0
-317 -385 -865 0
-318 -386 -866 0
-319 -387 -867 0
-320 -388 -868 0
-317 -389 -869 0
-318 -390 -870 0
-319 -391 -871 0
-320 -392 -872 0
-317 -393 -873 0
-318 -394 -874 0
-319 -395 -875 0
-320 -396 -876 0
-317 -397 -877 0
-318 -398 -878 0
-319 -399 -879 0
-320 -400 -880 0
-317 -401 -881 0
-318 -402 -882 0
-319 -403 -883 0
-320 -404 -884 0
-317 -405 -885 0
-318 -406 -886 0
-319 -407 -887 0
-320 -408 -888 0
-317 -409 -889 0
-318 -410 -890 0
-319 -411 -891 0
-320 -412 -892 0
-317 -413 -893 0
-318 -414 -894 0
-319 -415 -895 0
-320 -416 -896 0
-317 -417 -897 0
-318 -418 -898 0
-319 -419 -899 0
-320 -420 -900 0
-317 -421 -901 0
-318 -422 -902 0
-319 -423 -903 0
-320 -424 -904 0
-1 -325 -493 0
-2 -326 -494 0
-3 -327 -495 0
-4 -328 -496 0
-5 -325 -497 0
-6 -326 -498 0
-7 -327 -499 0
-8 -328 -500 0
-9 -325 -501 0
-10 -326 -502 0
-11 -327 -503 0
-12 -328 -504 0
-13 -325 -505 0
-14 -326 -506 0
-15 -327 -507 0
-16 -328 -508 0
-17 -325 -509 0
-18 -326 -510 0
-19 -327 -511 0
-20 -328 -512 0
-21 -325 -513 0
-22 -326 -514 0
-23 -327 -515 0
-24 -328 -516 0
-25 -325 -517 0
-26 -326 -518 0
-27 -327 -519 0
-28 -328 -520 0
-29 -325 -521 0
-30 -326 -522 0
-31 -327 -523 0
-32 -328 -524 0
-33 -325 -525 0
-34 -326 -526 0
-35 -327 -527 0
-36 -328 -528 0
-37 -325 -529 0
-38 -326 -530 0
-39 -327 -531 0
-40 -328 -532 0
-41 -325 -533 0
-42 -326 -534 0
-43 -327 -535 0
-44 -328 -536 0
-45 -325 -537 0
-46 -326 -538 0
-47 -327 -539 0
-48 -328 -540 0
-49 -325 -541 0
-50 -326 -542 0
-51 -327 -543 0
-52 -328 -544 0
-53 -325 -545 0
-54 -326 -546 0
-55 -327 -547 0
-56 -328 -548 0
-57 -325 -549 0
-58 -326 -550 0
-59 -327 -551 0
-60 -328 -552 0
-61 -325 -553 0
-62 -326 -554 0
-63 -327 -555 0
-64 -328 -556 0
-65 -325 -557 0
-66 -326 -558 0
-67 -327 -559 0
-68 -328 -560 0
-69 -325 -561 0
-70 -326 -562 0
-71 -327 -563 0
-72 -328 -564 0
-73 -325 -565 0
-74 -326 -566 0
-75 -327 -567 0
-76 -328 -568 0
-77 -325 -569 0
-78 -326 -570 0
-79 -327 -571 0
-80 -328 -572 0
-81 -325 -573 0
-82 -326 -574 0
-83 -327 -575 0
-84 -328 -576 0
-85 -325 -577 0
-86 -326 -578 0
-87 -327 -579 0
-88 -328 -580 0
-89 -325 -581 0
-90 -326 -582 0
-91 -327 -583 0
-92 -328 -584 0
-93 -325 -585 0
-94 -326 -586 0
-95 -327 -587 0
-96 -328 -588 0
-97 -325 -589 0
-98 -326 -590 0
-99 -327 -591 0
-100 -328 -592 0
-101 -325 -593 0
-102 -326 -594 0
-103 -327 -595 0
-104 -328 -596 0
-105 -325 -597 0
-106 -326 -598 0
-107 -327 -599 0
-108 -328 -600 0
-109 -325 -601 0
-110 -326 -602 0
-111 -327 -603 0
-112 -328 -604 0
-113 -325 -605 0
-114 -326 -606 0
-115 -327 -607 0
-116 -328 -608 0
-117 -325 -609 0
-118 -326 -610 0
-119 -327 -611 0
-120 -328 -612 0
-121 -325 -613 0
-122 -326 -614 0
-123 -327 -615 0
-124 -328 -616 0
-125 -325 -617 0
-126 -326 -618 0
-127 -327 -619 0
-128 -328 -620 0
-129 -325 -621 0
-130 -326 -622 0
-131 -327 -623 0
-132 -328 -624 0
-133 -325 -625 0
-134 -326 -626 0
-135 -327 -627 0
-136 -328 -628 0
-137 -325 -629 0
-138 -326 -630 0
-139 -327 -631 0
-140 -328 -632 0
-141 -325 -633 0
-142 -326 -634 0
-143 -327 -635 0
-144 -328 -636 0
-145 -325 -637 0
-146 -326 -638 0
-147 -327 -639 0
-148 -328 -640 0
-149 -325 -641 0
-150 -326 -642 0
-151 -327 -643 0
-152 -328 -644 0
-153 -325 -645 0
-154 -326 -646 0
-155 -327 -647 0
-156 -328 -648 0
-157 -325 -649 0
-158 -326 -650 0
-159 -327 -651 0
-160 -328 -652 0
-161 -325 -653 0
-162 -326 -654 0
-163 -327 -655 0
-164 -328 -656 0
-165 -325 -657 0
-166 -326 -658 0
-167 -327 -659 0
-168 -328 -660 0
-169 -325 -661 0
-170 -326 -662 0
-171 -327 -663 0
-172 -328 -664 0
-173 -325 -665 0
-174 -326 -666 0
-175 -327 -667 0
-176 -328 -668 0
-177 -325 -669 0
-178 -326 -670 0
-179 -327 -671 0
-180 -328 -672 0
-181 -325 -673 0
-182 -326 -674 0
-183 -327 -675 0
-184 -328 -676 0
-185 -325 -677 0
-186 -326 -678 0
-187 -327 -679 0
-188 -328 -680 0
-189 -325 -681 0
-190 -326 -682 0
-191 -327 -683 0
-192 -328 -684 0
-193 -325 -685 0
-194 -326 -686 0
-195 -327 -687 0
-196 -328 -688 0
-197 -325 -689 0
-198 -326 -690 0
-199 -327 -691 0
-200 -328 -692 0
-201 -325 -693 0
-202 -326 -694 0
-203 -327 -695 0
-204 -328 -696 0
-205 -325 -697 0
-206 -326 -698 0
-207 -327 -699 0
-208 -328 -700 0
-209 -325 -701 0
-210 -326 -702 0
-211 -327 -703 0
-212 -328 -704 0
-213 -325 -705 0
-214 -326 -706 0
-215 -327 -707 0
-216 -328 -708 0
-217 -325 -709 0
-218 -326 -710 0
-219 -327 -711 0
-220 -328 -712 0
-221 -325 -713 0
-222 -326 -714 0
-223 -327 -715 0
-224 -328 -716 0
-225 -325 -717 0
-226 -326 -718 0
-227 -327 -719 0
-228 -328 -720 0
-229 -325 -721 0
-230 -326 -722 0
-231 -327 -723 0
-232 -328 -724 0
-233 -325 -725 0
-234 -326 -726 0
-235 -327 -727 0
-236 -328 -728 0
-237 -325 -729 0
-238 -326 -730 0
-239 -327 -731 0
-240 -328 -732 0
-241 -325 -733 0
-242 -326 -734 0
-243 -327 -735 0
-244 -328 -736 0
-245 -325 -737 0
-246 -326 -738 0
-247 -327 -739 0
-248 -328 -740 0
-249 -325 -741 0
-250 -326 -742 0
-251 -327 -743 0
-252 -328 -744 0
-253 -325 -745 0
-254 -326 -746 0
-255 -327 -747 0
-256 -328 -748 0
-257 -325 -749 0
-258 -326 -750 0
-259 -327 -751 0
-260 -328 -752 0
-261 -325 -753 0
-262 -326 -754 0
-263 -327 -755 0
-264 -328 -756 0
-265 -325 -757 0
-266 -326 -758 0
-267 -327 -759 0
-268 -328 -760 0
-269 -325 -761 0
-270 -326 -762 0
-271 -327 -763 0
-272 -328 -764 0
-273 -325 -765 0
-274 -326 -766 0
-275 -327 -767 0
-276 -328 -768 0
-277 -325 -769 0
-278 -326 -770 0
-279 -327 -771 0
-280 -328 -772 0
-281 -325 -773 0
-282 -326 -774 0
-283 -327 -775 0
-284 -328 -776 0
-285 -325 -777 0
-286 -326 -778 0
-287 -327 -779 0
-288 -328 -780 0
-289 -325 -781 0
-290 -326 -782 0
-291 -327 -783 0
-292 -328 -784 0
-293 -325 -785 0
-294 -326 -786 0
-295 -327 -787 0
-296 -328 -788 0
-297 -325 -789 0
-298 -326 -790 0
-299 -327 -791 0
-300 -328 -792 0
-301 -325 -793 0
-302 -326 -794 0
-303 -327 -795 0
-304 -328 -796 0
-305 -325 -797 0
-306 -326 -798 0
-307 -327 -799 0
-308 -328 -800 0
-309 -325 -801 0
-310 -326 -802 0
-311 -327 -803 0
-312 -328 -804 0
-313 -325 -805 0
-314 -326 -806 0
-315 -327 -807 0
-316 -328 -808 0
-317 -325 -809 0
-318 -326 -810 0
-319 -327 -811 0
-320 -328 -812 0
-321 -325 -813 0
-322 -326 -814 0
-323 -327 -815 0
-324 -328 -816 0
-325 -817 0
-326 -818 0
-327 -819 0
-328 -820 0
-325 -329 -821 0
-326 -330 -822 0
-327 -331 -823 0
-328 -332 -824 0
-325 -333 -825 0
-326 -334 -826 0
-327 -335 -827 0
-328 -336 -828 0
-325 -337 -829 0
-326 -338 -830 0
-327 -339 -831 0
-328 -340 -832 0
-325 -341 -833 0
-326 -342 -834 0
-327 -343 -835 0
-328 -344 -836 0
-325 -345 -837 0
-326 -346 -838 0
-327 -347 -839 0
-328 -348 -840 0
-325 -349 -841 0
-326 -350 -842 0
-327 -351 -843 0
-328 -352 -844 0
-325 -353 -845 0
-326 -354 -846 0
-327 -355 -847 0
-328 -356 -848 0
-325 -357 -849 0
-326 -358 -850 0
-327 -359 -851 0
-328 -360 -852 0
-325 -361 -853 0
-326 -362 -854 0
-327 -363 -855 0
-328 -364 -856 0
-325 -365 -857 0
-326 -366 -858 0
-327 -367 -859 0
-328 -368 -860 0
-325 -369 -861 0
-326 -370 -862 0
-327 -371 -863 0
-328 -372 -864 0
-325 -373 -865 0
-326 -374 -866 0
-327 -375 -867 0
-328 -376 -868 0
-325 -377 -869 0
-326 -378 -870 0
-327 -379 -871 0
-328 -380 -872 0
-325 -381 -873 0
-326 -382 -874 0
-327 -383 -875 0
-328 -384 -876 0
-325 -385 -877 0
-326 -386 -878 0
-327 -387 -879 0
-328 -388 -880 0
-325 -389 -881 0
-326 -390 -882 0
-327 -391 -883 0
-328 -392 -884 0
-325 -393 -885 0
-326 -394 -886 0
-327 -395 -887 0
-328 -396 -888 0
-325 -397 -889 0
-326 -398 -890 0
-327 -399 -891 0
-328 -400 -892 0
-325 -401 -893 0
-326 -402 -894 0
-327 -403 -895 0
-328 -404 -896 0
-325 -405 -897 0
-326 -406 -898 0
-327 -407 -899 0
-328 -408 -900 0
-325 -409 -901 0
-326 -410 -902 0
-327 -411 -903 0
-328 -412 -904 0
-1 -333 -505 0
-2 -334 -506 0
-3 -335 -507 0
-4 -336 -508 0
-5 -333 -509 0
-6 -334 -510 0
-7 -335 -511 0
-8 -336 -512 0
-9 -333 -513 0
-10 -334 -514 0
-11 -335 -515 0
-12 -336 -516 0
-13 -333 -517 0
-14 -334 -518 0
-15 -335 -519 0
-16 -336 -520 0
-17 -333 -521 0
-18 -334 -522 0
-19 -335 -523 0
-20 -336 -524 0
-21 -333 -525 0
-22 -334 -526 0
-23 -335 -527 0
-24 -336 -528 0
-25 -333 -529 0
-26 -334 -530 0
-27 -335 -531 0
-28 -336 -532 0
-29 -333 -533 0
-30 -334 -534 0
-31 -335 -535 0
-32 -336 -536 0
-33 -333 -537 0
-34 -334 -538 0
-35 -335 -539 0
-36 -336 -540 0
-37 -333 -541 0
-38 -334 -542 0
-39 -335 -543 0
-40 -336 -544 0
-41 -333 -545 0
-42 -334 -546 0
-43 -335 -547 0
-44 -336 -548 0
-45 -333 -549 0
-46 -334 -550 0
-47 -335 -551 0
-48 -336 -552 0
-49 -333 -553 0
-50 -334 -554 0
-51 -335 -555 0
-52 -336 -556 0
-53 -333 -557 0
-54 -334 -558 0
-55 -335 -559 0
-56 -336 -560 0
-57 -333 -561 0
-58 -334 -562 0
-59 -335 -563 0
-60 -336 -564 0
-61 -333 -565 0
-62 -334 -566 0
-63 -335 -567 0
-64 -336 -568 0
-65 -333 -569 0
-66 -334 -570 0
-67 -335 -571 0
-68 -336 -572 0
-69 -333 -573 0
-70 -334 -574 0
-71 -335 -575 0
-72 -336 -576 0
-73 -333 -577 0
-74 -334 -578 0
-75 -335 -579 0
-76 -336 -580 0
-77 -333 -581 0
-78 -334 -582 0
-79 -335 -583 0
-80 -336 -584 0
-81 -333 -585 0
-82 -334 -586 0
-83 -335 -587 0
-84 -336 -588 0
-85 -333 -589 0
-86 -334 -590 0
-87 -335 -591 0
-88 -336 -592 0
-89 -333 -593 0
-90 -334 -594 0
-91 -335 -595 0
-92 -336 -596 0
-93 -333 -597 0
-94 -334 -598 0
-95 -335 -599 0
-96 -336 -600 0
-97 -333 -601 0
-98 -334 -602 0
-99 -335 -603 0
-100 -336 -604 0
-101 -333 -605 0
-102 -334 -606 0
-103 -335 -607 0
-104 -336 -608 0
-105 -333 -609 0
-106 -334 -610 0
-107 -335 -611 0
-108 -336 -612 0
-109 -333 -613 0
-110 -334 -614 0
-111 -335 -615 0
-112 -336 -616 0
-113 -333 -617 0
-114 -334 -618 0
-115 -335 -619 0
-116 -336 -620 0
-117 -333 -621 0
-118 -334 -622 0
-119 -335 -623 0
-120 -336 -624 0
-121 -333 -625 0
-122 -334 -626 0
-123 -335 -627 0
-124 -336 -628 0
-125 -333 -629 0
-126 -334 -630 0
-127 -335 -631 0
-128 -336 -632 0
-129 -333 -633 0
-130 -334 -634 0
-131 -335 -635 0
-132 -336 -636 0
-133 -333 -637 0
-134 -334 -638 0
-135 -335 -639 0
-136 -336 -640 0
-137 -333 -641 0
-138 -334 -642 0
-139 -335 -643 0
-140 -336 -644 0
-141 -333 -645 0
-142 -334 -646 0
-143 -335 -647 0
-144 -336 -648 0
-145 -333 -649 0
-146 -334 -650 0
-147 -335 -651 0
-148 -336 -652 0
-149 -333 -653 0
-150 -334 -654 0
-151 -335 -655 0
-152 -336 -656 0
-153 -333 -657 0
-154 -334 -658 0
-155 -335 -659 0
-156 -336 -660 0
-157 -333 -661 0
-158 -334 -662 0
-159 -335 -663 0
-160 -336 -664 0
-161 -333 -665 0
-162 -334 -666 0
-163 -335 -667 0
-164 -336 -668 0
-165 -333 -669 0
-166 -334 -670 0
-167 -335 -671 0
-168 -336 -672 0
-169 -333 -673 0
-170 -334 -674 0
-171 -335 -675 0
-172 -336 -676 0
-173 -333 -677 0
-174 -334 -678 0
-175 -335 -679 0
-176 -336 -680 0
-177 -333 -681 0
-178 -334 -682 0
-179 -335 -683 0
-180 -336 -684 0
-181 -333 -685 0
-182 -334 -686 0
-183 -335 -687 0
-184 -336 -688 0
-185 -333 -689 0
-186 -334 -690 0
-187 -335 -691 0
-188 -336 -692 0
-189 -333 -693 0
-190 -334 -694 0
-191 -335 -695 0
-192 -336 -696 0
-193 -333 -697 0
-194 -334 -698 0
-195 -335 -699 0
-196 -336 -700 0
-197 -333 -701 0
-198 -334 -702 0
-199 -335 -703 0
-200 -336 -704 0
-201 -333 -705 0
-202 -334 -706 0
-203 -335 -707 0
-204 -336 -708 0
-205 -333 -709 0
-206 -334 -710 0
-207 -335 -711 0
-208 -336 -712 0
-209 -333 -713 0
-210 -334 -714 0
-211 -335 -715 0
-212 -336 -716 0
-213 -333 -717 0
-214 -334 -718 0
-215 -335 -719 0
-216 -336 -720 0
-217 -333 -721 0
-218 -334 -722 0
-219 -335 -723 0
-220 -336 -724 0
-221 -333 -725 0
-222 -334 -726 0
-223 -335 -727 0
-224 -336 -728 0
-225 -333 -729 0
-226 -334 -730 0
-227 -335 -731 0
-228 -336 -732 0
-229 -333 -733 0
-230 -334 -734 0
-231 -335 -735 0
-232 -336 -736 0
-233 -333 -737 0
-234 -334 -738 0
-235 -335 -739 0
-236 -336 -740 0
-237 -333 -741 0
-238 -334 -742 0
-239 -335 -743 0
-240 -336 -744 0
-241 -333 -745 0
-242 -334 -746 0
-243 -335 -747 0
-244 -336 -748 0
-245 -333 -749 0
-246 -334 -750 0
-247 -335 -751 0
-248 -336 -752 0
-249 -333 -753 0
-250 -334 -754 0
-251 -335 -755 0
-252 -336 -756 0
-253 -333 -757 0
-254 -334 -758 0
-255 -335 -759 0
-256 -336 -760 0
-257 -333 -761 0
-258 -334 -762 0
-259 -335 -763 0
-260 -336 -764 0
-261 -333 -765 0
-262 -334 -766 0
-263 -335 -767 0
-264 -336 -768 0
-265 -333 -769 0
-266 -334 -770 0
-267 -335 -771 0
-268 -336 -772 0
-269 -333 -773 0
-270 -334 -774 0
-271 -335 -775 0
-272 -336 -776 0
-273 -333 -777 0
-274 -334 -778 0
-275 -335 -779 0
-276 -336 -780 0
-277 -333 -781 0
-278 -334 -782 0
-279 -335 -783 0
-280 -336 -784 0
-281 -333 -785 0
-282 -334 -786 0
-283 -335 -787 0
-284 -336 -788 0
-285 -333 -789 0
-286 -334 -790 0
-287 -335 -791 0
-288 -336 -792 0
-289 -333 -793 0
-290 -334 -794 0
-291 -335 -795 0
-292 -336 -796 0
-293 -333 -797 0
-294 -334 -798 0
-295 -335 -799 0
-296 -336 -800 0
-297 -333 -801 0
-298 -334 -802 0
-299 -335 -803 0
-300 -336 -804 0
-301 -333 -805 0
-302 -334 -806 0
-303 -335 -807 0
-304 -336 -808 0
-305 -333 -809 0
-306 -334 -810 0
-307 -335 -811 0
-308 -336 -812 0
-309 -333 -813 0
-310 -334 -814 0
-311 -335 -815 0
-312 -336 -816 0
-313 -333 -817 0
-314 -334 -818 0
-315 -335 -819 0
-316 -336 -820 0
-317 -333 -821 0
-318 -334 -822 0
-319 -335 -823 0
-320 -336 -824 0
-321 -333 -825 0
-322 -334 -826 0
-323 -335 -827 0
-324 -336 -828 0
-325 -333 -829 0
-326 -334 -830 0
-327 -335 -831 0
-328 -336 -832 0
-329 -333 -833 0
-330 -334 -834 0
-331 -335 -835 0
-332 -336 -836 0
-333 -837 0
-334 -838 0
-335 -839 0
-336 -840 0
-333 -337 -841 0
-334 -338 -842 0
-335 -339 -843 0
-336 -340 -844 0
-333 -341 -845 0
-334 -342 -846 0
-335 -343 -847 0
-336 -344 -848 0
-333 -345 -849 0
-334 -346 -850 0
-335 -347 -851 0
-336 -348 -852 0
-333 -349 -853 0
-334 -350 -854 0
-335 -351 -855 0
-336 -352 -856 0
-333 -353 -857 0
-334 -354 -858 0
-335 -355 -859 0
-336 -356 -860 0
-333 -357 -861 0
-334 -358 -862 0
-335 -359 -863 0
-336 -360 -864 0
-333 -361 -865 0
-334 -362 -866 0
-335 -363 -867 0
-336 -364 -868 0
-333 -365 -869 0
-334 -366 -870 0
-335 -367 -871 0
-336 -368 -872 0
-333 -369 -873 0
-334 -370 -874 0
-335 -371 -875 0
-336 -372 -876 0
-333 -373 -877 0
-334 -374 -878 0
-335 -375 -879 0
-336 -376 -880 0
-333 -377 -881 0
-334 -378 -882 0
-335 -379 -883 0
-336 -380 -884 0
-333 -381 -885 0
-334 -382 -886 0
-335 -383 -887 0
-336 -384 -888 0
-333 -385 -889 0
-334 -386 -890 0
-335 -387 -891 0
-336 -388 -892 0
-333 -389 -893 0
-334 -390 -894 0
-335 -391 -895 0
-336 -392 -896 0
-333 -393 -897 0
-334 -394 -898 0
-335 -395 -899 0
-336 -396 -900 0
-333 -397 -901 0
-334 -398 -902 0
-335 -399 -903 0
-336 -400 -904 0
-1 -341 -517 0
-2 -342 -518 0
-3 -343 -519 0
-4 -344 -520 0
-5 -341 -521 0
-6 -342 -522 0
-7 -343 -523 0
-8 -344 -524 0
-9 -341 -525 0
-10 -342 -526 0
-11 -343 -527 0
-12 -344 -528 0
-13 -341 -529 0
-14 -342 -530 0
-15 -343 -531 0
-16 -344 -532 0
-17 -341 -533 0
-18 -342 -534 0
-19 -343 -535 0
-20 -344 -536 0
-21 -341 -537 0
-22 -342 -538 0
-23 -343 -539 0
-24 -344 -540 0
-25 -341 -541 0
-26 -342 -542 0
-27 -343 -543 0
-28 -344 -544 0
-29 -341 -545 0
-30 -342 -546 0
-31 -343 -547 0
-32 -344 -548 0
-33 -341 -549 0
-34 -342 -550 0
-35 -343 -551 0
-36 -344 -552 0
-37 -341 -553 0
-38 -342 -554 0
-39 -343 -555 0
-40 -344 -556 0
-41 -341 -557 0
-42 -342 -558 0
-43 -343 -559 0
-44 -344 -560 0
-45 -341 -561 0
-46 -342 -562 0
-47 -343 -563 0
-48 -344 -564 0
-49 -341 -565 0
-50 -342 -566 0
-51 -343 -567 0
-52 -344 -568 0
-53 -341 -569 0
-54 -342 -570 0
-55 -343 -571 0
-56 -344 -572 0
-57 -341 -573 0
-58 -342 -574 0
-59 -343 -575 0
-60 -344 -576 0
-61 -341 -577 0
-62 -342 -578 0
-63 -343 -579 0
-64 -344 -580 0
-65 -341 -581 0
-66 -342 -582 0
-67 -343 -583 0
-68 -344 -584 0
-69 -341 -585 0
-70 -342 -586 0
-71 -343 -587 0
-72 -344 -588 0
-73 -341 -589 0
-74 -342 -590 0
-75 -343 -591 0
-76 -344 -592 0
-77 -341 -593 0
-78 -342 -594 0
-79 -343 -595 0
-80 -344 -596 0
-81 -341 -597 0
-82 -342 -598 0
-83 -343 -599 0
-84 -344 -600 0
-85 -341 -601 0
-86 -342 -602 0
-87 -343 -603 0
-88 -344 -604 0
-89 -341 -605 0
-90 -342 -606 0
-91 -343 -607 0
-92 -344 -608 0
-93 -341 -609 0
-94 -342 -610 0
-95 -343 -611 0
-96 -344 -612 0
-97 -341 -613 0
-98 -342 -614 0
-99 -343 -615 0
-100 -344 -616 0
-101 -341 -617 0
-102 -342 -618 0
-103 -343 -619 0
-104 -344 -620 0
-105 -341 -621 0
-106 -342 -622 0
-107 -343 -623 0
-108 -344 -624 0
-109 -341 -625 0
-110 -342 -626 0
-111 -343 -627 0
-112 -344 -628 0
-113 -341 -629 0
-114 -342 -630 0
-115 -343 -631 0
-116 -344 -632 0
-117 -341 -633 0
-118 -342 -634 0
-119 -343 -635 0
-120 -344 -636 0
-121 -341 -637 0
-122 -342 -638 0
-123 -343 -639 0
-124 -344 -640 0
-125 -341 -641 0
-126 -342 -642 0
-127 -343 -643 0
-128 -344 -644 0
-129 -341 -645 0
-130 -342 -646 0
-131 -343 -647 0
-132 -344 -648 0
-133 -341 -649 0
-134 -342 -650 0
-135 -343 -651 0
-136 -344 -652 0
-137 -341 -653 0
-138 -342 -654 0
-139 -343 -655 0
-140 -344 -656 0
-141 -341 -657 0
-142 -342 -658 0
-143 -343 -659 0
-144 -344 -660 0
-145 -341 -661 0
-146 -342 -662 0
-147 -343 -663 0
-148 -344 -664 0
-149 -341 -665 0
-150 -342 -666 0
-151 -343 -667 0
-152 -344 -668 0
-153 -341 -669 0
-154 -342 -670 0
-155 -343 -671 0
-156 -344 -672 0
-157 -341 -673 0
-158 -342 -674 0
-159 -343 -675 0
-160 -344 -676 0
-161 -341 -677 0
-162 -342 -678 0
-163 -343 -679 0
-164 -344 -680 0
-165 -341 -681 0
-166 -342 -682 0
-167 -343 -683 0
-168 -344 -684 0
-169 -341 -685 0
-170 -342 -686 0
-171 -343 -687 0
-172 -344 -688 0
-173 -341 -689 0
-174 -342 -690 0
-175 -343 -691 0
-176 -344 -692 0
-177 -341 -693 0
-178 -342 -694 0
-179 -343 -695 0
-180 -344 -696 0
-181 -341 -697 0
-182 -342 -698 0
-183 -343 -699 0
-184 -344 -700 0
-185 -341 -701 0
-186 -342 -702 0
-187 -343 -703 0
-188 -344 -704 0
-189 -341 -705 0
-190 -342 -706 0
-191 -343 -707 0
-192 -344 -708 0
-193 -341 -709 0
-194 -342 -710 0
-195 -343 -711 0
-196 -344 -712 0
-197 -341 -713 0
-198 -342 -714 0
-199 -343 -715 0
-200 -344 -716 0
-201 -341 -717 0
-202 -342 -718 0
-203 -343 -719 0
-204 -344 -720 0
-205 -341 -721 0
-206 -342 -722 0
-207 -343 -723 0
-208 -344 -724 0
-209 -341 -725 0
-210 -342 -726 0
-211 -343 -727 0
-212 -344 -728 0
-213 -341 -729 0
-214 -342 -730 0
-215 -343 -731 0
-216 -344 -732 0
-217 -341 -733 0
-218 -342 -734 0
-219 -343 -735 0
-220 -344 -736 0
-221 -341 -737 0
-222 -342 -738 0
-223 -343 -739 0
-224 -344 -740 0
-225 -341 -741 0
-226 -342 -742 0
-227 -343 -743 0
-228 -344 -744 0
-229 -341 -745 0
-230 -342 -746 0
-231 -343 -747 0
-232 -344 -748 0
-233 -341 -749 0
-234 -342 -750 0
-235 -343 -751 0
-236 -344 -752 0
-237 -341 -753 0
-238 -342 -754 0
-239 -343 -755 0
-240 -344 -756 0
-241 -341 -757 0
-242 -342 -758 0
-243 -343 -759 0
-244 -344 -760 0
-245 -341 -761 0
-246 -342 -762 0
-247 -343 -763 0
-248 -344 -764 0
-249 -341 -765 0
-250 -342 -766 0
-251 -343 -767 0
-252 -344 -768 0
-253 -341 -769 0
-254 -342 -770 0
-255 -343 -771 0
-256 -344 -772 0
-257 -341 -773 0
-258 -342 -774 0
-259 -343 -775 0
-260 -344 -776 0
-261 -341 -777 0
-262 -342 -778 0
-263 -343 -779 0
-264 -344 -780 0
-265 -341 -781 0
-266 -342 -782 0
-267 -343 -783 0
-268 -344 -784 0
-269 -341 -785 0
-270 -342 -786 0
-271 -343 -787 0
-272 -344 -788 0
-273 -341 -789 0
-274 -342 -790 0
-275 -343 -791 0
-276 -344 -792 0
-277 -341 -793 0
-278 -342 -794 0
-279 -343 -795 0
-280 -344 -796 0
-281 -341 -797 0
-282 -342 -798 0
-283 -343 -799 0
-284 -344 -800 0
-285 -341 -801 0
-286 -342 -802 0
-287 -343 -803 0
-288 -344 -804 0
-289 -341 -805 0
-290 -342 -806 0
-291 -343 -807 0
-292 -344 -808 0
-293 -341 -809 0
-294 -342 -810 0
-295 -343 -811 0
-296 -344 -812 0
-297 -341 -813 0
-298 -342 -814 0
-299 -343 -815 0
-300 -344 -816 0
-301 -341 -817 0
-302 -342 -818 0
-303 -343 -819 0
-304 -344 -820 0
-305 -341 -821 0
-306 -342 -822 0
-307 -343 -823 0
-308 -344 -824 0
-309 -341 -825 0
-310 -342 -826 0
-311 -343 -827 0
-312 -344 -828 0
-313 -341 -829 0
-314 -342 -830 0
-315 -343 -831 0
-316 -344 -832 0
-317 -341 -833 0
-318 -342 -834 0
-319 -343 -835 0
-320 -344 -836 0
-321 -341 -837 0
-322 -342 -838 0
-323 -343 -839 0
-324 -344 -840 0
-325 -341 -841 0
-326 -342 -842 0
-327 -343 -843 0
-328 -344 -844 0
-329 -341 -845 0
-330 -342 -846 0
-331 -343 -847 0
-332 -344 -848 0
-333 -341 -849 0
-334 -342 -850 0
-335 -343 -851 0
-336 -344 -852 0
-337 -341 -853 0
-338 -342 -854 0
-339 -343 -855 0
-340 -344 -856 0
-341 -857 0
-342 -858 0
-343 -859 0
-344 -860 0
-341 -345 -861 0
-342 -346 -862 0
-343 -347 -863 0
-344 -348 -864 0
-341 -349 -865 0
-342 -350 -866 0
-343 -351 -867 0
-344 -352 -868 0
-341 -353 -869 0
-342 -354 -870 0
-343 -355 -871 0
-344 -356 -872 0
-341 -357 -873 0
-342 -358 -874 0
-343 -359 -875 0
-344 -360 -876 0
-341 -361 -877 0
-342 -362 -878 0
-343 -363 -879 0
-344 -364 -880 0
-341 -365 -881 0
-342 -366 -882 0
-343 -367 -883 0
-344 -368 -884 0
-341 -369 -885 0
-342 -370 -886 0
-343 -371 -887 0
-344 -372 -888 0
-341 -373 -889 0
-342 -374 -890 0
-343 -375 -891 0
-344 -376 -892 0
-341 -377 -893 0
-342 -378 -894 0
-343 -379 -895 0
-344 -380 -896 0
-341 -381 -897 0
-342 -382 -898 0
-343 -383 -899 0
-344 -384 -900 0
-341 -385 -901 0
-342 -386 -902 0
-343 -387 -903 0
-344 -388 -904 0
-1 -349 -529 0
-2 -350 -530 0
-3 -351 -531 0
-4 -352 -532 0
-5 -349 -533 0
-6 -350 -534 0
-7 -351 -535 0
-8 -352 -536 0
-9 -349 -537 0
-10 -350 -538 0
-11 -351 -539 0
-12 -352 -540 0
-13 -349 -541 0
-14 -350 -542 0
-15 -351 -543 0
-16 -352 -544 0
-17 -349 -545 0
-18 -350 -546 0
-19 -351 -547 0
-20 -352 -548 0
-21 -349 -549 0
-22 -350 -550 0
-23 -351 -551 0
-24 -352 -552 0
-25 -349 -553 0
-26 -350 -554 0
-27 -351 -555 0
-28 -352 -556 0
-29 -349 -557 0
-30 -350 -558 0
-31 -351 -559 0
-32 -352 -560 0
-33 -349 -561 0
-34 -350 -562 0
-35 -351 -563 0
-36 -352 -564 0
-37 -349 -565 0
-38 -350 -566 0
-39 -351 -567 0
-40 -352 -568 0
-41 -349 -569 0
-42 -350 -570 0
-43 -351 -571 0
-44 -352 -572 0
-45 -349 -573 0
-46 -350 -574 0
-47 -351 -575 0
-48 -352 -576 0
-49 -349 -577 0
-50 -350 -578 0
-51 -351 -579 0
-52 -352 -580 0
-53 -349 -581 0
-54 -350 -582 0
-55 -351 -583 0
-56 -352 -584 0
-57 -349 -585 0
-58 -350 -586 0
-59 -351 -587 0
-60 -352 -588 0
-61 -349 -589 0
-62 -350 -590 0
-63 -351 -591 0
-64 -352 -592 0
-65 -349 -593 0
-66 -350 -594 0
-67 -351 -595 0
-68 -352 -596 0
-69 -349 -597 0
-70 -350 -598 0
-71 -351 -599 0
-72 -352 -600 0
-73 -349 -601 0
-74 -350 -602 0
-75 -351 -603 0
-76 -352 -604 0
-77 -349 -605 0
-78 -350 -606 0
-79 -351 -607 0
-80 -352 -608 0
-81 -349 -609 0
-82 -350 -610 0
-83 -351 -611 0
-84 -352 -612 0
-85 -349 -613 0
-86 -350 -614 0
-87 -351 -615 0
-88 -352 -616 0
-89 -349 -617 0
-90 -350 -618 0
-91 -351 -619 0
-92 -352 -620 0
-93 -349 -621 0
-94 -350 -622 0
-95 -351 -623 0
-96 -352 -624 0
-97 -349 -625 0
-98 -350 -626 0
-99 -351 -627 0
-100 -352 -628 0
-101 -349 -629 0
-102 -350 -630 0
-103 -351 -631 0
-104 -352 -632 0
-105 -349 -633 0
-106 -350 -634 0
-107 -351 -635 0
-108 -352 -636 0
-109 -349 -637 0
-110 -350 -638 0
-111 -351 -639 0
-112 -352 -640 0
-113 -349 -641 0
-114 -350 -642 0
-115 -351 -643 0
-116 -352 -644 0
-117 -349 -645 0
-118 -350 -646 0
-119 -351 -647 0
-120 -352 -648 0
-121 -349 -649 0
-122 -350 -650 0
-123 -351 -651 0
-124 -352 -652 0
-125 -349 -653 0
-126 -350 -654 0
-127 -351 -655 0
-128 -352 -656 0
-129 -349 -657 0
-130 -350 -658 0
-131 -351 -659 0
-132 -352 -660 0
-133 -349 -661 0
-134 -350 -662 0
-135 -351 -663 0
-136 -352 -664 0
-137 -349 -665 0
-138 -350 -666 0
-139 -351 -667 0
-140 -352 -668 0
-141 -349 -669 0
-142 -350 -670 0
-143 -351 -671 0
-144 -352 -672 0
-145 -349 -673 0
-146 -350 -674 0
-147 -351 -675 0
-148 -352 -676 0
-149 -349 -677 0
-150 -350 -678 0
-151 -351 -679 0
-152 -352 -680 0
-153 -349 -681 0
-154 -350 -682 0
-155 -351 -683 0
-156 -352 -684 0
-157 -349 -685 0
-158 -350 -686 0
-159 -351 -687 0
-160 -352 -688 0
-161 -349 -689 0
-162 -350 -690 0
-163 -351 -691 0
-164 -352 -692 0
-165 -349 -693 0
-166 -350 -694 0
-167 -351 -695 0
-168 -352 -696 0
-169 -349 -697 0
-170 -350 -698 0
-171 -351 -699 0
-172 -352 -700 0
-173 -349 -701 0
-174 -350 -702 0
-175 -351 -703 0
-176 -352 -704 0
-177 -349 -705 0
-178 -350 -706 0
-179 -351 -707 0
-180 -352 -708 0
-181 -349 -709 0
-182 -350 -710 0
-183 -351 -711 0
-184 -352 -712 0
-185 -349 -713 0
-186 -350 -714 0
-187 -351 -715 0
-188 -352 -716 0
-189 -349 -717 0
-190 -350 -718 0
-191 -351 -719 0
-192 -352 -720 0
-193 -349 -721 0
-194 -350 -722 0
-195 -351 -723 0
-196 -352 -724 0
-197 -349 -725 0
-198 -350 -726 0
-199 -351 -727 0
-200 -352 -728 0
-201 -349 -729 0
-202 -350 -730 0
-203 -351 -731 0
-204 -352 -732 0
-205 -349 -733 0
-206 -350 -734 0
-207 -351 -735 0
-208 -352 -736 0
-209 -349 -737 0
-210 -350 -738 0
-211 -351 -739 0
-212 -352 -740 0
-213 -349 -741 0
-214 -350 -742 0
-215 -351 -743 0
-216 -352 -744 0
-217 -349 -745 0
-218 -350 -746 0
-219 -351 -747 0
-220 -352 -748 0
-221 -349 -749 0
-222 -350 -750 0
-223 -351 -751 0
-224 -352 -752 0
-225 -349 -753 0
-226 -350 -754 0
-227 -351 -755 0
-228 -352 -756 0
-229 -349 -757 0
-230 -350 -758 0
-231 -351 -759 0
-232 -352 -760 0
-233 -349 -761 0
-234 -350 -762 0
-235 -351 -763 0
-236 -352 -764 0
-237 -349 -765 0
-238 -350 -766 0
-239 -351 -767 0
-240 -352 -768 0
-241 -349 -769 0
-242 -350 -770 0
-243 -351 -771 0
-244 -352 -772 0
-245 -349 -773 0
-246 -350 -774 0
-247 -351 -775 0
-248 -352 -776 0
-249 -349 -777 0
-250 -350 -778 0
-251 -351 -779 0
-252 -352 -780 0
-253 -349 -781 0
-254 -350 -782 0
-255 -351 -783 0
-256 -352 -784 0
-257 -349 -785 0
-258 -350 -786 0
-259 -351 -787 0
-260 -352 -788 0
-261 -349 -789 0
-262 -350 -790 0
-263 -351 -791 0
-264 -352 -792 0
-265 -349 -793 0
-266 -350 -794 0
-267 -351 -795 0
-268 -352 -796 0
-269 -349 -797 0
-270 -350 -798 0
-271 -351 -799 0
-272 -352 -800 0
-273 -349 -801 0
-274 -350 -802 0
-275 -351 -803 0
-276 -352 -804 0
-277 -349 -805 0
-278 -350 -806 0
-279 -351 -807 0
-280 -352 -808 0
-281 -349 -809 0
-282 -350 -810 0
-283 -351 -811 0
-284 -352 -812 0
-285 -349 -813 0
-286 -350 -814 0
-287 -351 -815 0
-288 -352 -816 0
-289 -349 -817 0
-290 -350 -818 0
-291 -351 -819 0
-292 -352 -820 0
-293 -349 -821 0
-294 -350 -822 0
-295 -351 -823 0
-296 -352 -824 0
-297 -349 -825 0
-298 -350 -826 0
-299 -351 -827 0
-300 -352 -828 0
-301 -349 -829 0
-302 -350 -830 0
-303 -351 -831 0
-304 -352 -832 0
-305 -349 -833 0
-306 -350 -834 0
-307 -351 -835 0
-308 -352 -836 0
-309 -349 -837 0
-310 -350 -838 0
-311 -351 -839 0
-312 -352 -840 0
-313 -349 -841 0
-314 -350 -842 0
-315 -351 -843 0
-316 -352 -844 0
-317 -349 -845 0
-318 -350 -846 0
-319 -351 -847 0
-320 -352 -848 0
-321 -349 -849 0
-322 -350 -850 0
-323 -351 -851 0
-324 -352 -852 0
-325 -349 -853 0
-326 -350 -854 0
-327 -351 -855 0
-328 -352 -856 0
-329 -349 -857 0
-330 -350 -858 0
-331 -351 -859 0
-332 -352 -860 0
-333 -349 -861 0
-334 -350 -862 0
-335 -351 -863 0
-336 -352 -864 0
-337 -349 -865 0
-338 -350 -866 0
-339 -351 -867 0
-340 -352 -868 0
-341 -349 -869 0
-342 -350 -870 0
-343 -351 -871 0
-344 -352 -872 0
-345 -349 -873 0
-346 -350 -874 0
-347 -351 -875 0
-348 -352 -876 0
-349 -877 0
-350 -878 0
-351 -879 0
-352 -880 0
-349 -353 -881 0
-350 -354 -882 0
-351 -355 -883 0
-352 -356 -884 0
-349 -357 -885 0
-350 -358 -886 0
-351 -359 -887 0
-352 -360 -888 0
-349 -361 -889 0
-350 -362 -890 0
-351 -363 -891 0
-352 -364 -892 0
-349 -365 -893 0
-350 -366 -894 0
-351 -367 -895 0
-352 -368 -896 0
-349 -369 -897 0
-350 -370 -898 0
-351 -371 -899 0
-352 -372 -900 0
-349 -373 -901 0
-350 -374 -902 0
-351 -375 -903 0
-352 -376 -904 0
-1 -357 -541 0
-2 -358 -542 0
-3 -359 -543 0
-4 -360 -544 0
-5 -357 -545 0
-6 -358 -546 0
-7 -359 -547 0
-8 -360 -548 0
-9 -357 -549 0
-10 -358 -550 0
-11 -359 -551 0
-12 -360 -552 0
-13 -357 -553 0
-14 -358 -554 0
-15 -359 -555 0
-16 -360 -556 0
-17 -357 -557 0
-18 -358 -558 0
-19 -359 -559 0
-20 -360 -560 0
-21 -357 -561 0
-22 -358 -562 0
-23 -359 -563 0
-24 -360 -564 0
-25 -357 -565 0
-26 -358 -566 0
-27 -359 -567 0
-28 -360 -568 0
-29 -357 -569 0
-30 -358 -570 0
-31 -359 -571 0
-32 -360 -572 0
-33 -357 -573 0
-34 -358 -574 0
-35 -359 -575 0
-36 -360 -576 0
-37 -357 -577 0
-38 -358 -578 0
-39 -359 -579 0
-40 -360 -580 0
-41 -357 -581 0
-42 -358 -582 0
-43 -359 -583 0
-44 -360 -584 0
-45 -357 -585 0
-46 -358 -586 0
-47 -359 -587 0
-48 -360 -588 0
-49 -357 -589 0
-50 -358 -590 0
-51 -359 -591 0
-52 -360 -592 0
-53 -357 -593 0
-54 -358 -594 0
-55 -359 -595 0
-56 -360 -596 0
-57 -357 -597 0
-58 -358 -598 0
-59 -359 -599 0
-60 -360 -600 0
-61 -357 -601 0
-62 -358 -602 0
-63 -359 -603 0
-64 -360 -604 0
-65 -357 -605 0
-66 -358 -606 0
-67 -359 -607 0
-68 -360 -608 0
-69 -357 -609 0
-70 -358 -610 0
-71 -359 -611 0
-72 -360 -612 0
-73 -357 -613 0
-74 -358 -614 0
-75 -359 -615 0
-76 -360 -616 0
-77 -357 -617 0
-78 -358 -618 0
-79 -359 -619 0
-80 -360 -620 0
-81 -357 -621 0
-82 -358 -622 0
-83 -359 -623 0
-84 -360 -624 0
-85 -357 -625 0
-86 -358 -626 0
-87 -359 -627 0
-88 -360 -628 0
-89 -357 -629 0
-90 -358 -630 0
-91 -359 -631 0
-92 -360 -632 0
-93 -357 -633 0
-94 -358 -634 0
-95 -359 -635 0
-96 -360 -636 0
-97 -357 -637 0
-98 -358 -638 0
-99 -359 -639 0
-100 -360 -640 0
-101 -357 -641 0
-102 -358 -642 0
-103 -359 -643 0
-104 -360 -644 0
-105 -357 -645 0
-106 -358 -646 0
-107 -359 -647 0
-108 -360 -648 0
-109 -357 -649 0
-110 -358 -650 0
-111 -359 -651 0
-112 -360 -652 0
-113 -357 -653 0
-114 -358 -654 0
-115 -359 -655 0
-116 -360 -656 0
-117 -357 -657 0
-118 -358 -658 0
-119 -359 -659 0
-120 -360 -660 0
-121 -357 -661 0
-122 -358 -662 0
-123 -359 -663 0
-124 -360 -664 0
-125 -357 -665 0
-126 -358 -666 0
-127 -359 -667 0
-128 -360 -668 0
-129 -357 -669 0
-130 -358 -670 0
-131 -359 -671 0
-132 -360 -672 0
-133 -357 -673 0
-134 -358 -674 0
-135 -359 -675 0
-136 -360 -676 0
-137 -357 -677 0
-138 -358 -678 0
-139 -359 -679 0
-140 -360 -680 0
-141 -357 -681 0
-142 -358 -682 0
-143 -359 -683 0
-144 -360 -684 0
-145 -357 -685 0
-146 -358 -686 0
-147 -359 -687 0
-148 -360 -688 0
-149 -357 -689 0
-150 -358 -690 0
-151 -359 -691 0
-152 -360 -692 0
-153 -357 -693 0
-154 -358 -694 0
-155 -359 -695 0
-156 -360 -696 0
-157 -357 -697 0
-158 -358 -698 0
-159 -359 -699 0
-160 -360 -700 0
-161 -357 -701 0
-162 -358 -702 0
-163 -359 -703 0
-164 -360 -704 0
-165 -357 -705 0
-166 -358 -706 0
-167 -359 -707 0
-168 -360 -708 0
-169 -357 -709 0
-170 -358 -710 0
-171 -359 -711 0
-172 -360 -712 0
-173 -357 -713 0
-174 -358 -714 0
-175 -359 -715 0
-176 -360 -716 0
-177 -357 -717 0
-178 -358 -718 0
-179 -359 -719 0
-180 -360 -720 0
-181 -357 -721 0
-182 -358 -722 0
-183 -359 -723 0
-184 -360 -724 0
-185 -357 -725 0
-186 -358 -726 0
-187 -359 -727 0
-188 -360 -728 0
-189 -357 -729 0
-190 -358 -730 0
-191 -359 -731 0
-192 -360 -732 0
-193 -357 -733 0
-194 -358 -734 0
-195 -359 -735 0
-196 -360 -736 0
-197 -357 -737 0
-198 -358 -738 0
-199 -359 -739 0
-200 -360 -740 0
-201 -357 -741 0
-202 -358 -742 0
-203 -359 -743 0
-204 -360 -744 0
-205 -357 -745 0
-206 -358 -746 0
-207 -359 -747 0
-208 -360 -748 0
-209 -357 -749 0
-210 -358 -750 0
-211 -359 -751 0
-212 -360 -752 0
-213 -357 -753 0
-214 -358 -754 0
-215 -359 -755 0
-216 -360 -756 0
-217 -357 -757 0
-218 -358 -758 0
-219 -359 -759 0
-220 -360 -760 0
-221 -357 -761 0
-222 -358 -762 0
-223 -359 -763 0
-224 -360 -764 0
-225 -357 -765 0
-226 -358 -766 0
-227 -359 -767 0
-228 -360 -768 0
-229 -357 -769 0
-230 -358 -770 0
-231 -359 -771 0
-232 -360 -772 0
-233 -357 -773 0
-234 -358 -774 0
-235 -359 -775 0
-236 -360 -776 0
-237 -357 -777 0
-238 -358 -778 0
-239 -359 -779 0
-240 -360 -780 0
-241 -357 -781 0
-242 -358 -782 0
-243 -359 -783 0
-244 -360 -784 0
-245 -357 -785 0
-246 -358 -786 0
-247 -359 -787 0
-248 -360 -788 0
-249 -357 -789 0
-250 -358 -790 0
-251 -359 -791 0
-252 -360 -792 0
-253 -357 -793 0
-254 -358 -794 0
-255 -359 -795 0
-256 -360 -796 0
-257 -357 -797 0
-258 -358 -798 0
-259 -359 -799 0
-260 -360 -800 0
-261 -357 -801 0
-262 -358 -802 0
-263 -359 -803 0
-264 -360 -804 0
-265 -357 -805 0
-266 -358 -806 0
-267 -359 -807 0
-268 -360 -808 0
-269 -357 -809 0
-270 -358 -810 0
-271 -359 -811 0
-272 -360 -812 0
-273 -357 -813 0
-274 -358 -814 0
-275 -359 -815 0
-276 -360 -816 0
-277 -357 -817 0
-278 -358 -818 0
-279 -359 -819 0
-280 -360 -820 0
-281 -357 -821 0
-282 -358 -822 0
-283 -359 -823 0
-284 -360 -824 0
-285 -357 -825 0
-286 -358 -826 0
-287 -359 -827 0
-288 -360 -828 0
-289 -357 -829 0
-290 -358 -830 0
-291 -359 -831 0
-292 -360 -832 0
-293 -357 -833 0
-294 -358 -834 0
-295 -359 -835 0
-296 -360 -836 0
-297 -357 -837 0
-298 -358 -838 0
-299 -359 -839 0
-300 -360 -840 0
-301 -357 -841 0
-302 -358 -842 0
-303 -359 -843 0
-304 -360 -844 0
-305 -357 -845 0
-306 -358 -846 0
-307 -359 -847 0
-308 -360 -848 0
-309 -357 -849 0
-310 -358 -850 0
-311 -359 -851 0
-312 -360 -852 0
-313 -357 -853 0
-314 -358 -854 0
-315 -359 -855 0
-316 -360 -856 0
-317 -357 -857 0
-318 -358 -858 0
-319 -359 -859 0
-320 -360 -860 0
-321 -357 -861 0
-322 -358 -862 0
-323 -359 -863 0
-324 -360 -864 0
-325 -357 -865 0
-326 -358 -866 0
-327 -359 -867 0
-328 -360 -868 0
-329 -357 -869 0
-330 -358 -870 0
-331 -359 -871 0
-332 -360 -872 0
-333 -357 -873 0
-334 -358 -874 0
-335 -359 -875 0
-336 -360 -876 0
-337 -357 -877 0
-338 -358 -878 0
-339 -359 -879 0
-340 -360 -880 0
-341 -357 -881 0
-342 -358 -882 0
-343 -359 -883 0
-344 -360 -884 0
-345 -357 -885 0
-346 -358 -886 0
-347 -359 -887 0
-348 -360 -888 0
-349 -357 -889 0
-350 -358 -890 0
-351 -359 -891 0
-352 -360 -892 0
-353 -357 -893 0
-354 -358 -894 0
-355 -359 -895 0
-356 -360 -896 0
-357 -897 0
-358 -898 0
-359 -899 0
-360 -900 0
-357 -361 -901 0
-358 -362 -902 0
-359 -363 -903 0
-360 -364 -904 0
-1 -365 -553 0
-2 -366 -554 0
-3 -367 -555 0
-4 -368 -556 0
-5 -365 -557 0
-6 -366 -558 0
-7 -367 -559 0
-8 -368 -560 0
-9 -365 -561 0
-10 -366 -562 0
-11 -367 -563 0
-12 -368 -564 0
-13 -365 -565 0
-14 -366 -566 0
-15 -367 -567 0
-16 -368 -568 0
-17 -365 -569 0
-18 -366 -570 0
-19 -367 -571 0
-20 -368 -572 0
-21 -365 -573 0
-22 -366 -574 0
-23 -367 -575 0
-24 -368 -576 0
-25 -365 -577 0
-26 -366 -578 0
-27 -367 -579 0
-28 -368 -580 0
-29 -365 -581 0
-30 -366 -582 0
-31 -367 -583 0
-32 -368 -584 0
-33 -365 -585 0
-34 -366 -586 0
-35 -367 -587 0
-36 -368 -588 0
-37 -365 -589 0
-38 -366 -590 0
-39 -367 -591 0
-40 -368 -592 0
-41 -365 -593 0
-42 -366 -594 0
-43 -367 -595 0
-44 -368 -596 0
-45 -365 -597 0
-46 -366 -598 0
-47 -367 -599 0
-48 -368 -600 0
-49 -365 -601 0
-50 -366 -602 0
-51 -367 -603 0
-52 -368 -604 0
-53 -365 -605 0
-54 -366 -606 0
-55 -367 -607 0
-56 -368 -608 0
-57 -365 -609 0
-58 -366 -610 0
-59 -367 -611 0
-60 -368 -612 0
-61 -365 -613 0
-62 -366 -614 0
-63 -367 -615 0
-64 -368 -616 0
-65 -365 -617 0
-66 -366 -618 0
-67 -367 -619 0
-68 -368 -620 0
-69 -365 -621 0
-70 -366 -622 0
-71 -367 -623 0
-72 -368 -624 0
-73 -365 -625 0
-74 -366 -626 0
-75 -367 -627 0
-76 -368 -628 0
-77 -365 -629 0
-78 -366 -630 0
-79 -367 -631 0
-80 -368 -632 0
-81 -365 -633 0
-82 -366 -634 0
-83 -367 -635 0
-84 -368 -636 0
-85 -365 -637 0
-86 -366 -638 0
-87 -367 -639 0
-88 -368 -640 0
-89 -365 -641 0
-90 -366 -642 0
-91 -367 -643 0
-92 -368 -644 0
-93 -365 -645 0
-94 -366 -646 0
-95 -367 -647 0
-96 -368 -648 0
-97 -365 -649 0
-98 -366 -650 0
-99 -367 -651 0
-100 -368 -652 0
-101 -365 -653 0
-102 -366 -654 0
-103 -367 -655 0
-104 -368 -656 0
-105 -365 -657 0
-106 -366 -658 0
-107 -367 -659 0
-108 -368 -660 0
-109 -365 -661 0
-110 -366 -662 0
-111 -367 -663 0
-112 -368 -664 0
-113 -365 -665 0
-114 -366 -666 0
-115 -367 -667 0
-116 -368 -668 0
-117 -365 -669 0
-118 -366 -670 0
-119 -367 -671 0
-120 -368 -672 0
-121 -365 -673 0
-122 -366 -674 0
-123 -367 -675 0
-124 -368 -676 0
-125 -365 -677 0
-126 -366 -678 0
-127 -367 -679 0
-128 -368 -680 0
-129 -365 -681 0
-130 -366 -682 0
-131 -367 -683 0
-132 -368 -684 0
-133 -365 -685 0
-134 -366 -686 0
-135 -367 -687 0
-136 -368 -688 0
-137 -365 -689 0
-138 -366 -690 0
-139 -367 -691 0
-140 -368 -692 0
-141 -365 -693 0
-142 -366 -694 0
-143 -367 -695 0
-144 -368 -696 0
-145 -365 -697 0
-146 -366 -698 0
-147 -367 -699 0
-148 -368 -700 0
-149 -365 -701 0
-150 -366 -702 0
-151 -367 -703 0
-152 -368 -704 0
-153 -365 -705 0
-154 -366 -706 0
-155 -367 -707 0
-156 -368 -708 0
-157 -365 -709 0
-158 -366 -710 0
-159 -367 -711 0
-160 -368 -712 0
-161 -365 -713 0
-162 -366 -714 0
-163 -367 -715 0
-164 -368 -716 0
-165 -365 -717 0
-166 -366 -718 0
-167 -367 -719 0
-168 -368 -720 0
-169 -365 -721 0
-170 -366 -722 0
-171 -367 -723 0
-172 -368 -724 0
-173 -365 -725 0
-174 -366 -726 0
-175 -367 -727 0
-176 -368 -728 0
-177 -365 -729 0
-178 -366 -730 0
-179 -367 -731 0
-180 -368 -732 0
-181 -365 -733 0
-182 -366 -734 0
-183 -367 -735 0
-184 -368 -736 0
-185 -365 -737 0
-186 -366 -738 0
-187 -367 -739 0
-188 -368 -740 0
-189 -365 -741 0
-190 -366 -742 0
-191 -367 -743 0
-192 -368 -744 0
-193 -365 -745 0
-194 -366 -746 0
-195 -367 -747 0
-196 -368 -748 0
-197 -365 -749 0
-198 -366 -750 0
-199 -367 -751 0
-200 -368 -752 0
-201 -365 -753 0
-202 -366 -754 0
-203 -367 -755 0
-204 -368 -756 0
-205 -365 -757 0
-206 -366 -758 0
-207 -367 -759 0
-208 -368 -760 0
-209 -365 -761 0
-210 -366 -762 0
-211 -367 -763 0
-212 -368 -764 0
-213 -365 -765 0
-214 -366 -766 0
-215 -367 -767 0
-216 -368 -768 0
-217 -365 -769 0
-218 -366 -770 0
-219 -367 -771 0
-220 -368 -772 0
-221 -365 -773 0
-222 -366 -774 0
-223 -367 -775 0
-224 -368 -776 0
-225 -365 -777 0
-226 -366 -778 0
-227 -367 -779 0
-228 -368 -780 0
-229 -365 -781 0
-230 -366 -782 0
-231 -367 -783 0
-232 -368 -784 0
-233 -365 -785 0
-234 -366 -786 0
-235 -367 -787 0
-236 -368 -788 0
-237 -365 -789 0
-238 -366 -790 0
-239 -367 -791 0
-240 -368 -792 0
-241 -365 -793 0
-242 -366 -794 0
-243 -367 -795 0
-244 -368 -796 0
-245 -365 -797 0
-246 -366 -798 0
-247 -367 -799 0
-248 -368 -800 0
-249 -365 -801 0
-250 -366 -802 0
-251 -367 -803 0
-252 -368 -804 0
-253 -365 -805 0
-254 -366 -806 0
-255 -367 -807 0
-256 -368 -808 0
-257 -365 -809 0
-258 -366 -810 0
-259 -367 -811 0
-260 -368 -812 0
-261 -365 -813 0
-262 -366 -814 0
-263 -367 -815 0
-264 -368 -816 0
-265 -365 -817 0
-266 -366 -818 0
-267 -367 -819 0
-268 -368 -820 0
-269 -365 -821 0
-270 -366 -822 0
-271 -367 -823 0
-272 -368 -824 0
-273 -365 -825 0
-274 -366 -826 0
-275 -367 -827 0
-276 -368 -828 0
-277 -365 -829 0
-278 -366 -830 0
-279 -367 -831 0
-280 -368 -832 0
-281 -365 -833 0
-282 -366 -834 0
-283 -367 -835 0
-284 -368 -836 0
-285 -365 -837 0
-286 -366 -838 0
-287 -367 -839 0
-288 -368 -840 0
-289 -365 -841 0
-290 -366 -842 0
-291 -367 -843 0
-292 -368 -844 0
-293 -365 -845 0
-294 -366 -846 0
-295 -367 -847 0
-296 -368 -848 0
-297 -365 -849 0
-298 -366 -850 0
-299 -367 -851 0
-300 -368 -852 0
-301 -365 -853 0
-302 -366 -854 0
-303 -367 -855 0
-304 -368 -856 0
-305 -365 -857 0
-306 -366 -858 0
-307 -367 -859 0
-308 -368 -860 0
-309 -365 -861 0
-310 -366 -862 0
-311 -367 -863 0
-312 -368 -864 0
-313 -365 -865 0
-314 -366 -866 0
-315 -367 -867 0
-316 -368 -868 0
-317 -365 -869 0
-318 -366 -870 0
-319 -367 -871 0
-320 -368 -872 0
-321 -365 -873 0
-322 -366 -874 0
-323 -367 -875 0
-324 -368 -876 0
-325 -365 -877 0
-326 -366 -878 0
-327 -367 -879 0
-328 -368 -880 0
-329 -365 -881 0
-330 -366 -882 0
-331 -367 -883 0
-332 -368 -884 0
-333 -365 -885 0
-334 -366 -886 0
-335 -367 -887 0
-336 -368 -888 0
-337 -365 -889 0
-338 -366 -890 0
-339 -367 -891 0
-340 -368 -892 0
-341 -365 -893 0
-342 -366 -894 0
-343 -367 -895 0
-344 -368 -896 0
-345 -365 -897 0
-346 -366 -898 0
-347 -367 -899 0
-348 -368 -900 0
-349 -365 -901 0
-350 -366 -902 0
-351 -367 -903 0
-352 -368 -904 0
-1 -373 -565 0
-2 -374 -566 0
-3 -375 -567 0
-4 -376 -568 0
-5 -373 -569 0
-6 -374 -570 0
-7 -375 -571 0
-8 -376 -572 0
-9 -373 -573 0
-10 -374 -574 0
-11 -375 -575 0
-12 -376 -576 0
-13 -373 -577 0
-14 -374 -578 0
-15 -375 -579 0
-16 -376 -580 0
-17 -373 -581 0
-18 -374 -582 0
-19 -375 -583 0
-20 -376 -584 0
-21 -373 -585 0
-22 -374 -586 0
-23 -375 -587 0
-24 -376 -588 0
-25 -373 -589 0
-26 -374 -590 0
-27 -375 -591 0
-28 -376 -592 0
-29 -373 -593 0
-30 -374 -594 0
-31 -375 -595 0
-32 -376 -596 0
-33 -373 -597 0
-34 -374 -598 0
-35 -375 -599 0
-36 -376 -600 0
-37 -373 -601 0
-38 -374 -602 0
-39 -375 -603 0
-40 -376 -604 0
-41 -373 -605 0
-42 -374 -606 0
-43 -375 -607 0
-44 -376 -608 0
-45 -373 -609 0
-46 -374 -610 0
-47 -375 -611 0
-48 -376 -612 0
-49 -373 -613 0
-50 -374 -614 0
-51 -375 -615 0
-52 -376 -616 0
-53 -373 -617 0
-54 -374 -618 0
-55 -375 -619 0
-56 -376 -620 0
-57 -373 -621 0
-58 -374 -622 0
-59 -375 -623 0
-60 -376 -624 0
-61 -373 -625 0
-62 -374 -626 0
-63 -375 -627 0
-64 -376 -628 0
-65 -373 -629 0
-66 -374 -630 0
-67 -375 -631 0
-68 -376 -632 0
-69 -373 -633 0
-70 -374 -634 0
-71 -375 -635 0
-72 -376 -636 0
-73 -373 -637 0
-74 -374 -638 0
-75 -375 -639 0
-76 -376 -640 0
-77 -373 -641 0
-78 -374 -642 0
-79 -375 -643 0
-80 -376 -644 0
-81 -373 -645 0
-82 -374 -646 0
-83 -375 -647 0
-84 -376 -648 0
-85 -373 -649 0
-86 -374 -650 0
-87 -375 -651 0
-88 -376 -652 0
-89 -373 -653 0
-90 -374 -654 0
-91 -375 -655 0
-92 -376 -656 0
-93 -373 -657 0
-94 -374 -658 0
-95 -375 -659 0
-96 -376 -660 0
-97 -373 -661 0
-98 -374 -662 0
-99 -375 -663 0
-100 -376 -664 0
-101 -373 -665 0
-102 -374 -666 0
-103 -375 -667 0
-104 -376 -668 0
-105 -373 -669 0
-106 -374 -670 0
-107 -375 -671 0
-108 -376 -672 0
-109 -373 -673 0
-110 -374 -674 0
-111 -375 -675 0
-112 -376 -676 0
-113 -373 -677 0
-114 -374 -678 0
-115 -375 -679 0
-116 -376 -680 0
-117 -373 -681 0
-118 -374 -682 0
-119 -375 -683 0
-120 -376 -684 0
-121 -373 -685 0
-122 -374 -686 0
-123 -375 -687 0
-124 -376 -688 0
-125 -373 -689 0
-126 -374 -690 0
-127 -375 -691 0
-128 -376 -692 0
-129 -373 -693 0
-130 -374 -694 0
-131 -375 -695 0
-132 -376 -696 0
-133 -373 -697 0
-134 -374 -698 0
-135 -375 -699 0
-136 -376 -700 0
-137 -373 -701 0
-138 -374 -702 0
-139 -375 -703 0
-140 -376 -704 0
-141 -373 -705 0
-142 -374 -706 0
-143 -375 -707 0
-144 -376 -708 0
-145 -373 -709 0
-146 -374 -710 0
-147 -375 -711 0
-148 -376 -712 0
-149 -373 -713 0
-150 -374 -714 0
-151 -375 -715 0
-152 -376 -716 0
-153 -373 -717 0
-154 -374 -718 0
-155 -375 -719 0
-156 -376 -720 0
-157 -373 -721 0
-158 -374 -722 0
-159 -375 -723 0
-160 -376 -724 0
-161 -373 -725 0
-162 -374 -726 0
-163 -375 -727 0
-164 -376 -728 0
-165 -373 -729 0
-166 -374 -730 0
-167 -375 -731 0
-168 -376 -732 0
-169 -373 -733 0
-170 -374 -734 0
-171 -375 -735 0
-172 -376 -736 0
-173 -373 -737 0
-174 -374 -738 0
-175 -375 -739 0
-176 -376 -740 0
-177 -373 -741 0
-178 -374 -742 0
-179 -375 -743 0
-180 -376 -744 0
-181 -373 -745 0
-182 -374 -746 0
-183 -375 -747 0
-184 -376 -748 0
-185 -373 -749 0
-186 -374 -750 0
-187 -375 -751 0
-188 -376 -752 0
-189 -373 -753 0
-190 -374 -754 0
-191 -375 -755 0
-192 -376 -756 0
-193 -373 -757 0
-194 -374 -758 0
-195 -375 -759 0
-196 -376 -760 0
-197 -373 -761 0
-198 -374 -762 0
-199 -375 -763 0
-200 -376 -764 0
-201 -373 -765 0
-202 -374 -766 0
-203 -375 -767 0
-204 -376 -768 0
-205 -373 -769 0
-206 -374 -770 0
-207 -375 -771 0
-208 -376 -772 0
-209 -373 -773 0
-210 -374 -774 0
-211 -375 -775 0
-212 -376 -776 0
-213 -373 -777 0
-214 -374 -778 0
-215 -375 -779 0
-216 -376 -780 0
-217 -373 -781 0
-218 -374 -782 0
-219 -375 -783 0
-220 -376 -784 0
-221 -373 -785 0
-222 -374 -786 0
-223 -375 -787 0
-224 -376 -788 0
-225 -373 -789 0
-226 -374 -790 0
-227 -375 -791 0
-228 -376 -792 0
-229 -373 -793 0
-230 -374 -794 0
-231 -375 -795 0
-232 -376 -796 0
-233 -373 -797 0
-234 -374 -798 0
-235 -375 -799 0
-236 -376 -800 0
-237 -373 -801 0
-238 -374 -802 0
-239 -375 -803 0
-240 -376 -804 0
-241 -373 -805 0
-242 -374 -806 0
-243 -375 -807 0
-244 -376 -808 0
-245 -373 -809 0
-246 -374 -810 0
-247 -375 -811 0
-248 -376 -812 0
-249 -373 -813 0
-250 -374 -814 0
-251 -375 -815 0
-252 -376 -816 0
-253 -373 -817 0
-254 -374 -818 0
-255 -375 -819 0
-256 -376 -820 0
-257 -373 -821 0
-258 -374 -822 0
-259 -375 -823 0
-260 -376 -824 0
-261 -373 -825 0
-262 -374 -826 0
-263 -375 -827 0
-264 -376 -828 0
-265 -373 -829 0
-266 -374 -830 0
-267 -375 -831 0
-268 -376 -832 0
-269 -373 -833 0
-270 -374 -834 0
-271 -375 -835 0
-272 -376 -836 0
-273 -373 -837 0
-274 -374 -838 0
-275 -375 -839 0
-276 -376 -840 0
-277 -373 -841 0
-278 -374 -842 0
-279 -375 -843 0
-280 -376 -844 0
-281 -373 -845 0
-282 -374 -846 0
-283 -375 -847 0
-284 -376 -848 0
-285 -373 -849 0
-286 -374 -850 0
-287 -375 -851 0
-288 -376 -852 0
-289 -373 -853 0
-290 -374 -854 0
-291 -375 -855 0
-292 -376 -856 0
-293 -373 -857 0
-294 -374 -858 0
-295 -375 -859 0
-296 -376 -860 0
-297 -373 -861 0
-298 -374 -862 0
-299 -375 -863 0
-300 -376 -864 0
-301 -373 -865 0
-302 -374 -866 0
-303 -375 -867 0
-304 -376 -868 0
-305 -373 -869 0
-306 -374 -870 0
-307 -375 -871 0
-308 -376 -872 0
-309 -373 -873 0
-310 -374 -874 0
-311 -375 -875 0
-312 -376 -876 0
-313 -373 -877 0
-314 -374 -878 0
-315 -375 -879 0
-316 -376 -880 0
-317 -373 -881 0
-318 -374 -882 0
-319 -375 -883 0
-320 -376 -884 0
-321 -373 -885 0
-322 -374 -886 0
-323 -375 -887 0
-324 -376 -888 0
-325 -373 -889 0
-326 -374 -890 0
-327 -375 -891 0
-328 -376 -892 0
-329 -373 -893 0
-330 -374 -894 0
-331 -375 -895 0
-332 -376 -896 0
-333 -373 -897 0
-334 -374 -898 0
-335 -375 -899 0
-336 -376 -900 0
-337 -373 -901 0
-338 -374 -902 0
-339 -375 -903 0
-340 -376 -904 0
-1 -381 -577 0
-2 -382 -578 0
-3 -383 -579 0
-4 -384 -580 0
-5 -381 -581 0
-6 -382 -582 0
-7 -383 -583 0
-8 -384 -584 0
-9 -381 -585 0
-10 -382 -586 0
-11 -383 -587 0
-12 -384 -588 0
-13 -381 -589 0
-14 -382 -590 0
-15 -383 -591 0
-16 -384 -592 0
-17 -381 -593 0
-18 -382 -594 0
-19 -383 -595 0
-20 -384 -596 0
-21 -381 -597 0
-22 -382 -598 0
-23 -383 -599 0
-24 -384 -600 0
-25 -381 -601 0
-26 -382 -602 0
-27 -383 -603 0
-28 -384 -604 0
-29 -381 -605 0
-30 -382 -606 0
-31 -383 -607 0
-32 -384 -608 0
-33 -381 -609 0
-34 -382 -610 0
-35 -383 -611 0
-36 -384 -612 0
-37 -381 -613 0
-38 -382 -614 0
-39 -383 -615 0
-40 -384 -616 0
-41 -381 -617 0
-42 -382 -618 0
-43 -383 -619 0
-44 -384 -620 0
-45 -381 -621 0
-46 -382 -622 0
-47 -383 -623 0
-48 -384 -624 0
-49 -381 -625 0
-50 -382 -626 0
-51 -383 -627 0
-52 -384 -628 0
-53 -381 -629 0
-54 -382 -630 0
-55 -383 -631 0
-56 -384 -632 0
-57 -381 -633 0
-58 -382 -634 0
-59 -383 -635 0
-60 -384 -636 0
-61 -381 -637 0
-62 -382 -638 0
-63 -383 -639 0
-64 -384 -640 0
-65 -381 -641 0
-66 -382 -642 0
-67 -383 -643 0
-68 -384 -644 0
-69 -381 -645 0
-70 -382 -646 0
-71 -383 -647 0
-72 -384 -648 0
-73 -381 -649 0
-74 -382 -650 0
-75 -383 -651 0
-76 -384 -652 0
-77 -381 -653 0
-78 -382 -654 0
-79 -383 -655 0
-80 -384 -656 0
-81 -381 -657 0
-82 -382 -658 0
-83 -383 -659 0
-84 -384 -660 0
-85 -381 -661 0
-86 -382 -662 0
-87 -383 -663 0
-88 -384 -664 0
-89 -381 -665 0
-90 -382 -666 0
-91 -383 -667 0
-92 -384 -668 0
-93 -381 -669 0
-94 -382 -670 0
-95 -383 -671 0
-96 -384 -672 0
-97 -381 -673 0
-98 -382 -674 0
-99 -383 -675 0
-100 -384 -676 0
-101 -381 -677 0
-102 -382 -678 0
-103 -383 -679 0
-104 -384 -680 0
-105 -381 -681 0
-106 -382 -682 0
-107 -383 -683 0
-108 -384 -684 0
-109 -381 -685 0
-110 -382 -686 0
-111 -383 -687 0
-112 -384 -688 0
-113 -381 -689 0
-114 -382 -690 0
-115 -383 -691 0
-116 -384 -692 0
-117 -381 -693 0
-118 -382 -694 0
-119 -383 -695 0
-120 -384 -696 0
-121 -381 -697 0
-122 -382 -698 0
-123 -383 -699 0
-124 -384 -700 0
-125 -381 -701 0
-126 -382 -702 0
-127 -383 -703 0
-128 -384 -704 0
-129 -381 -705 0
-130 -382 -706 0
-131 -383 -707 0
-132 -384 -708 0
-133 -381 -709 0
-134 -382 -710 0
-135 -383 -711 0
-136 -384 -712 0
-137 -381 -713 0
-138 -382 -714 0
-139 -383 -715 0
-140 -384 -716 0
-141 -381 -717 0
-142 -382 -718 0
-143 -383 -719 0
-144 -384 -720 0
-145 -381 -721 0
-146 -382 -722 0
-147 -383 -723 0
-148 -384 -724 0
-149 -381 -725 0
-150 -382 -726 0
-151 -383 -727 0
-152 -384 -728 0
-153 -381 -729 0
-154 -382 -730 0
-155 -383 -731 0
-156 -384 -732 0
-157 -381 -733 0
-158 -382 -734 0
-159 -383 -735 0
-160 -384 -736 0
-161 -381 -737 0
-162 -382 -738 0
-163 -383 -739 0
-164 -384 -740 0
-165 -381 -741 0
-166 -382 -742 0
-167 -383 -743 0
-168 -384 -744 0
-169 -381 -745 0
-170 -382 -746 0
-171 -383 -747 0
-172 -384 -748 0
-173 -381 -749 0
-174 -382 -750 0
-175 -383 -751 0
-176 -384 -752 0
-177 -381 -753 0
-178 -382 -754 0
-179 -383 -755 0
-180 -384 -756 0
-181 -381 -757 0
-182 -382 -758 0
-183 -383 -759 0
-184 -384 -760 0
-185 -381 -761 0
-186 -382 -762 0
-187 -383 -763 0
-188 -384 -764 0
-189 -381 -765 0
-190 -382 -766 0
-191 -383 -767 0
-192 -384 -768 0
-193 -381 -769 0
-194 -382 -770 0
-195 -383 -771 0
-196 -384 -772 0
-197 -381 -773 0
-198 -382 -774 0
-199 -383 -775 0
-200 -384 -776 0
-201 -381 -777 0
-202 -382 -778 0
-203 -383 -779 0
-204 -384 -780 0
-205 -381 -781 0
-206 -382 -782 0
-207 -383 -783 0
-208 -384 -784 0
-209 -381 -785 0
-210 -382 -786 0
-211 -383 -787 0
-212 -384 -788 0
-213 -381 -789 0
-214 -382 -790 0
-215 -383 -791 0
-216 -384 -792 0
-217 -381 -793 0
-218 -382 -794 0
-219 -383 -795 0
-220 -384 -796 0
-221 -381 -797 0
-222 -382 -798 0
-223 -383 -799 0
-224 -384 -800 0
-225 -381 -801 0
-226 -382 -802 0
-227 -383 -803 0
-228 -384 -804 0
-229 -381 -805 0
-230 -382 -806 0
-231 -383 -807 0
-232 -384 -808 0
-233 -381 -809 0
-234 -382 -810 0
-235 -383 -811 0
-236 -384 -812 0
-237 -381 -813 0
-238 -382 -814 0
-239 -383 -815 0
-240 -384 -816 0
-241 -381 -817 0
-242 -382 -818 0
-243 -383 -819 0
-244 -384 -820 0
-245 -381 -821 0
-246 -382 -822 0
-247 -383 -823 0
-248 -384 -824 0
-249 -381 -825 0
-250 -382 -826 0
-251 -383 -827 0
-252 -384 -828 0
-253 -381 -829 0
-254 -382 -830 0
-255 -383 -831 0
-256 -384 -832 0
-257 -381 -833 0
-258 -382 -834 0
-259 -383 -835 0
-260 -384 -836 0
-261 -381 -837 0
-262 -382 -838 0
-263 -383 -839 0
-264 -384 -840 0
-265 -381 -841 0
-266 -382 -842 0
-267 -383 -843 0
-268 -384 -844 0
-269 -381 -845 0
-270 -382 -846 0
-271 -383 -847 0
-272 -384 -848 0
-273 -381 -849 0
-274 -382 -850 0
-275 -383 -851 0
-276 -384 -852 0
-277 -381 -853 0
-278 -382 -854 0
-279 -383 -855 0
-280 -384 -856 0
-281 -381 -857 0
-282 -382 -858 0
-283 -383 -859 0
-284 -384 -860 0
-285 -381 -861 0
-286 -382 -862 0
-287 -383 -863 0
-288 -384 -864 0
-289 -381 -865 0
-290 -382 -866 0
-291 -383 -867 0
-292 -384 -868 0
-293 -381 -869 0
-294 -382 -870 0
-295 -383 -871 0
-296 -384 -872 0
-297 -381 -873 0
-298 -382 -874 0
-299 -383 -875 0
-300 -384 -876 0
-301 -381 -877 0
-302 -382 -878 0
-303 -383 -879 0
-304 -384 -880 0
-305 -381 -881 0
-306 -382 -882 0
-307 -383 -883 0
-308 -384 -884 0
-309 -381 -885 0
-310 -382 -886 0
-311 -383 -887 0
-312 -384 -888 0
-313 -381 -889 0
-314 -382 -890 0
-315 -383 -891 0
-316 -384 -892 0
-317 -381 -893 0
-318 -382 -894 0
-319 -383 -895 0
-320 -384 -896 0
-321 -381 -897 0
-322 -382 -898 0
-323 -383 -899 0
-324 -384 -900 0
-325 -381 -901 0
-326 -382 -902 0
-327 -383 -903 0
-328 -384 -904 0
-1 -389 -589 0
-2 -390 -590 0
-3 -391 -591 0
-4 -392 -592 0
-5 -389 -593 0
-6 -390 -594 0
-7 -391 -595 0
-8 -392 -596 0
-9 -389 -597 0
-10 -390 -598 0
-11 -391 -599 0
-12 -392 -600 0
-13 -389 -601 0
-14 -390 -602 0
-15 -391 -603 0
-16 -392 -604 0
-17 -389 -605 0
-18 -390 -606 0
-19 -391 -607 0
-20 -392 -608 0
-21 -389 -609 0
-22 -390 -610 0
-23 -391 -611 0
-24 -392 -612 0
-25 -389 -613 0
-26 -390 -614 0
-27 -391 -615 0
-28 -392 -616 0
-29 -389 -617 0
-30 -390 -618 0
-31 -391 -619 0
-32 -392 -620 0
-33 -389 -621 0
-34 -390 -622 0
-35 -391 -623 0
-36 -392 -624 0
-37 -389 -625 0
-38 -390 -626 0
-39 -391 -627 0
-40 -392 -628 0
-41 -389 -629 0
-42 -390 -630 0
-43 -391 -631 0
-44 -392 -632 0
-45 -389 -633 0
-46 -390 -634 0
-47 -391 -635 0
-48 -392 -636 0
-49 -389 -637 0
-50 -390 -638 0
-51 -391 -639 0
-52 -392 -640 0
-53 -389 -641 0
-54 -390 -642 0
-55 -391 -643 0
-56 -392 -644 0
-57 -389 -645 0
-58 -390 -646 0
-59 -391 -647 0
-60 -392 -648 0
-61 -389 -649 0
-62 -390 -650 0
-63 -391 -651 0
-64 -392 -652 0
-65 -389 -653 0
-66 -390 -654 0
-67 -391 -655 0
-68 -392 -656 0
-69 -389 -657 0
-70 -390 -658 0
-71 -391 -659 0
-72 -392 -660 0
-73 -389 -661 0
-74 -390 -662 0
-75 -391 -663 0
-76 -392 -664 0
-77 -389 -665 0
-78 -390 -666 0
-79 -391 -667 0
-80 -392 -668 0
-81 -389 -669 0
-82 -390 -670 0
-83 -391 -671 0
-84 -392 -672 0
-85 -389 -673 0
-86 -390 -674 0
-87 -391 -675 0
-88 -392 -676 0
-89 -389 -677 0
-90 -390 -678 0
-91 -391 -679 0
-92 -392 -680 0
-93 -389 -681 0
-94 -390 -682 0
-95 -391 -683 0
-96 -392 -684 0
-97 -389 -685 0
-98 -390 -686 0
-99 -391 -687 0
-100 -392 -688 0
-101 -389 -689 0
-102 -390 -690 0
-103 -391 -691 0
-104 -392 -692 0
-105 -389 -693 0
-106 -390 -694 0
-107 -391 -695 0
-108 -392 -696 0
-109 -389 -697 0
-110 -390 -698 0
-111 -391 -699 0
-112 -392 -700 0
-113 -389 -701 0
-114 -390 -702 0
-115 -391 -703 0
-116 -392 -704 0
-117 -389 -705 0
-118 -390 -706 0
-119 -391 -707 0
-120 -392 -708 0
-121 -389 -709 0
-122 -390 -710 0
-123 -391 -711 0
-124 -392 -712 0
-125 -389 -713 0
-126 -390 -714 0
-127 -391 -715 0
-128 -392 -716 0
-129 -389 -717 0
-130 -390 -718 0
-131 -391 -719 0
-132 -392 -720 0
-133 -389 -721 0
-134 -390 -722 0
-135 -391 -723 0
-136 -392 -724 0
-137 -389 -725 0
-138 -390 -726 0
-139 -391 -727 0
-140 -392 -728 0
-141 -389 -729 0
-142 -390 -730 0
-143 -391 -731 0
-144 -392 -732 0
-145 -389 -733 0
-146 -390 -734 0
-147 -391 -735 0
-148 -392 -736 0
-149 -389 -737 0
-150 -390 -738 0
-151 -391 -739 0
-152 -392 -740 0
-153 -389 -741 0
-154 -390 -742 0
-155 -391 -743 0
-156 -392 -744 0
-157 -389 -745 0
-158 -390 -746 0
-159 -391 -747 0
-160 -392 -748 0
-161 -389 -749 0
-162 -390 -750 0
-163 -391 -751 0
-164 -392 -752 0
-165 -389 -753 0
-166 -390 -754 0
-167 -391 -755 0
-168 -392 -756 0
-169 -389 -757 0
-170 -390 -758 0
-171 -391 -759 0
-172 -392 -760 0
-173 -389 -761 0
-174 -390 -762 0
-175 -391 -763 0
-176 -392 -764 0
-177 -389 -765 0
-178 -390 -766 0
-179 -391 -767 0
-180 -392 -768 0
-181 -389 -769 0
-182 -390 -770 0
-183 -391 -771 0
-184 -392 -772 0
-185 -389 -773 0
-186 -390 -774 0
-187 -391 -775 0
-188 -392 -776 0
-189 -389 -777 0
-190 -390 -778 0
-191 -391 -779 0
-192 -392 -780 0
-193 -389 -781 0
-194 -390 -782 0
-195 -391 -783 0
-196 -392 -784 0
-197 -389 -785 0
-198 -390 -786 0
-199 -391 -787 0
-200 -392 -788 0
-201 -389 -789 0
-202 -390 -790 0
-203 -391 -791 0
-204 -392 -792 0
-205 -389 -793 0
-206 -390 -794 0
-207 -391 -795 0
-208 -392 -796 0
-209 -389 -797 0
-210 -390 -798 0
-211 -391 -799 0
-212 -392 -800 0
-213 -389 -801 0
-214 -390 -802 0
-215 -391 -803 0
-216 -392 -804 0
-217 -389 -805 0
-218 -390 -806 0
-219 -391 -807 0
-220 -392 -808 0
-221 -389 -809 0
-222 -390 -810 0
-223 -391 -811 0
-224 -392 -812 0
-225 -389 -813 0
-226 -390 -814 0
-227 -391 -815 0
-228 -392 -816 0
-229 -389 -817 0
-230 -390 -818 0
-231 -391 -819 0
-232 -392 -820 0
-233 -389 -821 0
-234 -390 -822 0
-235 -391 -823 0
-236 -392 -824 0
-237 -389 -825 0
-238 -390 -826 0
-239 -391 -827 0
-240 -392 -828 0
-241 -389 -829 0
-242 -390 -830 0
-243 -391 -831 0
-244 -392 -832 0
-245 -389 -833 0
-246 -390 -834 0
-247 -391 -835 0
-248 -392 -836 0
-249 -389 -837 0
-250 -390 -838 0
-251 -391 -839 0
-252 -392 -840 0
-253 -389 -841 0
-254 -390 -842 0
-255 -391 -843 0
-256 -392 -844 0
-257 -389 -845 0
-258 -390 -846 0
-259 -391 -847 0
-260 -392 -848 0
-261 -389 -849 0
-262 -390 -850 0
-263 -391 -851 0
-264 -392 -852 0
-265 -389 -853 0
-266 -390 -854 0
-267 -391 -855 0
-268 -392 -856 0
-269 -389 -857 0
-270 -390 -858 0
-271 -391 -859 0
-272 -392 -860 0
-273 -389 -861 0
-274 -390 -862 0
-275 -391 -863 0
-276 -392 -864 0
-277 -389 -865 0
-278 -390 -866 0
-279 -391 -867 0
-280 -392 -868 0
-281 -389 -869 0
-282 -390 -870 0
-283 -391 -871 0
-284 -392 -872 0
-285 -389 -873 0
-286 -390 -874 0
-287 -391 -875 0
-288 -392 -876 0
-289 -389 -877 0
-290 -390 -878 0
-291 -391 -879 0
-292 -392 -880 0
-293 -389 -881 0
-294 -390 -882 0
-295 -391 -883 0
-296 -392 -884 0
-297 -389 -885 0
-298 -390 -886 0
-299 -391 -887 0
-300 -392 -888 0
-301 -389 -889 0
-302 -390 -890 0
-303 -391 -891 0
-304 -392 -892 0
-305 -389 -893 0
-306 -390 -894 0
-307 -391 -895 0
-308 -392 -896 0
-309 -389 -897 0
-310 -390 -898 0
-311 -391 -899 0
-312 -392 -900 0
-313 -389 -901 0
-314 -390 -902 0
-315 -391 -903 0
-316 -392 -904 0
-1 -397 -601 0
-2 -398 -602 0
-3 -399 -603 0
-4 -400 -604 0
-5 -397 -605 0
-6 -398 -606 0
-7 -399 -607 0
-8 -400 -608 0
-9 -397 -609 0
-10 -398 -610 0
-11 -399 -611 0
-12 -400 -612 0
-13 -397 -613 0
-14 -398 -614 0
-15 -399 -615 0
-16 -400 -616 0
-17 -397 -617 0
-18 -398 -618 0
-19 -399 -619 0
-20 -400 -620 0
-21 -397 -621 0
-22 -398 -622 0
-23 -399 -623 0
-24 -400 -624 0
-25 -397 -625 0
-26 -398 -626 0
-27 -399 -627 0
-28 -400 -628 0
-29 -397 -629 0
-30 -398 -630 0
-31 -399 -631 0
-32 -400 -632 0
-33 -397 -633 0
-34 -398 -634 0
-35 -399 -635 0
-36 -400 -636 0
-37 -397 -637 0
-38 -398 -638 0
-39 -399 -639 0
-40 -400 -640 0
-41 -397 -641 0
-42 -398 -642 0
-43 -399 -643 0
-44 -400 -644 0
-45 -397 -645 0
-46 -398 -646 0
-47 -399 -647 0
-48 -400 -648 0
-49 -397 -649 0
-50 -398 -650 0
-51 -399 -651 0
-52 -400 -652 0
-53 -397 -653 0
-54 -398 -654 0
-55 -399 -655 0
-56 -400 -656 0
-57 -397 -657 0
-58 -398 -658 0
-59 -399 -659 0
-60 -400 -660 0
-61 -397 -661 0
-62 -398 -662 0
-63 -399 -663 0
-64 -400 -664 0
-65 -397 -665 0
-66 -398 -666 0
-67 -399 -667 0
-68 -400 -668 0
-69 -397 -669 0
-70 -398 -670 0
-71 -399 -671 0
-72 -400 -672 0
-73 -397 -673 0
-74 -398 -674 0
-75 -399 -675 0
-76 -400 -676 0
-77 -397 -677 0
-78 -398 -678 0
-79 -399 -679 0
-80 -400 -680 0
-81 -397 -681 0
-82 -398 -682 0
-83 -399 -683 0
-84 -400 -684 0
-85 -397 -685 0
-86 -398 -686 0
-87 -399 -687 0
-88 -400 -688 0
-89 -397 -689 0
-90 -398 -690 0
-91 -399 -691 0
-92 -400 -692 0
-93 -397 -693 0
-94 -398 -694 0
-95 -399 -695 0
-96 -400 -696 0
-97 -397 -697 0
-98 -398 -698 0
-99 -399 -699 0
-100 -400 -700 0
-101 -397 -701 0
-102 -398 -702 0
-103 -399 -703 0
-104 -400 -704 0
-105 -397 -705 0
-106 -398 -706 0
-107 -399 -707 0
-108 -400 -708 0
-109 -397 -709 0
-110 -398 -710 0
-111 -399 -711 0
-112 -400 -712 0
-113 -397 -713 0
-114 -398 -714 0
-115 -399 -715 0
-116 -400 -716 0
-117 -397 -717 0
-118 -398 -718 0
-119 -399 -719 0
-120 -400 -720 0
-121 -397 -721 0
-122 -398 -722 0
-123 -399 -723 0
-124 -400 -724 0
-125 -397 -725 0
-126 -398 -726 0
-127 -399 -727 0
-128 -400 -728 0
-129 -397 -729 0
-130 -398 -730 0
-131 -399 -731 0
-132 -400 -732 0
-133 -397 -733 0
-134 -398 -734 0
-135 -399 -735 0
-136 -400 -736 0
-137 -397 -737 0
-138 -398 -738 0
-139 -399 -739 0
-140 -400 -740 0
-141 -397 -741 0
-142 -398 -742 0
-143 -399 -743 0
-144 -400 -744 0
-145 -397 -745 0
-146 -398 -746 0
-147 -399 -747 0
-148 -400 -748 0
-149 -397 -749 0
-150 -398 -750 0
-151 -399 -751 0
-152 -400 -752 0
-153 -397 -753 0
-154 -398 -754 0
-155 -399 -755 0
-156 -400 -756 0
-157 -397 -757 0
-158 -398 -758 0
-159 -399 -759 0
-160 -400 -760 0
-161 -397 -761 0
-162 -398 -762 0
-163 -399 -763 0
-164 -400 -764 0
-165 -397 -765 0
-166 -398 -766 0
-167 -399 -767 0
-168 -400 -768 0
-169 -397 -769 0
-170 -398 -770 0
-171 -399 -771 0
-172 -400 -772 0
-173 -397 -773 0
-174 -398 -774 0
-175 -399 -775 0
-176 -400 -776 0
-177 -397 -777 0
-178 -398 -778 0
-179 -399 -779 0
-180 -400 -780 0
-181 -397 -781 0
-182 -398 -782 0
-183 -399 -783 0
-184 -400 -784 0
-185 -397 -785 0
-186 -398 -786 0
-187 -399 -787 0
-188 -400 -788 0
-189 -397 -789 0
-190 -398 -790 0
-191 -399 -791 0
-192 -400 -792 0
-193 -397 -793 0
-194 -398 -794 0
-195 -399 -795 0
-196 -400 -796 0
-197 -397 -797 0
-198 -398 -798 0
-199 -399 -799 0
-200 -400 -800 0
-201 -397 -801 0
-202 -398 -802 0
-203 -399 -803 0
-204 -400 -804 0
-205 -397 -805 0
-206 -398 -806 0
-207 -399 -807 0
-208 -400 -808 0
-209 -397 -809 0
-210 -398 -810 0
-211 -399 -811 0
-212 -400 -812 0
-213 -397 -813 0
-214 -398 -814 0
-215 -399 -815 0
-216 -400 -816 0
-217 -397 -817 0
-218 -398 -818 0
-219 -399 -819 0
-220 -400 -820 0
-221 -397 -821 0
-222 -398 -822 0
-223 -399 -823 0
-224 -400 -824 0
-225 -397 -825 0
-226 -398 -826 0
-227 -399 -827 0
-228 -400 -828 0
-229 -397 -829 0
-230 -398 -830 0
-231 -399 -831 0
-232 -400 -832 0
-233 -397 -833 0
-234 -398 -834 0
-235 -399 -835 0
-236 -400 -836 0
-237 -397 -837 0
-238 -398 -838 0
-239 -399 -839 0
-240 -400 -840 0
-241 -397 -841 0
-242 -398 -842 0
-243 -399 -843 0
-244 -400 -844 0
-245 -397 -845 0
-246 -398 -846 0
-247 -399 -847 0
-248 -400 -848 0
-249 -397 -849 0
-250 -398 -850 0
-251 -399 -851 0
-252 -400 -852 0
-253 -397 -853 0
-254 -398 -854 0
-255 -399 -855 0
-256 -400 -856 0
-257 -397 -857 0
-258 -398 -858 0
-259 -399 -859 0
-260 -400 -860 0
-261 -397 -861 0
-262 -398 -862 0
-263 -399 -863 0
-264 -400 -864 0
-265 -397 -865 0
-266 -398 -866 0
-267 -399 -867 0
-268 -400 -868 0
-269 -397 -869 0
-270 -398 -870 0
-271 -399 -871 0
-272 -400 -872 0
-273 -397 -873 0
-274 -398 -874 0
-275 -399 -875 0
-276 -400 -876 0
-277 -397 -877 0
-278 -398 -878 0
-279 -399 -879 0
-280 -400 -880 0
-281 -397 -881 0
-282 -398 -882 0
-283 -399 -883 0
-284 -400 -884 0
-285 -397 -885 0
-286 -398 -886 0
-287 -399 -887 0
-288 -400 -888 0
-289 -397 -889 0
-290 -398 -890 0
-291 -399 -891 0
-292 -400 -892 0
-293 -397 -893 0
-294 -398 -894 0
-295 -399 -895 0
-296 -400 -896 0
-297 -397 -897 0
-298 -398 -898 0
-299 -399 -899 0
-300 -400 -900 0
-301 -397 -901 0
-302 -398 -902 0
-303 -399 -903 0
-304 -400 -904 0
-1 -405 -613 0
-2 -406 -614 0
-3 -407 -615 0
-4 -408 -616 0
-5 -405 -617 0
-6 -406 -618 0
-7 -407 -619 0
-8 -408 -620 0
-9 -405 -621 0
-10 -406 -622 0
-11 -407 -623 0
-12 -408 -624 0
-13 -405 -625 0
-14 -406 -626 0
-15 -407 -627 0
-16 -408 -628 0
-17 -405 -629 0
-18 -406 -630 0
-19 -407 -631 0
-20 -408 -632 0
-21 -405 -633 0
-22 -406 -634 0
-23 -407 -635 0
-24 -408 -636 0
-25 -405 -637 0
-26 -406 -638 0
-27 -407 -639 0
-28 -408 -640 0
-29 -405 -641 0
-30 -406 -642 0
-31 -407 -643 0
-32 -408 -644 0
-33 -405 -645 0
-34 -406 -646 0
-35 -407 -647 0
-36 -408 -648 0
-37 -405 -649 0
-38 -406 -650 0
-39 -407 -651 0
-40 -408 -652 0
-41 -405 -653 0
-42 -406 -654 0
-43 -407 -655 0
-44 -408 -656 0
-45 -405 -657 0
-46 -406 -658 0
-47 -407 -659 0
-48 -408 -660 0
-49 -405 -661 0
-50 -406 -662 0
-51 -407 -663 0
-52 -408 -664 0
-53 -405 -665 0
-54 -406 -666 0
-55 -407 -667 0
-56 -408 -668 0
-57 -405 -669 0
-58 -406 -670 0
-59 -407 -671 0
-60 -408 -672 0
-61 -405 -673 0
-62 -406 -674 0
-63 -407 -675 0
-64 -408 -676 0
-65 -405 -677 0
-66 -406 -678 0
-67 -407 -679 0
-68 -408 -680 0
-69 -405 -681 0
-70 -406 -682 0
-71 -407 -683 0
-72 -408 -684 0
-73 -405 -685 0
-74 -406 -686 0
-75 -407 -687 0
-76 -408 -688 0
-77 -405 -689 0
-78 -406 -690 0
-79 -407 -691 0
-80 -408 -692 0
-81 -405 -693 0
-82 -406 -694 0
-83 -407 -695 0
-84 -408 -696 0
-85 -405 -697 0
-86 -406 -698 0
-87 -407 -699 0
-88 -408 -700 0
-89 -405 -701 0
-90 -406 -702 0
-91 -407 -703 0
-92 -408 -704 0
-93 -405 -705 0
-94 -406 -706 0
-95 -407 -707 0
-96 -408 -708 0
-97 -405 -709 0
-98 -406 -710 0
-99 -407 -711 0
-100 -408 -712 0
-101 -405 -713 0
-102 -406 -714 0
-103 -407 -715 0
-104 -408 -716 0
-105 -405 -717 0
-106 -406 -718 0
-107 -407 -719 0
-108 -408 -720 0
-109 -405 -721 0
-110 -406 -722 0
-111 -407 -723 0
-112 -408 -724 0
-113 -405 -725 0
-114 -406 -726 0
-115 -407 -727 0
-116 -408 -728 0
-117 -405 -729 0
-118 -406 -730 0
-119 -407 -731 0
-120 -408 -732 0
-121 -405 -733 0
-122 -406 -734 0
-123 -407 -735 0
-124 -408 -736 0
-125 -405 -737 0
-126 -406 -738 0
-127 -407 -739 0
-128 -408 -740 0
-129 -405 -741 0
-130 -406 -742 0
-131 -407 -743 0
-132 -408 -744 0
-133 -405 -745 0
-134 -406 -746 0
-135 -407 -747 0
-136 -408 -748 0
-137 -405 -749 0
-138 -406 -750 0
-139 -407 -751 0
-140 -408 -752 0
-141 -405 -753 0
-142 -406 -754 0
-143 -407 -755 0
-144 -408 -756 0
-145 -405 -757 0
-146 -406 -758 0
-147 -407 -759 0
-148 -408 -760 0
-149 -405 -761 0
-150 -406 -762 0
-151 -407 -763 0
-152 -408 -764 0
-153 -405 -765 0
-154 -406 -766 0
-155 -407 -767 0
-156 -408 -768 0
-157 -405 -769 0
-158 -406 -770 0
-159 -407 -771 0
-160 -408 -772 0
-161 -405 -773 0
-162 -406 -774 0
-163 -407 -775 0
-164 -408 -776 0
-165 -405 -777 0
-166 -406 -778 0
-167 -407 -779 0
-168 -408 -780 0
-169 -405 -781 0
-170 -406 -782 0
-171 -407 -783 0
-172 -408 -784 0
-173 -405 -785 0
-174 -406 -786 0
-175 -407 -787 0
-176 -408 -788 0
-177 -405 -789 0
-178 -406 -790 0
-179 -407 -791 0
-180 -408 -792 0
-181 -405 -793 0
-182 -406 -794 0
-183 -407 -795 0
-184 -408 -796 0
-185 -405 -797 0
-186 -406 -798 0
-187 -407 -799 0
-188 -408 -800 0
-189 -405 -801 0
-190 -406 -802 0
-191 -407 -803 0
-192 -408 -804 0
-193 -405 -805 0
-194 -406 -806 0
-195 -407 -807 0
-196 -408 -808 0
-197 -405 -809 0
-198 -406 -810 0
-199 -407 -811 0
-200 -408 -812 0
-201 -405 -813 0
-202 -406 -814 0
-203 -407 -815 0
-204 -408 -816 0
-205 -405 -817 0
-206 -406 -818 0
-207 -407 -819 0
-208 -408 -820 0
-209 -405 -821 0
-210 -406 -822 0
-211 -407 -823 0
-212 -408 -824 0
-213 -405 -825 0
-214 -406 -826 0
-215 -407 -827 0
-216 -408 -828 0
-217 -405 -829 0
-218 -406 -830 0
-219 -407 -831 0
-220 -408 -832 0
-221 -405 -833 0
-222 -406 -834 0
-223 -407 -835 0
-224 -408 -836 0
-225 -405 -837 0
-226 -406 -838 0
-227 -407 -839 0
-228 -408 -840 0
-229 -405 -841 0
-230 -406 -842 0
-231 -407 -843 0
-232 -408 -844 0
-233 -405 -845 0
-234 -406 -846 0
-235 -407 -847 0
-236 -408 -848 0
-237 -405 -849 0
-238 -406 -850 0
-239 -407 -851 0
-240 -408 -852 0
-241 -405 -853 0
-242 -406 -854 0
-243 -407 -855 0
-244 -408 -856 0
-245 -405 -857 0
-246 -406 -858 0
-247 -407 -859 0
-248 -408 -860 0
-249 -405 -861 0
-250 -406 -862 0
-251 -407 -863 0
-252 -408 -864 0
-253 -405 -865 0
-254 -406 -866 0
-255 -407 -867 0
-256 -408 -868 0
-257 -405 -869 0
-258 -406 -870 0
-259 -407 -871 0
-260 -408 -872 0
-261 -405 -873 0
-262 -406 -874 0
-263 -407 -875 0
-264 -408 -876 0
-265 -405 -877 0
-266 -406 -878 0
-267 -407 -879 0
-268 -408 -880 0
-269 -405 -881 0
-270 -406 -882 0
-271 -407 -883 0
-272 -408 -884 0
-273 -405 -885 0
-274 -406 -886 0
-275 -407 -887 0
-276 -408 -888 0
-277 -405 -889 0
-278 -406 -890 0
-279 -407 -891 0
-280 -408 -892 0
-281 -405 -893 0
-282 -406 -894 0
-283 -407 -895 0
-284 -408 -896 0
-285 -405 -897 0
-286 -406 -898 0
-287 -407 -899 0
-288 -408 -900 0
-289 -405 -901 0
-290 -406 -902 0
-291 -407 -903 0
-292 -408 -904 0
-1 -413 -625 0
-2 -414 -626 0
-3 -415 -627 0
-4 -416 -628 0
-5 -413 -629 0
-6 -414 -630 0
-7 -415 -631 0
-8 -416 -632 0
-9 -413 -633 0
-10 -414 -634 0
-11 -415 -635 0
-12 -416 -636 0
-13 -413 -637 0
-14 -414 -638 0
-15 -415 -639 0
-16 -416 -640 0
-17 -413 -641 0
-18 -414 -642 0
-19 -415 -643 0
-20 -416 -644 0
-21 -413 -645 0
-22 -414 -646 0
-23 -415 -647 0
-24 -416 -648 0
-25 -413 -649 0
-26 -414 -650 0
-27 -415 -651 0
-28 -416 -652 0
-29 -413 -653 0
-30 -414 -654 0
-31 -415 -655 0
-32 -416 -656 0
-33 -413 -657 0
-34 -414 -658 0
-35 -415 -659 0
-36 -416 -660 0
-37 -413 -661 0
-38 -414 -662 0
-39 -415 -663 0
-40 -416 -664 0
-41 -413 -665 0
-42 -414 -666 0
-43 -415 -667 0
-44 -416 -668 0
-45 -413 -669 0
-46 -414 -670 0
-47 -415 -671 0
-48 -416 -672 0
-49 -413 -673 0
-50 -414 -674 0
-51 -415 -675 0
-52 -416 -676 0
-53 -413 -677 0
-54 -414 -678 0
-55 -415 -679 0
-56 -416 -680 0
-57 -413 -681 0
-58 -414 -682 0
-59 -415 -683 0
-60 -416 -684 0
-61 -413 -685 0
-62 -414 -686 0
-63 -415 -687 0
-64 -416 -688 0
-65 -413 -689 0
-66 -414 -690 0
-67 -415 -691 0
-68 -416 -692 0
-69 -413 -693 0
-70 -414 -694 0
-71 -415 -695 0
-72 -416 -696 0
-73 -413 -697 0
-74 -414 -698 0
-75 -415 -699 0
-76 -416 -700 0
-77 -413 -701 0
-78 -414 -702 0
-79 -415 -703 0
-80 -416 -704 0
-81 -413 -705 0
-82 -414 -706 0
-83 -415 -707 0
-84 -416 -708 0
-85 -413 -709 0
-86 -414 -710 0
-87 -415 -711 0
-88 -416 -712 0
-89 -413 -713 0
-90 -414 -714 0
-91 -415 -715 0
-92 -416 -716 0
-93 -413 -717 0
-94 -414 -718 0
-95 -415 -719 0
-96 -416 -720 0
-97 -413 -721 0
-98 -414 -722 0
-99 -415 -723 0
-100 -416 -724 0
-101 -413 -725 0
-102 -414 -726 0
-103 -415 -727 0
-104 -416 -728 0
-105 -413 -729 0
-106 -414 -730 0
-107 -415 -731 0
-108 -416 -732 0
-109 -413 -733 0
-110 -414 -734 0
-111 -415 -735 0
-112 -416 -736 0
-113 -413 -737 0
-114 -414 -738 0
-115 -415 -739 0
-116 -416 -740 0
-117 -413 -741 0
-118 -414 -742 0
-119 -415 -743 0
-120 -416 -744 0
-121 -413 -745 0
-122 -414 -746 0
-123 -415 -747 0
-124 -416 -748 0
-125 -413 -749 0
-126 -414 -750 0
-127 -415 -751 0
-128 -416 -752 0
-129 -413 -753 0
-130 -414 -754 0
-131 -415 -755 0
-132 -416 -756 0
-133 -413 -757 0
-134 -414 -758 0
-135 -415 -759 0
-136 -416 -760 0
-137 -413 -761 0
-138 -414 -762 0
-139 -415 -763 0
-140 -416 -764 0
-141 -413 -765 0
-142 -414 -766 0
-143 -415 -767 0
-144 -416 -768 0
-145 -413 -769 0
-146 -414 -770 0
-147 -415 -771 0
-148 -416 -772 0
-149 -413 -773 0
-150 -414 -774 0
-151 -415 -775 0
-152 -416 -776 0
-153 -413 -777 0
-154 -414 -778 0
-155 -415 -779 0
-156 -416 -780 0
-157 -413 -781 0
-158 -414 -782 0
-159 -415 -783 0
-160 -416 -784 0
-161 -413 -785 0
-162 -414 -786 0
-163 -415 -787 0
-164 -416 -788 0
-165 -413 -789 0
-166 -414 -790 0
-167 -415 -791 0
-168 -416 -792 0
-169 -413 -793 0
-170 -414 -794 0
-171 -415 -795 0
-172 -416 -796 0
-173 -413 -797 0
-174 -414 -798 0
-175 -415 -799 0
-176 -416 -800 0
-177 -413 -801 0
-178 -414 -802 0
-179 -415 -803 0
-180 -416 -804 0
-181 -413 -805 0
-182 -414 -806 0
-183 -415 -807 0
-184 -416 -808 0
-185 -413 -809 0
-186 -414 -810 0
-187 -415 -811 0
-188 -416 -812 0
-189 -413 -813 0
-190 -414 -814 0
-191 -415 -815 0
-192 -416 -816 0
-193 -413 -817 0
-194 -414 -818 0
-195 -415 -819 0
-196 -416 -820 0
-197 -413 -821 0
-198 -414 -822 0
-199 -415 -823 0
-200 -416 -824 0
-201 -413 -825 0
-202 -414 -826 0
-203 -415 -827 0
-204 -416 -828 0
-205 -413 -829 0
-206 -414 -830 0
-207 -415 -831 0
-208 -416 -832 0
-209 -413 -833 0
-210 -414 -834 0
-211 -415 -835 0
-212 -416 -836 0
-213 -413 -837 0
-214 -414 -838 0
-215 -415 -839 0
-216 -416 -840 0
-217 -413 -841 0
-218 -414 -842 0
-219 -415 -843 0
-220 -416 -844 0
-221 -413 -845 0
-222 -414 -846 0
-223 -415 -847 0
-224 -416 -848 0
-225 -413 -849 0
-226 -414 -850 0
-227 -415 -851 0
-228 -416 -852 0
-229 -413 -853 0
-230 -414 -854 0
-231 -415 -855 0
-232 -416 -856 0
-233 -413 -857 0
-234 -414 -858 0
-235 -415 -859 0
-236 -416 -860 0
-237 -413 -861 0
-238 -414 -862 0
-239 -415 -863 0
-240 -416 -864 0
-241 -413 -865 0
-242 -414 -866 0
-243 -415 -867 0
-244 -416 -868 0
-245 -413 -869 0
-246 -414 -870 0
-247 -415 -871 0
-248 -416 -872 0
-249 -413 -873 0
-250 -414 -874 0
-251 -415 -875 0
-252 -416 -876 0
-253 -413 -877 0
-254 -414 -878 0
-255 -415 -879 0
-256 -416 -880 0
-257 -413 -881 0
-258 -414 -882 0
-259 -415 -883 0
-260 -416 -884 0
-261 -413 -885 0
-262 -414 -886 0
-263 -415 -887 0
-264 -416 -888 0
-265 -413 -889 0
-266 -414 -890 0
-267 -415 -891 0
-268 -416 -892 0
-269 -413 -893 0
-270 -414 -894 0
-271 -415 -895 0
-272 -416 -896 0
-273 -413 -897 0
-274 -414 -898 0
-275 -415 -899 0
-276 -416 -900 0
-277 -413 -901 0
-278 -414 -902 0
-279 -415 -903 0
-280 -416 -904 0
-1 -421 -637 0
-2 -422 -638 0
-3 -423 -639 0
-4 -424 -640 0
-5 -421 -641 0
-6 -422 -642 0
-7 -423 -643 0
-8 -424 -644 0
-9 -421 -645 0
-10 -422 -646 0
-11 -423 -647 0
-12 -424 -648 0
-13 -421 -649 0
-14 -422 -650 0
-15 -423 -651 0
-16 -424 -652 0
-17 -421 -653 0
-18 -422 -654 0
-19 -423 -655 0
-20 -424 -656 0
-21 -421 -657 0
-22 -422 -658 0
-23 -423 -659 0
-24 -424 -660 0
-25 -421 -661 0
-26 -422 -662 0
-27 -423 -663 0
-28 -424 -664 0
-29 -421 -665 0
-30 -422 -666 0
-31 -423 -667 0
-32 -424 -668 0
-33 -421 -669 0
-34 -422 -670 0
-35 -423 -671 0
-36 -424 -672 0
-37 -421 -673 0
-38 -422 -674 0
-39 -423 -675 0
-40 -424 -676 0
-41 -421 -677 0
-42 -422 -678 0
-43 -423 -679 0
-44 -424 -680 0
-45 -421 -681 0
-46 -422 -682 0
-47 -423 -683 0
-48 -424 -684 0
-49 -421 -685 0
-50 -422 -686 0
-51 -423 -687 0
-52 -424 -688 0
-53 -421 -689 0
-54 -422 -690 0
-55 -423 -691 0
-56 -424 -692 0
-57 -421 -693 0
-58 -422 -694 0
-59 -423 -695 0
-60 -424 -696 0
-61 -421 -697 0
-62 -422 -698 0
-63 -423 -699 0
-64 -424 -700 0
-65 -421 -701 0
-66 -422 -702 0
-67 -423 -703 0
-68 -424 -704 0
-69 -421 -705 0
-70 -422 -706 0
-71 -423 -707 0
-72 -424 -708 0
-73 -421 -709 0
-74 -422 -710 0
-75 -423 -711 0
-76 -424 -712 0
-77 -421 -713 0
-78 -422 -714 0
-79 -423 -715 0
-80 -424 -716 0
-81 -421 -717 0
-82 -422 -718 0
-83 -423 -719 0
-84 -424 -720 0
-85 -421 -721 0
-86 -422 -722 0
-87 -423 -723 0
-88 -424 -724 0
-89 -421 -725 0
-90 -422 -726 0
-91 -423 -727 0
-92 -424 -728 0
-93 -421 -729 0
-94 -422 -730 0
-95 -423 -731 0
-96 -424 -732 0
-97 -421 -733 0
-98 -422 -734 0
-99 -423 -735 0
-100 -424 -736 0
-101 -421 -737 0
-102 -422 -738 0
-103 -423 -739 0
-104 -424 -740 0
-105 -421 -741 0
-106 -422 -742 0
-107 -423 -743 0
-108 -424 -744 0
-109 -421 -745 0
-110 -422 -746 0
-111 -423 -747 0
-112 -424 -748 0
-113 -421 -749 0
-114 -422 -750 0
-115 -423 -751 0
-116 -424 -752 0
-117 -421 -753 0
-118 -422 -754 0
-119 -423 -755 0
-120 -424 -756 0
-121 -421 -757 0
-122 -422 -758 0
-123 -423 -759 0
-124 -424 -760 0
-125 -421 -761 0
-126 -422 -762 0
-127 -423 -763 0
-128 -424 -764 0
-129 -421 -765 0
-130 -422 -766 0
-131 -423 -767 0
-132 -424 -768 0
-133 -421 -769 0
-134 -422 -770 0
-135 -423 -771 0
-136 -424 -772 0
-137 -421 -773 0
-138 -422 -774 0
-139 -423 -775 0
-140 -424 -776 0
-141 -421 -777 0
-142 -422 -778 0
-143 -423 -779 0
-144 -424 -780 0
-145 -421 -781 0
-146 -422 -782 0
-147 -423 -783 0
-148 -424 -784 0
-149 -421 -785 0
-150 -422 -786 0
-151 -423 -787 0
-152 -424 -788 0
-153 -421 -789 0
-154 -422 -790 0
-155 -423 -791 0
-156 -424 -792 0
-157 -421 -793 0
-158 -422 -794 0
-159 -423 -795 0
-160 -424 -796 0
-161 -421 -797 0
-162 -422 -798 0
-163 -423 -799 0
-164 -424 -800 0
-165 -421 -801 0
-166 -422 -802 0
-167 -423 -803 0
-168 -424 -804 0
-169 -421 -805 0
-170 -422 -806 0
-171 -423 -807 0
-172 -424 -808 0
-173 -421 -809 0
-174 -422 -810 0
-175 -423 -811 0
-176 -424 -812 0
-177 -421 -813 0
-178 -422 -814 0
-179 -423 -815 0
-180 -424 -816 0
-181 -421 -817 0
-182 -422 -818 0
-183 -423 -819 0
-184 -424 -820 0
-185 -421 -821 0
-186 -422 -822 0
-187 -423 -823 0
-188 -424 -824 0
-189 -421 -825 0
-190 -422 -826 0
-191 -423 -827 0
-192 -424 -828 0
-193 -421 -829 0
-194 -422 -830 0
-195 -423 -831 0
-196 -424 -832 0
-197 -421 -833 0
-198 -422 -834 0
-199 -423 -835 0
-200 -424 -836 0
-201 -421 -837 0
-202 -422 -838 0
-203 -423 -839 0
-204 -424 -840 0
-205 -421 -841 0
-206 -422 -842 0
-207 -423 -843 0
-208 -424 -844 0
-209 -421 -845 0
-210 -422 -846 0
-211 -423 -847 0
-212 -424 -848 0
-213 -421 -849 0
-214 -422 -850 0
-215 -423 -851 0
-216 -424 -852 0
-217 -421 -853 0
-218 -422 -854 0
-219 -423 -855 0
-220 -424 -856 0
-221 -421 -857 0
-222 -422 -858 0
-223 -423 -859 0
-224 -424 -860 0
-225 -421 -861 0
-226 -422 -862 0
-227 -423 -863 0
-228 -424 -864 0
-229 -421 -865 0
-230 -422 -866 0
-231 -423 -867 0
-232 -424 -868 0
-233 -421 -869 0
-234 -422 -870 0
-235 -423 -871 0
-236 -424 -872 0
-237 -421 -873 0
-238 -422 -874 0
-239 -423 -875 0
-240 -424 -876 0
-241 -421 -877 0
-242 -422 -878 0
-243 -423 -879 0
-244 -424 -880 0
-245 -421 -881 0
-246 -422 -882 0
-247 -423 -883 0
-248 -424 -884 0
-249 -421 -885 0
-250 -422 -886 0
-251 -423 -887 0
-252 -424 -888 0
-253 -421 -889 0
-254 -422 -890 0
-255 -423 -891 0
-256 -424 -892 0
-257 -421 -893 0
-258 -422 -894 0
-259 -423 -895 0
-260 -424 -896 0
-261 -421 -897 0
-262 -422 -898 0
-263 -423 -899 0
-264 -424 -900 0
-265 -421 -901 0
-266 -422 -902 0
-267 -423 -903 0
-268 -424 -904 0
-1 -429 -649 0
-2 -430 -650 0
-3 -431 -651 0
-4 -432 -652 0
-5 -429 -653 0
-6 -430 -654 0
-7 -431 -655 0
-8 -432 -656 0
-9 -429 -657 0
-10 -430 -658 0
-11 -431 -659 0
-12 -432 -660 0
-13 -429 -661 0
-14 -430 -662 0
-15 -431 -663 0
-16 -432 -664 0
-17 -429 -665 0
-18 -430 -666 0
-19 -431 -667 0
-20 -432 -668 0
-21 -429 -669 0
-22 -430 -670 0
-23 -431 -671 0
-24 -432 -672 0
-25 -429 -673 0
-26 -430 -674 0
-27 -431 -675 0
-28 -432 -676 0
-29 -429 -677 0
-30 -430 -678 0
-31 -431 -679 0
-32 -432 -680 0
-33 -429 -681 0
-34 -430 -682 0
-35 -431 -683 0
-36 -432 -684 0
-37 -429 -685 0
-38 -430 -686 0
-39 -431 -687 0
-40 -432 -688 0
-41 -429 -689 0
-42 -430 -690 0
-43 -431 -691 0
-44 -432 -692 0
-45 -429 -693 0
-46 -430 -694 0
-47 -431 -695 0
-48 -432 -696 0
-49 -429 -697 0
-50 -430 -698 0
-51 -431 -699 0
-52 -432 -700 0
-53 -429 -701 0
-54 -430 -702 0
-55 -431 -703 0
-56 -432 -704 0
-57 -429 -705 0
-58 -430 -706 0
-59 -431 -707 0
-60 -432 -708 0
-61 -429 -709 0
-62 -430 -710 0
-63 -431 -711 0
-64 -432 -712 0
-65 -429 -713 0
-66 -430 -714 0
-67 -431 -715 0
-68 -432 -716 0
-69 -429 -717 0
-70 -430 -718 0
-71 -431 -719 0
-72 -432 -720 0
-73 -429 -721 0
-74 -430 -722 0
-75 -431 -723 0
-76 -432 -724 0
-77 -429 -725 0
-78 -430 -726 0
-79 -431 -727 0
-80 -432 -728 0
-81 -429 -729 0
-82 -430 -730 0
-83 -431 -731 0
-84 -432 -732 0
-85 -429 -733 0
-86 -430 -734 0
-87 -431 -735 0
-88 -432 -736 0
-89 -429 -737 0
-90 -430 -738 0
-91 -431 -739 0
-92 -432 -740 0
-93 -429 -741 0
-94 -430 -742 0
-95 -431 -743 0
-96 -432 -744 0
-97 -429 -745 0
-98 -430 -746 0
-99 -431 -747 0
-100 -432 -748 0
-101 -429 -749 0
-102 -430 -750 0
-103 -431 -751 0
-104 -432 -752 0
-105 -429 -753 0
-106 -430 -754 0
-107 -431 -755 0
-108 -432 -756 0
-109 -429 -757 0
-110 -430 -758 0
-111 -431 -759 0
-112 -432 -760 0
-113 -429 -761 0
-114 -430 -762 0
-115 -431 -763 0
-116 -432 -764 0
-117 -429 -765 0
-118 -430 -766 0
-119 -431 -767 0
-120 -432 -768 0
-121 -429 -769 0
-122 -430 -770 0
-123 -431 -771 0
-124 -432 -772 0
-125 -429 -773 0
-126 -430 -774 0
-127 -431 -775 0
-128 -432 -776 0
-129 -429 -777 0
-130 -430 -778 0
-131 -431 -779 0
-132 -432 -780 0
-133 -429 -781 0
-134 -430 -782 0
-135 -431 -783 0
-136 -432 -784 0
-137 -429 -785 0
-138 -430 -786 0
-139 -431 -787 0
-140 -432 -788 0
-141 -429 -789 0
-142 -430 -790 0
-143 -431 -791 0
-144 -432 -792 0
-145 -429 -793 0
-146 -430 -794 0
-147 -431 -795 0
-148 -432 -796 0
-149 -429 -797 0
-150 -430 -798 0
-151 -431 -799 0
-152 -432 -800 0
-153 -429 -801 0
-154 -430 -802 0
-155 -431 -803 0
-156 -432 -804 0
-157 -429 -805 0
-158 -430 -806 0
-159 -431 -807 0
-160 -432 -808 0
-161 -429 -809 0
-162 -430 -810 0
-163 -431 -811 0
-164 -432 -812 0
-165 -429 -813 0
-166 -430 -814 0
-167 -431 -815 0
-168 -432 -816 0
-169 -429 -817 0
-170 -430 -818 0
-171 -431 -819 0
-172 -432 -820 0
-173 -429 -821 0
-174 -430 -822 0
-175 -431 -823 0
-176 -432 -824 0
-177 -429 -825 0
-178 -430 -826 0
-179 -431 -827 0
-180 -432 -828 0
-181 -429 -829 0
-182 -430 -830 0
-183 -431 -831 0
-184 -432 -832 0
-185 -429 -833 0
-186 -430 -834 0
-187 -431 -835 0
-188 -432 -836 0
-189 -429 -837 0
-190 -430 -838 0
-191 -431 -839 0
-192 -432 -840 0
-193 -429 -841 0
-194 -430 -842 0
-195 -431 -843 0
-196 -432 -844 0
-197 -429 -845 0
-198 -430 -846 0
-199 -431 -847 0
-200 -432 -848 0
-201 -429 -849 0
-202 -430 -850 0
-203 -431 -851 0
-204 -432 -852 0
-205 -429 -853 0
-206 -430 -854 0
-207 -431 -855 0
-208 -432 -856 0
-209 -429 -857 0
-210 -430 -858 0
-211 -431 -859 0
-212 -432 -860 0
-213 -429 -861 0
-214 -430 -862 0
-215 -431 -863 0
-216 -432 -864 0
-217 -429 -865 0
-218 -430 -866 0
-219 -431 -867 0
-220 -432 -868 0
-221 -429 -869 0
-222 -430 -870 0
-223 -431 -871 0
-224 -432 -872 0
-225 -429 -873 0
-226 -430 -874 0
-227 -431 -875 0
-228 -432 -876 0
-229 -429 -877 0
-230 -430 -878 0
-231 -431 -879 0
-232 -432 -880 0
-233 -429 -881 0
-234 -430 -882 0
-235 -431 -883 0
-236 -432 -884 0
-237 -429 -885 0
-238 -430 -886 0
-239 -431 -887 0
-240 -432 -888 0
-241 -429 -889 0
-242 -430 -890 0
-243 -431 -891 0
-244 -432 -892 0
-245 -429 -893 0
-246 -430 -894 0
-247 -431 -895 0
-248 -432 -896 0
-249 -429 -897 0
-250 -430 -898 0
-251 -431 -899 0
-252 -432 -900 0
-253 -429 -901 0
-254 -430 -902 0
-255 -431 -903 0
-256 -432 -904 0
-1 -437 -661 0
-2 -438 -662 0
-3 -439 -663 0
-4 -440 -664 0
-5 -437 -665 0
-6 -438 -666 0
-7 -439 -667 0
-8 -440 -668 0
-9 -437 -669 0
-10 -438 -670 0
-11 -439 -671 0
-12 -440 -672 0
-13 -437 -673 0
-14 -438 -674 0
-15 -439 -675 0
-16 -440 -676 0
-17 -437 -677 0
-18 -438 -678 0
-19 -439 -679 0
-20 -440 -680 0
-21 -437 -681 0
-22 -438 -682 0
-23 -439 -683 0
-24 -440 -684 0
-25 -437 -685 0
-26 -438 -686 0
-27 -439 -687 0
-28 -440 -688 0
-29 -437 -689 0
-30 -438 -690 0
-31 -439 -691 0
-32 -440 -692 0
-33 -437 -693 0
-34 -438 -694 0
-35 -439 -695 0
-36 -440 -696 0
-37 -437 -697 0
-38 -438 -698 0
-39 -439 -699 0
-40 -440 -700 0
-41 -437 -701 0
-42 -438 -702 0
-43 -439 -703 0
-44 -440 -704 0
-45 -437 -705 0
-46 -438 -706 0
-47 -439 -707 0
-48 -440 -708 0
-49 -437 -709 0
-50 -438 -710 0
-51 -439 -711 0
-52 -440 -712 0
-53 -437 -713 0
-54 -438 -714 0
-55 -439 -715 0
-56 -440 -716 0
-57 -437 -717 0
-58 -438 -718 0
-59 -439 -719 0
-60 -440 -720 0
-61 -437 -721 0
-62 -438 -722 0
-63 -439 -723 0
-64 -440 -724 0
-65 -437 -725 0
-66 -438 -726 0
-67 -439 -727 0
-68 -440 -728 0
-69 -437 -729 0
-70 -438 -730 0
-71 -439 -731 0
-72 -440 -732 0
-73 -437 -733 0
-74 -438 -734 0
-75 -439 -735 0
-76 -440 -736 0
-77 -437 -737 0
-78 -438 -738 0
-79 -439 -739 0
-80 -440 -740 0
-81 -437 -741 0
-82 -438 -742 0
-83 -439 -743 0
-84 -440 -744 0
-85 -437 -745 0
-86 -438 -746 0
-87 -439 -747 0
-88 -440 -748 0
-89 -437 -749 0
-90 -438 -750 0
-91 -439 -751 0
-92 -440 -752 0
-93 -437 -753 0
-94 -438 -754 0
-95 -439 -755 0
-96 -440 -756 0
-97 -437 -757 0
-98 -438 -758 0
-99 -439 -759 0
-100 -440 -760 0
-101 -437 -761 0
-102 -438 -762 0
-103 -439 -763 0
-104 -440 -764 0
-105 -437 -765 0
-106 -438 -766 0
-107 -439 -767 0
-108 -440 -768 0
-109 -437 -769 0
-110 -438 -770 0
-111 -439 -771 0
-112 -440 -772 0
-113 -437 -773 0
-114 -438 -774 0
-115 -439 -775 0
-116 -440 -776 0
-117 -437 -777 0
-118 -438 -778 0
-119 -439 -779 0
-120 -440 -780 0
-121 -437 -781 0
-122 -438 -782 0
-123 -439 -783 0
-124 -440 -784 0
-125 -437 -785 0
-126 -438 -786 0
-127 -439 -787 0
-128 -440 -788 0
-129 -437 -789 0
-130 -438 -790 0
-131 -439 -791 0
-132 -440 -792 0
-133 -437 -793 0
-134 -438 -794 0
-135 -439 -795 0
-136 -440 -796 0
-137 -437 -797 0
-138 -438 -798 0
-139 -439 -799 0
-140 -440 -800 0
-141 -437 -801 0
-142 -438 -802 0
-143 -439 -803 0
-144 -440 -804 0
-145 -437 -805 0
-146 -438 -806 0
-147 -439 -807 0
-148 -440 -808 0
-149 -437 -809 0
-150 -438 -810 0
-151 -439 -811 0
-152 -440 -812 0
-153 -437 -813 0
-154 -438 -814 0
-155 -439 -815 0
-156 -440 -816 0
-157 -437 -817 0
-158 -438 -818 0
-159 -439 -819 0
-160 -440 -820 0
-161 -437 -821 0
-162 -438 -822 0
-163 -439 -823 0
-164 -440 -824 0
-165 -437 -825 0
-166 -438 -826 0
-167 -439 -827 0
-168 -440 -828 0
-169 -437 -829 0
-170 -438 -830 0
-171 -439 -831 0
-172 -440 -832 0
-173 -437 -833 0
-174 -438 -834 0
-175 -439 -835 0
-176 -440 -836 0
-177 -437 -837 0
-178 -438 -838 0
-179 -439 -839 0
-180 -440 -840 0
-181 -437 -841 0
-182 -438 -842 0
-183 -439 -843 0
-184 -440 -844 0
-185 -437 -845 0
-186 -438 -846 0
-187 -439 -847 0
-188 -440 -848 0
-189 -437 -849 0
-190 -438 -850 0
-191 -439 -851 0
-192 -440 -852 0
-193 -437 -853 0
-194 -438 -854 0
-195 -439 -855 0
-196 -440 -856 0
-197 -437 -857 0
-198 -438 -858 0
-199 -439 -859 0
-200 -440 -860 0
-201 -437 -861 0
-202 -438 -862 0
-203 -439 -863 0
-204 -440 -864 0
-205 -437 -865 0
-206 -438 -866 0
-207 -439 -867 0
-208 -440 -868 0
-209 -437 -869 0
-210 -438 -870 0
-211 -439 -871 0
-212 -440 -872 0
-213 -437 -873 0
-214 -438 -874 0
-215 -439 -875 0
-216 -440 -876 0
-217 -437 -877 0
-218 -438 -878 0
-219 -439 -879 0
-220 -440 -880 0
-221 -437 -881 0
-222 -438 -882 0
-223 -439 -883 0
-224 -440 -884 0
-225 -437 -885 0
-226 -438 -886 0
-227 -439 -887 0
-228 -440 -888 0
-229 -437 -889 0
-230 -438 -890 0
-231 -439 -891 0
-232 -440 -892 0
-233 -437 -893 0
-234 -438 -894 0
-235 -439 -895 0
-236 -440 -896 0
-237 -437 -897 0
-238 -438 -898 0
-239 -439 -899 0
-240 -440 -900 0
-241 -437 -901 0
-242 -438 -902 0
-243 -439 -903 0
-244 -440 -904 0
-1 -445 -673 0
-2 -446 -674 0
-3 -447 -675 0
-4 -448 -676 0
-5 -445 -677 0
-6 -446 -678 0
-7 -447 -679 0
-8 -448 -680 0
-9 -445 -681 0
-10 -446 -682 0
-11 -447 -683 0
-12 -448 -684 0
-13 -445 -685 0
-14 -446 -686 0
-15 -447 -687 0
-16 -448 -688 0
-17 -445 -689 0
-18 -446 -690 0
-19 -447 -691 0
-20 -448 -692 0
-21 -445 -693 0
-22 -446 -694 0
-23 -447 -695 0
-24 -448 -696 0
-25 -445 -697 0
-26 -446 -698 0
-27 -447 -699 0
-28 -448 -700 0
-29 -445 -701 0
-30 -446 -702 0
-31 -447 -703 0
-32 -448 -704 0
-33 -445 -705 0
-34 -446 -706 0
-35 -447 -707 0
-36 -448 -708 0
-37 -445 -709 0
-38 -446 -710 0
-39 -447 -711 0
-40 -448 -712 0
-41 -445 -713 0
-42 -446 -714 0
-43 -447 -715 0
-44 -448 -716 0
-45 -445 -717 0
-46 -446 -718 0
-47 -447 -719 0
-48 -448 -720 0
-49 -445 -721 0
-50 -446 -722 0
-51 -447 -723 0
-52 -448 -724 0
-53 -445 -725 0
-54 -446 -726 0
-55 -447 -727 0
-56 -448 -728 0
-57 -445 -729 0
-58 -446 -730 0
-59 -447 -731 0
-60 -448 -732 0
-61 -445 -733 0
-62 -446 -734 0
-63 -447 -735 0
-64 -448 -736 0
-65 -445 -737 0
-66 -446 -738 0
-67 -447 -739 0
-68 -448 -740 0
-69 -445 -741 0
-70 -446 -742 0
-71 -447 -743 0
-72 -448 -744 0
-73 -445 -745 0
-74 -446 -746 0
-75 -447 -747 0
-76 -448 -748 0
-77 -445 -749 0
-78 -446 -750 0
-79 -447 -751 0
-80 -448 -752 0
-81 -445 -753 0
-82 -446 -754 0
-83 -447 -755 0
-84 -448 -756 0
-85 -445 -757 0
-86 -446 -758 0
-87 -447 -759 0
-88 -448 -760 0
-89 -445 -761 0
-90 -446 -762 0
-91 -447 -763 0
-92 -448 -764 0
-93 -445 -765 0
-94 -446 -766 0
-95 -447 -767 0
-96 -448 -768 0
-97 -445 -769 0
-98 -446 -770 0
-99 -447 -771 0
-100 -448 -772 0
-101 -445 -773 0
-102 -446 -774 0
-103 -447 -775 0
-104 -448 -776 0
-105 -445 -777 0
-106 -446 -778 0
-107 -447 -779 0
-108 -448 -780 0
-109 -445 -781 0
-110 -446 -782 0
-111 -447 -783 0
-112 -448 -784 0
-113 -445 -785 0
-114 -446 -786 0
-115 -447 -787 0
-116 -448 -788 0
-117 -445 -789 0
-118 -446 -790 0
-119 -447 -791 0
-120 -448 -792 0
-121 -445 -793 0
-122 -446 -794 0
-123 -447 -795 0
-124 -448 -796 0
-125 -445 -797 0
-126 -446 -798 0
-127 -447 -799 0
-128 -448 -800 0
-129 -445 -801 0
-130 -446 -802 0
-131 -447 -803 0
-132 -448 -804 0
-133 -445 -805 0
-134 -446 -806 0
-135 -447 -807 0
-136 -448 -808 0
-137 -445 -809 0
-138 -446 -810 0
-139 -447 -811 0
-140 -448 -812 0
-141 -445 -813 0
-142 -446 -814 0
-143 -447 -815 0
-144 -448 -816 0
-145 -445 -817 0
-146 -446 -818 0
-147 -447 -819 0
-148 -448 -820 0
-149 -445 -821 0
-150 -446 -822 0
-151 -447 -823 0
-152 -448 -824 0
-153 -445 -825 0
-154 -446 -826 0
-155 -447 -827 0
-156 -448 -828 0
-157 -445 -829 0
-158 -446 -830 0
-159 -447 -831 0
-160 -448 -832 0
-161 -445 -833 0
-162 -446 -834 0
-163 -447 -835 0
-164 -448 -836 0
-165 -445 -837 0
-166 -446 -838 0
-167 -447 -839 0
-168 -448 -840 0
-169 -445 -841 0
-170 -446 -842 0
-171 -447 -843 0
-172 -448 -844 0
-173 -445 -845 0
-174 -446 -846 0
-175 -447 -847 0
-176 -448 -848 0
-177 -445 -849 0
-178 -446 -850 0
-179 -447 -851 0
-180 -448 -852 0
-181 -445 -853 0
-182 -446 -854 0
-183 -447 -855 0
-184 -448 -856 0
-185 -445 -857 0
-186 -446 -858 0
-187 -447 -859 0
-188 -448 -860 0
-189 -445 -861 0
-190 -446 -862 0
-191 -447 -863 0
-192 -448 -864 0
-193 -445 -865 0
-194 -446 -866 0
-195 -447 -867 0
-196 -448 -868 0
-197 -445 -869 0
-198 -446 -870 0
-199 -447 -871 0
-200 -448 -872 0
-201 -445 -873 0
-202 -446 -874 0
-203 -447 -875 0
-204 -448 -876 0
-205 -445 -877 0
-206 -446 -878 0
-207 -447 -879 0
-208 -448 -880 0
-209 -445 -881 0
-210 -446 -882 0
-211 -447 -883 0
-212 -448 -884 0
-213 -445 -885 0
-214 -446 -886 0
-215 -447 -887 0
-216 -448 -888 0
-217 -445 -889 0
-218 -446 -890 0
-219 -447 -891 0
-220 -448 -892 0
-221 -445 -893 0
-222 -446 -894 0
-223 -447 -895 0
-224 -448 -896 0
-225 -445 -897 0
-226 -446 -898 0
-227 -447 -899 0
-228 -448 -900 0
-229 -445 -901 0
-230 -446 -902 0
-231 -447 -903 0
-232 -448 -904 0
-1 -453 -685 0
-2 -454 -686 0
-3 -455 -687 0
-4 -456 -688 0
-5 -453 -689 0
-6 -454 -690 0
-7 -455 -691 0
-8 -456 -692 0
-9 -453 -693 0
-10 -454 -694 0
-11 -455 -695 0
-12 -456 -696 0
-13 -453 -697 0
-14 -454 -698 0
-15 -455 -699 0
-16 -456 -700 0
-17 -453 -701 0
-18 -454 -702 0
-19 -455 -703 0
-20 -456 -704 0
-21 -453 -705 0
-22 -454 -706 0
-23 -455 -707 0
-24 -456 -708 0
-25 -453 -709 0
-26 -454 -710 0
-27 -455 -711 0
-28 -456 -712 0
-29 -453 -713 0
-30 -454 -714 0
-31 -455 -715 0
-32 -456 -716 0
-33 -453 -717 0
-34 -454 -718 0
-35 -455 -719 0
-36 -456 -720 0
-37 -453 -721 0
-38 -454 -722 0
-39 -455 -723 0
-40 -456 -724 0
-41 -453 -725 0
-42 -454 -726 0
-43 -455 -727 0
-44 -456 -728 0
-45 -453 -729 0
-46 -454 -730 0
-47 -455 -731 0
-48 -456 -732 0
-49 -453 -733 0
-50 -454 -734 0
-51 -455 -735 0
-52 -456 -736 0
-53 -453 -737 0
-54 -454 -738 0
-55 -455 -739 0
-56 -456 -740 0
-57 -453 -741 0
-58 -454 -742 0
-59 -455 -743 0
-60 -456 -744 0
-61 -453 -745 0
-62 -454 -746 0
-63 -455 -747 0
-64 -456 -748 0
-65 -453 -749 0
-66 -454 -750 0
-67 -455 -751 0
-68 -456 -752 0
-69 -453 -753 0
-70 -454 -754 0
-71 -455 -755 0
-72 -456 -756 0
-73 -453 -757 0
-74 -454 -758 0
-75 -455 -759 0
-76 -456 -760 0
-77 -453 -761 0
-78 -454 -762 0
-79 -455 -763 0
-80 -456 -764 0
-81 -453 -765 0
-82 -454 -766 0
-83 -455 -767 0
-84 -456 -768 0
-85 -453 -769 0
-86 -454 -770 0
-87 -455 -771 0
-88 -456 -772 0
-89 -453 -773 0
-90 -454 -774 0
-91 -455 -775 0
-92 -456 -776 0
-93 -453 -777 0
-94 -454 -778 0
-95 -455 -779 0
-96 -456 -780 0
-97 -453 -781 0
-98 -454 -782 0
-99 -455 -783 0
-100 -456 -784 0
-101 -453 -785 0
-102 -454 -786 0
-103 -455 -787 0
-104 -456 -788 0
-105 -453 -789 0
-106 -454 -790 0
-107 -455 -791 0
-108 -456 -792 0
-109 -453 -793 0
-110 -454 -794 0
-111 -455 -795 0
-112 -456 -796 0
-113 -453 -797 0
-114 -454 -798 0
-115 -455 -799 0
-116 -456 -800 0
-117 -453 -801 0
-118 -454 -802 0
-119 -455 -803 0
-120 -456 -804 0
-121 -453 -805 0
-122 -454 -806 0
-123 -455 -807 0
-124 -456 -808 0
-125 -453 -809 0
-126 -454 -810 0
-127 -455 -811 0
-128 -456 -812 0
-129 -453 -813 0
-130 -454 -814 0
-131 -455 -815 0
-132 -456 -816 0
-133 -453 -817 0
-134 -454 -818 0
-135 -455 -819 0
-136 -456 -820 0
-137 -453 -821 0
-138 -454 -822 0
-139 -455 -823 0
-140 -456 -824 0
-141 -453 -825 0
-142 -454 -826 0
-143 -455 -827 0
-144 -456 -828 0
-145 -453 -829 0
-146 -454 -830 0
-147 -455 -831 0
-148 -456 -832 0
-149 -453 -833 0
-150 -454 -834 0
-151 -455 -835 0
-152 -456 -836 0
-153 -453 -837 0
-154 -454 -838 0
-155 -455 -839 0
-156 -456 -840 0
-157 -453 -841 0
-158 -454 -842 0
-159 -455 -843 0
-160 -456 -844 0
-161 -453 -845 0
-162 -454 -846 0
-163 -455 -847 0
-164 -456 -848 0
-165 -453 -849 0
-166 -454 -850 0
-167 -455 -851 0
-168 -456 -852 0
-169 -453 -853 0
-170 -454 -854 0
-171 -455 -855 0
-172 -456 -856 0
-173 -453 -857 0
-174 -454 -858 0
-175 -455 -859 0
-176 -456 -860 0
-177 -453 -861 0
-178 -454 -862 0
-179 -455 -863 0
-180 -456 -864 0
-181 -453 -865 0
-182 -454 -866 0
-183 -455 -867 0
-184 -456 -868 0
-185 -453 -869 0
-186 -454 -870 0
-187 -455 -871 0
-188 -456 -872 0
-189 -453 -873 0
-190 -454 -874 0
-191 -455 -875 0
-192 -456 -876 0
-193 -453 -877 0
-194 -454 -878 0
-195 -455 -879 0
-196 -456 -880 0
-197 -453 -881 0
-198 -454 -882 0
-199 -455 -883 0
-200 -456 -884 0
-201 -453 -885 0
-202 -454 -886 0
-203 -455 -887 0
-204 -456 -888 0
-205 -453 -889 0
-206 -454 -890 0
-207 -455 -891 0
-208 -456 -892 0
-209 -453 -893 0
-210 -454 -894 0
-211 -455 -895 0
-212 -456 -896 0
-213 -453 -897 0
-214 -454 -898 0
-215 -455 -899 0
-216 -456 -900 0
-217 -453 -901 0
-218 -454 -902 0
-219 -455 -903 0
-220 -456 -904 0
-1 -461 -697 0
-2 -462 -698 0
-3 -463 -699 0
-4 -464 -700 0
-5 -461 -701 0
-6 -462 -702 0
-7 -463 -703 0
-8 -464 -704 0
-9 -461 -705 0
-10 -462 -706 0
-11 -463 -707 0
-12 -464 -708 0
-13 -461 -709 0
-14 -462 -710 0
-15 -463 -711 0
-16 -464 -712 0
-17 -461 -713 0
-18 -462 -714 0
-19 -463 -715 0
-20 -464 -716 0
-21 -461 -717 0
-22 -462 -718 0
-23 -463 -719 0
-24 -464 -720 0
-25 -461 -721 0
-26 -462 -722 0
-27 -463 -723 0
-28 -464 -724 0
-29 -461 -725 0
-30 -462 -726 0
-31 -463 -727 0
-32 -464 -728 0
-33 -461 -729 0
-34 -462 -730 0
-35 -463 -731 0
-36 -464 -732 0
-37 -461 -733 0
-38 -462 -734 0
-39 -463 -735 0
-40 -464 -736 0
-41 -461 -737 0
-42 -462 -738 0
-43 -463 -739 0
-44 -464 -740 0
-45 -461 -741 0
-46 -462 -742 0
-47 -463 -743 0
-48 -464 -744 0
-49 -461 -745 0
-50 -462 -746 0
-51 -463 -747 0
-52 -464 -748 0
-53 -461 -749 0
-54 -462 -750 0
-55 -463 -751 0
-56 -464 -752 0
-57 -461 -753 0
-58 -462 -754 0
-59 -463 -755 0
-60 -464 -756 0
-61 -461 -757 0
-62 -462 -758 0
-63 -463 -759 0
-64 -464 -760 0
-65 -461 -761 0
-66 -462 -762 0
-67 -463 -763 0
-68 -464 -764 0
-69 -461 -765 0
-70 -462 -766 0
-71 -463 -767 0
-72 -464 -768 0
-73 -461 -769 0
-74 -462 -770 0
-75 -463 -771 0
-76 -464 -772 0
-77 -461 -773 0
-78 -462 -774 0
-79 -463 -775 0
-80 -464 -776 0
-81 -461 -777 0
-82 -462 -778 0
-83 -463 -779 0
-84 -464 -780 0
-85 -461 -781 0
-86 -462 -782 0
-87 -463 -783 0
-88 -464 -784 0
-89 -461 -785 0
-90 -462 -786 0
-91 -463 -787 0
-92 -464 -788 0
-93 -461 -789 0
-94 -462 -790 0
-95 -463 -791 0
-96 -464 -792 0
-97 -461 -793 0
-98 -462 -794 0
-99 -463 -795 0
-100 -464 -796 0
-101 -461 -797 0
-102 -462 -798 0
-103 -463 -799 0
-104 -464 -800 0
-105 -461 -801 0
-106 -462 -802 0
-107 -463 -803 0
-108 -464 -804 0
-109 -461 -805 0
-110 -462 -806 0
-111 -463 -807 0
-112 -464 -808 0
-113 -461 -809 0
-114 -462 -810 0
-115 -463 -811 0
-116 -464 -812 0
-117 -461 -813 0
-118 -462 -814 0
-119 -463 -815 0
-120 -464 -816 0
-121 -461 -817 0
-122 -462 -818 0
-123 -463 -819 0
-124 -464 -820 0
-125 -461 -821 0
-126 -462 -822 0
-127 -463 -823 0
-128 -464 -824 0
-129 -461 -825 0
-130 -462 -826 0
-131 -463 -827 0
-132 -464 -828 0
-133 -461 -829 0
-134 -462 -830 0
-135 -463 -831 0
-136 -464 -832 0
-137 -461 -833 0
-138 -462 -834 0
-139 -463 -835 0
-140 -464 -836 0
-141 -461 -837 0
-142 -462 -838 0
-143 -463 -839 0
-144 -464 -840 0
-145 -461 -841 0
-146 -462 -842 0
-147 -463 -843 0
-148 -464 -844 0
-149 -461 -845 0
-150 -462 -846 0
-151 -463 -847 0
-152 -464 -848 0
-153 -461 -849 0
-154 -462 -850 0
-155 -463 -851 0
-156 -464 -852 0
-157 -461 -853 0
-158 -462 -854 0
-159 -463 -855 0
-160 -464 -856 0
-161 -461 -857 0
-162 -462 -858 0
-163 -463 -859 0
-164 -464 -860 0
-165 -461 -861 0
-166 -462 -862 0
-167 -463 -863 0
-168 -464 -864 0
-169 -461 -865 0
-170 -462 -866 0
-171 -463 -867 0
-172 -464 -868 0
-173 -461 -869 0
-174 -462 -870 0
-175 -463 -871 0
-176 -464 -872 0
-177 -461 -873 0
-178 -462 -874 0
-179 -463 -875 0
-180 -464 -876 0
-181 -461 -877 0
-182 -462 -878 0
-183 -463 -879 0
-184 -464 -880 0
-185 -461 -881 0
-186 -462 -882 0
-187 -463 -883 0
-188 -464 -884 0
-189 -461 -885 0
-190 -462 -886 0
-191 -463 -887 0
-192 -464 -888 0
-193 -461 -889 0
-194 -462 -890 0
-195 -463 -891 0
-196 -464 -892 0
-197 -461 -893 0
-198 -462 -894 0
-199 -463 -895 0
-200 -464 -896 0
-201 -461 -897 0
-202 -462 -898 0
-203 -463 -899 0
-204 -464 -900 0
-205 -461 -901 0
-206 -462 -902 0
-207 -463 -903 0
-208 -464 -904 0
-1 -469 -709 0
-2 -470 -710 0
-3 -471 -711 0
-4 -472 -712 0
-5 -469 -713 0
-6 -470 -714 0
-7 -471 -715 0
-8 -472 -716 0
-9 -469 -717 0
-10 -470 -718 0
-11 -471 -719 0
-12 -472 -720 0
-13 -469 -721 0
-14 -470 -722 0
-15 -471 -723 0
-16 -472 -724 0
-17 -469 -725 0
-18 -470 -726 0
-19 -471 -727 0
-20 -472 -728 0
-21 -469 -729 0
-22 -470 -730 0
-23 -471 -731 0
-24 -472 -732 0
-25 -469 -733 0
-26 -470 -734 0
-27 -471 -735 0
-28 -472 -736 0
-29 -469 -737 0
-30 -470 -738 0
-31 -471 -739 0
-32 -472 -740 0
-33 -469 -741 0
-34 -470 -742 0
-35 -471 -743 0
-36 -472 -744 0
-37 -469 -745 0
-38 -470 -746 0
-39 -471 -747 0
-40 -472 -748 0
-41 -469 -749 0
-42 -470 -750 0
-43 -471 -751 0
-44 -472 -752 0
-45 -469 -753 0
-46 -470 -754 0
-47 -471 -755 0
-48 -472 -756 0
-49 -469 -757 0
-50 -470 -758 0
-51 -471 -759 0
-52 -472 -760 0
-53 -469 -761 0
-54 -470 -762 0
-55 -471 -763 0
-56 -472 -764 0
-57 -469 -765 0
-58 -470 -766 0
-59 -471 -767 0
-60 -472 -768 0
-61 -469 -769 0
-62 -470 -770 0
-63 -471 -771 0
-64 -472 -772 0
-65 -469 -773 0
-66 -470 -774 0
-67 -471 -775 0
-68 -472 -776 0
-69 -469 -777 0
-70 -470 -778 0
-71 -471 -779 0
-72 -472 -780 0
-73 -469 -781 0
-74 -470 -782 0
-75 -471 -783 0
-76 -472 -784 0
-77 -469 -785 0
-78 -470 -786 0
-79 -471 -787 0
-80 -472 -788 0
-81 -469 -789 0
-82 -470 -790 0
-83 -471 -791 0
-84 -472 -792 0
-85 -469 -793 0
-86 -470 -794 0
-87 -471 -795 0
-88 -472 -796 0
-89 -469 -797 0
-90 -470 -798 0
-91 -471 -799 0
-92 -472 -800 0
-93 -469 -801 0
-94 -470 -802 0
-95 -471 -803 0
-96 -472 -804 0
-97 -469 -805 0
-98 -470 -806 0
-99 -471 -807 0
-100 -472 -808 0
-101 -469 -809 0
-102 -470 -810 0
-103 -471 -811 0
-104 -472 -812 0
-105 -469 -813 0
-106 -470 -814 0
-107 -471 -815 0
-108 -472 -816 0
-109 -469 -817 0
-110 -470 -818 0
-111 -471 -819 0
-112 -472 -820 0
-113 -469 -821 0
-114 -470 -822 0
-115 -471 -823 0
-116 -472 -824 0
-117 -469 -825 0
-118 -470 -826 0
-119 -471 -827 0
-120 -472 -828 0
-121 -469 -829 0
-122 -470 -830 0
-123 -471 -831 0
-124 -472 -832 0
-125 -469 -833 0
-126 -470 -834 0
-127 -471 -835 0
-128 -472 -836 0
-129 -469 -837 0
-130 -470 -838 0
-131 -471 -839 0
-132 -472 -840 0
-133 -469 -841 0
-134 -470 -842 0
-135 -471 -843 0
-136 -472 -844 0
-137 -469 -845 0
-138 -470 -846 0
-139 -471 -847 0
-140 -472 -848 0
-141 -469 -849 0
-142 -470 -850 0
-143 -471 -851 0
-144 -472 -852 0
-145 -469 -853 0
-146 -470 -854 0
-147 -471 -855 0
-148 -472 -856 0
-149 -469 -857 0
-150 -470 -858 0
-151 -471 -859 0
-152 -472 -860 0
-153 -469 -861 0
-154 -470 -862 0
-155 -471 -863 0
-156 -472 -864 0
-157 -469 -865 0
-158 -470 -866 0
-159 -471 -867 0
-160 -472 -868 0
-161 -469 -869 0
-162 -470 -870 0
-163 -471 -871 0
-164 -472 -872 0
-165 -469 -873 0
-166 -470 -874 0
-167 -471 -875 0
-168 -472 -876 0
-169 -469 -877 0
-170 -470 -878 0
-171 -471 -879 0
-172 -472 -880 0
-173 -469 -881 0
-174 -470 -882 0
-175 -471 -883 0
-176 -472 -884 0
-177 -469 -885 0
-178 -470 -886 0
-179 -471 -887 0
-180 -472 -888 0
-181 -469 -889 0
-182 -470 -890 0
-183 -471 -891 0
-184 -472 -892 0
-185 -469 -893 0
-186 -470 -894 0
-187 -471 -895 0
-188 -472 -896 0
-189 -469 -897 0
-190 -470 -898 0
-191 -471 -899 0
-192 -472 -900 0
-193 -469 -901 0
-194 -470 -902 0
-195 -471 -903 0
-196 -472 -904 0
-1 -477 -721 0
-2 -478 -722 0
-3 -479 -723 0
-4 -480 -724 0
-5 -477 -725 0
-6 -478 -726 0
-7 -479 -727 0
-8 -480 -728 0
-9 -477 -729 0
-10 -478 -730 0
-11 -479 -731 0
-12 -480 -732 0
-13 -477 -733 0
-14 -478 -734 0
-15 -479 -735 0
-16 -480 -736 0
-17 -477 -737 0
-18 -478 -738 0
-19 -479 -739 0
-20 -480 -740 0
-21 -477 -741 0
-22 -478 -742 0
-23 -479 -743 0
-24 -480 -744 0
-25 -477 -745 0
-26 -478 -746 0
-27 -479 -747 0
-28 -480 -748 0
-29 -477 -749 0
-30 -478 -750 0
-31 -479 -751 0
-32 -480 -752 0
-33 -477 -753 0
-34 -478 -754 0
-35 -479 -755 0
-36 -480 -756 0
-37 -477 -757 0
-38 -478 -758 0
-39 -479 -759 0
-40 -480 -760 0
-41 -477 -761 0
-42 -478 -762 0
-43 -479 -763 0
-44 -480 -764 0
-45 -477 -765 0
-46 -478 -766 0
-47 -479 -767 0
-48 -480 -768 0
-49 -477 -769 0
-50 -478 -770 0
-51 -479 -771 0
-52 -480 -772 0
-53 -477 -773 0
-54 -478 -774 0
-55 -479 -775 0
-56 -480 -776 0
-57 -477 -777 0
-58 -478 -778 0
-59 -479 -779 0
-60 -480 -780 0
-61 -477 -781 0
-62 -478 -782 0
-63 -479 -783 0
-64 -480 -784 0
-65 -477 -785 0
-66 -478 -786 0
-67 -479 -787 0
-68 -480 -788 0
-69 -477 -789 0
-70 -478 -790 0
-71 -479 -791 0
-72 -480 -792 0
-73 -477 -793 0
-74 -478 -794 0
-75 -479 -795 0
-76 -480 -796 0
-77 -477 -797 0
-78 -478 -798 0
-79 -479 -799 0
-80 -480 -800 0
-81 -477 -801 0
-82 -478 -802 0
-83 -479 -803 0
-84 -480 -804 0
-85 -477 -805 0
-86 -478 -806 0
-87 -479 -807 0
-88 -480 -808 0
-89 -477 -809 0
-90 -478 -810 0
-91 -479 -811 0
-92 -480 -812 0
-93 -477 -813 0
-94 -478 -814 0
-95 -479 -815 0
-96 -480 -816 0
-97 -477 -817 0
-98 -478 -818 0
-99 -479 -819 0
-100 -480 -820 0
-101 -477 -821 0
-102 -478 -822 0
-103 -479 -823 0
-104 -480 -824 0
-105 -477 -825 0
-106 -478 -826 0
-107 -479 -827 0
-108 -480 -828 0
-109 -477 -829 0
-110 -478 -830 0
-111 -479 -831 0
-112 -480 -832 0
-113 -477 -833 0
-114 -478 -834 0
-115 -479 -835 0
-116 -480 -836 0
-117 -477 -837 0
-118 -478 -838 0
-119 -479 -839 0
-120 -480 -840 0
-121 -477 -841 0
-122 -478 -842 0
-123 -479 -843 0
-124 -480 -844 0
-125 -477 -845 0
-126 -478 -846 0
-127 -479 -847 0
-128 -480 -848 0
-129 -477 -849 0
-130 -478 -850 0
-131 -479 -851 0
-132 -480 -852 0
-133 -477 -853 0
-134 -478 -854 0
-135 -479 -855 0
-136 -480 -856 0
-137 -477 -857 0
-138 -478 -858 0
-139 -479 -859 0
-140 -480 -860 0
-141 -477 -861 0
-142 -478 -862 0
-143 -479 -863 0
-144 -480 -864 0
-145 -477 -865 0
-146 -478 -866 0
-147 -479 -867 0
-148 -480 -868 0
-149 -477 -869 0
-150 -478 -870 0
-151 -479 -871 0
-152 -480 -872 0
-153 -477 -873 0
-154 -478 -874 0
-155 -479 -875 0
-156 -480 -876 0
-157 -477 -877 0
-158 -478 -878 0
-159 -479 -879 0
-160 -480 -880 0
-161 -477 -881 0
-162 -478 -882 0
-163 -479 -883 0
-164 -480 -884 0
-165 -477 -885 0
-166 -478 -886 0
-167 -479 -887 0
-168 -480 -888 0
-169 -477 -889 0
-170 -478 -890 0
-171 -479 -891 0
-172 -480 -892 0
-173 -477 -893 0
-174 -478 -894 0
-175 -479 -895 0
-176 -480 -896 0
-177 -477 -897 0
-178 -478 -898 0
-179 -479 -899 0
-180 -480 -900 0
-181 -477 -901 0
-182 -478 -902 0
-183 -479 -903 0
-184 -480 -904 0
-1 -485 -733 0
-2 -486 -734 0
-3 -487 -735 0
-4 -488 -736 0
-5 -485 -737 0
-6 -486 -738 0
-7 -487 -739 0
-8 -488 -740 0
-9 -485 -741 0
-10 -486 -742 0
-11 -487 -743 0
-12 -488 -744 0
-13 -485 -745 0
-14 -486 -746 0
-15 -487 -747 0
-16 -488 -748 0
-17 -485 -749 0
-18 -486 -750 0
-19 -487 -751 0
-20 -488 -752 0
-21 -485 -753 0
-22 -486 -754 0
-23 -487 -755 0
-24 -488 -756 0
-25 -485 -757 0
-26 -486 -758 0
-27 -487 -759 0
-28 -488 -760 0
-29 -485 -761 0
-30 -486 -762 0
-31 -487 -763 0
-32 -488 -764 0
-33 -485 -765 0
-34 -486 -766 0
-35 -487 -767 0
-36 -488 -768 0
-37 -485 -769 0
-38 -486 -770 0
-39 -487 -771 0
-40 -488 -772 0
-41 -485 -773 0
-42 -486 -774 0
-43 -487 -775 0
-44 -488 -776 0
-45 -485 -777 0
-46 -486 -778 0
-47 -487 -779 0
-48 -488 -780 0
-49 -485 -781 0
-50 -486 -782 0
-51 -487 -783 0
-52 -488 -784 0
-53 -485 -785 0
-54 -486 -786 0
-55 -487 -787 0
-56 -488 -788 0
-57 -485 -789 0
-58 -486 -790 0
-59 -487 -791 0
-60 -488 -792 0
-61 -485 -793 0
-62 -486 -794 0
-63 -487 -795 0
-64 -488 -796 0
-65 -485 -797 0
-66 -486 -798 0
-67 -487 -799 0
-68 -488 -800 0
-69 -485 -801 0
-70 -486 -802 0
-71 -487 -803 0
-72 -488 -804 0
-73 -485 -805 0
-74 -486 -806 0
-75 -487 -807 0
-76 -488 -808 0
-77 -485 -809 0
-78 -486 -810 0
-79 -487 -811 0
-80 -488 -812 0
-81 -485 -813 0
-82 -486 -814 0
-83 -487 -815 0
-84 -488 -816 0
-85 -485 -817 0
-86 -486 -818 0
-87 -487 -819 0
-88 -488 -820 0
-89 -485 -821 0
-90 -486 -822 0
-91 -487 -823 0
-92 -488 -824 0
-93 -485 -825 0
-94 -486 -826 0
-95 -487 -827 0
-96 -488 -828 0
-97 -485 -829 0
-98 -486 -830 0
-99 -487 -831 0
-100 -488 -832 0
-101 -485 -833 0
-102 -486 -834 0
-103 -487 -835 0
-104 -488 -836 0
-105 -485 -837 0
-106 -486 -838 0
-107 -487 -839 0
-108 -488 -840 0
-109 -485 -841 0
-110 -486 -842 0
-111 -487 -843 0
-112 -488 -844 0
-113 -485 -845 0
-114 -486 -846 0
-115 -487 -847 0
-116 -488 -848 0
-117 -485 -849 0
-118 -486 -850 0
-119 -487 -851 0
-120 -488 -852 0
-121 -485 -853 0
-122 -486 -854 0
-123 -487 -855 0
-124 -488 -856 0
-125 -485 -857 0
-126 -486 -858 0
-127 -487 -859 0
-128 -488 -860 0
-129 -485 -861 0
-130 -486 -862 0
-131 -487 -863 0
-132 -488 -864 0
-133 -485 -865 0
-134 -486 -866 0
-135 -487 -867 0
-136 -488 -868 0
-137 -485 -869 0
-138 -486 -870 0
-139 -487 -871 0
-140 -488 -872 0
-141 -485 -873 0
-142 -486 -874 0
-143 -487 -875 0
-144 -488 -876 0
-145 -485 -877 0
-146 -486 -878 0
-147 -487 -879 0
-148 -488 -880 0
-149 -485 -881 0
-150 -486 -882 0
-151 -487 -883 0
-152 -488 -884 0
-153 -485 -885 0
-154 -486 -886 0
-155 -487 -887 0
-156 -488 -888 0
-157 -485 -889 0
-158 -486 -890 0
-159 -487 -891 0
-160 -488 -892 0
-161 -485 -893 0
-162 -486 -894 0
-163 -487 -895 0
-164 -488 -896 0
-165 -485 -897 0
-166 -486 -898 0
-167 -487 -899 0
-168 -488 -900 0
-169 -485 -901 0
-170 -486 -902 0
-171 -487 -903 0
-172 -488 -904 0
-1 -493 -745 0
-2 -494 -746 0
-3 -495 -747 0
-4 -496 -748 0
-5 -493 -749 0
-6 -494 -750 0
-7 -495 -751 0
-8 -496 -752 0
-9 -493 -753 0
-10 -494 -754 0
-11 -495 -755 0
-12 -496 -756 0
-13 -493 -757 0
-14 -494 -758 0
-15 -495 -759 0
-16 -496 -760 0
-17 -493 -761 0
-18 -494 -762 0
-19 -495 -763 0
-20 -496 -764 0
-21 -493 -765 0
-22 -494 -766 0
-23 -495 -767 0
-24 -496 -768 0
-25 -493 -769 0
-26 -494 -770 0
-27 -495 -771 0
-28 -496 -772 0
-29 -493 -773 0
-30 -494 -774 0
-31 -495 -775 0
-32 -496 -776 0
-33 -493 -777 0
-34 -494 -778 0
-35 -495 -779 0
-36 -496 -780 0
-37 -493 -781 0
-38 -494 -782 0
-39 -495 -783 0
-40 -496 -784 0
-41 -493 -785 0
-42 -494 -786 0
-43 -495 -787 0
-44 -496 -788 0
-45 -493 -789 0
-46 -494 -790 0
-47 -495 -791 0
-48 -496 -792 0
-49 -493 -793 0
-50 -494 -794 0
-51 -495 -795 0
-52 -496 -796 0
-53 -493 -797 0
-54 -494 -798 0
-55 -495 -799 0
-56 -496 -800 0
-57 -493 -801 0
-58 -494 -802 0
-59 -495 -803 0
-60 -496 -804 0
-61 -493 -805 0
-62 -494 -806 0
-63 -495 -807 0
-64 -496 -808 0
-65 -493 -809 0
-66 -494 -810 0
-67 -495 -811 0
-68 -496 -812 0
-69 -493 -813 0
-70 -494 -814 0
-71 -495 -815 0
-72 -496 -816 0
-73 -493 -817 0
-74 -494 -818 0
-75 -495 -819 0
-76 -496 -820 0
-77 -493 -821 0
-78 -494 -822 0
-79 -495 -823 0
-80 -496 -824 0
-81 -493 -825 0
-82 -494 -826 0
-83 -495 -827 0
-84 -496 -828 0
-85 -493 -829 0
-86 -494 -830 0
-87 -495 -831 0
-88 -496 -832 0
-89 -493 -833 0
-90 -494 -834 0
-91 -495 -835 0
-92 -496 -836 0
-93 -493 -837 0
-94 -494 -838 0
-95 -495 -839 0
-96 -496 -840 0
-97 -493 -841 0
-98 -494 -842 0
-99 -495 -843 0
-100 -496 -844 0
-101 -493 -845 0
-102 -494 -846 0
-103 -495 -847 0
-104 -496 -848 0
-105 -493 -849 0
-106 -494 -850 0
-107 -495 -851 0
-108 -496 -852 0
-109 -493 -853 0
-110 -494 -854 0
-111 -495 -855 0
-112 -496 -856 0
-113 -493 -857 0
-114 -494 -858 0
-115 -495 -859 0
-116 -496 -860 0
-117 -493 -861 0
-118 -494 -862 0
-119 -495 -863 0
-120 -496 -864 0
-121 -493 -865 0
-122 -494 -866 0
-123 -495 -867 0
-124 -496 -868 0
-125 -493 -869 0
-126 -494 -870 0
-127 -495 -871 0
-128 -496 -872 0
-129 -493 -873 0
-130 -494 -874 0
-131 -495 -875 0
-132 -496 -876 0
-133 -493 -877 0
-134 -494 -878 0
-135 -495 -879 0
-136 -496 -880 0
-137 -493 -881 0
-138 -494 -882 0
-139 -495 -883 0
-140 -496 -884 0
-141 -493 -885 0
-142 -494 -886 0
-143 -495 -887 0
-144 -496 -888 0
-145 -493 -889 0
-146 -494 -890 0
-147 -495 -891 0
-148 -496 -892 0
-149 -493 -893 0
-150 -494 -894 0
-151 -495 -895 0
-152 -496 -896 0
-153 -493 -897 0
-154 -494 -898 0
-155 -495 -899 0
-156 -496 -900 0
-157 -493 -901 0
-158 -494 -902 0
-159 -495 -903 0
-160 -496 -904 0
-1 -501 -757 0
-2 -502 -758 0
-3 -503 -759 0
-4 -504 -760 0
-5 -501 -761 0
-6 -502 -762 0
-7 -503 -763 0
-8 -504 -764 0
-9 -501 -765 0
-10 -502 -766 0
-11 -503 -767 0
-12 -504 -768 0
-13 -501 -769 0
-14 -502 -770 0
-15 -503 -771 0
-16 -504 -772 0
-17 -501 -773 0
-18 -502 -774 0
-19 -503 -775 0
-20 -504 -776 0
-21 -501 -777 0
-22 -502 -778 0
-23 -503 -779 0
-24 -504 -780 0
-25 -501 -781 0
-26 -502 -782 0
-27 -503 -783 0
-28 -504 -784 0
-29 -501 -785 0
-30 -502 -786 0
-31 -503 -787 0
-32 -504 -788 0
-33 -501 -789 0
-34 -502 -790 0
-35 -503 -791 0
-36 -504 -792 0
-37 -501 -793 0
-38 -502 -794 0
-39 -503 -795 0
-40 -504 -796 0
-41 -501 -797 0
-42 -502 -798 0
-43 -503 -799 0
-44 -504 -800 0
-45 -501 -801 0
-46 -502 -802 0
-47 -503 -803 0
-48 -504 -804 0
-49 -501 -805 0
-50 -502 -806 0
-51 -503 -807 0
-52 -504 -808 0
-53 -501 -809 0
-54 -502 -810 0
-55 -503 -811 0
-56 -504 -812 0
-57 -501 -813 0
-58 -502 -814 0
-59 -503 -815 0
-60 -504 -816 0
-61 -501 -817 0
-62 -502 -818 0
-63 -503 -819 0
-64 -504 -820 0
-65 -501 -821 0
-66 -502 -822 0
-67 -503 -823 0
-68 -504 -824 0
-69 -501 -825 0
-70 -502 -826 0
-71 -503 -827 0
-72 -504 -828 0
-73 -501 -829 0
-74 -502 -830 0
-75 -503 -831 0
-76 -504 -832 0
-77 -501 -833 0
-78 -502 -834 0
-79 -503 -835 0
-80 -504 -836 0
-81 -501 -837 0
-82 -502 -838 0
-83 -503 -839 0
-84 -504 -840 0
-85 -501 -841 0
-86 -502 -842 0
-87 -503 -843 0
-88 -504 -844 0
-89 -501 -845 0
-90 -502 -846 0
-91 -503 -847 0
-92 -504 -848 0
-93 -501 -849 0
-94 -502 -850 0
-95 -503 -851 0
-96 -504 -852 0
-97 -501 -853 0
-98 -502 -854 0
-99 -503 -855 0
-100 -504 -856 0
-101 -501 -857 0
-102 -502 -858 0
-103 -503 -859 0
-104 -504 -860 0
-105 -501 -861 0
-106 -502 -862 0
-107 -503 -863 0
-108 -504 -864 0
-109 -501 -865 0
-110 -502 -866 0
-111 -503 -867 0
-112 -504 -868 0
-113 -501 -869 0
-114 -502 -870 0
-115 -503 -871 0
-116 -504 -872 0
-117 -501 -873 0
-118 -502 -874 0
-119 -503 -875 0
-120 -504 -876 0
-121 -501 -877 0
-122 -502 -878 0
-123 -503 -879 0
-124 -504 -880 0
-125 -501 -881 0
-126 -502 -882 0
-127 -503 -883 0
-128 -504 -884 0
-129 -501 -885 0
-130 -502 -886 0
-131 -503 -887 0
-132 -504 -888 0
-133 -501 -889 0
-134 -502 -890 0
-135 -503 -891 0
-136 -504 -892 0
-137 -501 -893 0
-138 -502 -894 0
-139 -503 -895 0
-140 -504 -896 0
-141 -501 -897 0
-142 -502 -898 0
-143 -503 -899 0
-144 -504 -900 0
-145 -501 -901 0
-146 -502 -902 0
-147 -503 -903 0
-148 -504 -904 0
-1 -509 -769 0
-2 -510 -770 0
-3 -511 -771 0
-4 -512 -772 0
-5 -509 -773 0
-6 -510 -774 0
-7 -511 -775 0
-8 -512 -776 0
-9 -509 -777 0
-10 -510 -778 0
-11 -511 -779 0
-12 -512 -780 0
-13 -509 -781 0
-14 -510 -782 0
-15 -511 -783 0
-16 -512 -784 0
-17 -509 -785 0
-18 -510 -786 0
-19 -511 -787 0
-20 -512 -788 0
-21 -509 -789 0
-22 -510 -790 0
-23 -511 -791 0
-24 -512 -792 0
-25 -509 -793 0
-26 -510 -794 0
-27 -511 -795 0
-28 -512 -796 0
-29 -509 -797 0
-30 -510 -798 0
-31 -511 -799 0
-32 -512 -800 0
-33 -509 -801 0
-34 -510 -802 0
-35 -511 -803 0
-36 -512 -804 0
-37 -509 -805 0
-38 -510 -806 0
-39 -511 -807 0
-40 -512 -808 0
-41 -509 -809 0
-42 -510 -810 0
-43 -511 -811 0
-44 -512 -812 0
-45 -509 -813 0
-46 -510 -814 0
-47 -511 -815 0
-48 -512 -816 0
-49 -509 -817 0
-50 -510 -818 0
-51 -511 -819 0
-52 -512 -820 0
-53 -509 -821 0
-54 -510 -822 0
-55 -511 -823 0
-56 -512 -824 0
-57 -509 -825 0
-58 -510 -826 0
-59 -511 -827 0
-60 -512 -828 0
-61 -509 -829 0
-62 -510 -830 0
-63 -511 -831 0
-64 -512 -832 0
-65 -509 -833 0
-66 -510 -834 0
-67 -511 -835 0
-68 -512 -836 0
-69 -509 -837 0
-70 -510 -838 0
-71 -511 -839 0
-72 -512 -840 0
-73 -509 -841 0
-74 -510 -842 0
-75 -511 -843 0
-76 -512 -844 0
-77 -509 -845 0
-78 -510 -846 0
-79 -511 -847 0
-80 -512 -848 0
-81 -509 -849 0
-82 -510 -850 0
-83 -511 -851 0
-84 -512 -852 0
-85 -509 -853 0
-86 -510 -854 0
-87 -511 -855 0
-88 -512 -856 0
-89 -509 -857 0
-90 -510 -858 0
-91 -511 -859 0
-92 -512 -860 0
-93 -509 -861 0
-94 -510 -862 0
-95 -511 -863 0
-96 -512 -864 0
-97 -509 -865 0
-98 -510 -866 0
-99 -511 -867 0
-100 -512 -868 0
-101 -509 -869 0
-102 -510 -870 0
-103 -511 -871 0
-104 -512 -872 0
-105 -509 -873 0
-106 -510 -874 0
-107 -511 -875 0
-108 -512 -876 0
-109 -509 -877 0
-110 -510 -878 0
-111 -511 -879 0
-112 -512 -880 0
-113 -509 -881 0
-114 -510 -882 0
-115 -511 -883 0
-116 -512 -884 0
-117 -509 -885 0
-118 -510 -886 0
-119 -511 -887 0
-120 -512 -888 0
-121 -509 -889 0
-122 -510 -890 0
-123 -511 -891 0
-124 -512 -892 0
-125 -509 -893 0
-126 -510 -894 0
-127 -511 -895 0
-128 -512 -896 0
-129 -509 -897 0
-130 -510 -898 0
-131 -511 -899 0
-132 -512 -900 0
-133 -509 -901 0
-134 -510 -902 0
-135 -511 -903 0
-136 -512 -904 0
-1 -517 -781 0
-2 -518 -782 0
-3 -519 -783 0
-4 -520 -784 0
-5 -517 -785 0
-6 -518 -786 0
-7 -519 -787 0
-8 -520 -788 0
-9 -517 -789 0
-10 -518 -790 0
-11 -519 -791 0
-12 -520 -792 0
-13 -517 -793 0
-14 -518 -794 0
-15 -519 -795 0
-16 -520 -796 0
-17 -517 -797 0
-18 -518 -798 0
-19 -519 -799 0
-20 -520 -800 0
-21 -517 -801 0
-22 -518 -802 0
-23 -519 -803 0
-24 -520 -804 0
-25 -517 -805 0
-26 -518 -806 0
-27 -519 -807 0
-28 -520 -808 0
-29 -517 -809 0
-30 -518 -810 0
-31 -519 -811 0
-32 -520 -812 0
-33 -517 -813 0
-34 -518 -814 0
-35 -519 -815 0
-36 -520 -816 0
-37 -517 -817 0
-38 -518 -818 0
-39 -519 -819 0
-40 -520 -820 0
-41 -517 -821 0
-42 -518 -822 0
-43 -519 -823 0
-44 -520 -824 0
-45 -517 -825 0
-46 -518 -826 0
-47 -519 -827 0
-48 -520 -828 0
-49 -517 -829 0
-50 -518 -830 0
-51 -519 -831 0
-52 -520 -832 0
-53 -517 -833 0
-54 -518 -834 0
-55 -519 -835 0
-56 -520 -836 0
-57 -517 -837 0
-58 -518 -838 0
-59 -519 -839 0
-60 -520 -840 0
-61 -517 -841 0
-62 -518 -842 0
-63 -519 -843 0
-64 -520 -844 0
-65 -517 -845 0
-66 -518 -846 0
-67 -519 -847 0
-68 -520 -848 0
-69 -517 -849 0
-70 -518 -850 0
-71 -519 -851 0
-72 -520 -852 0
-73 -517 -853 0
-74 -518 -854 0
-75 -519 -855 0
-76 -520 -856 0
-77 -517 -857 0
-78 -518 -858 0
-79 -519 -859 0
-80 -520 -860 0
-81 -517 -861 0
-82 -518 -862 0
-83 -519 -863 0
-84 -520 -864 0
-85 -517 -865 0
-86 -518 -866 0
-87 -519 -867 0
-88 -520 -868 0
-89 -517 -869 0
-90 -518 -870 0
-91 -519 -871 0
-92 -520 -872 0
-93 -517 -873 0
-94 -518 -874 0
-95 -519 -875 0
-96 -520 -876 0
-97 -517 -877 0
-98 -518 -878 0
-99 -519 -879 0
-100 -520 -880 0
-101 -517 -881 0
-102 -518 -882 0
-103 -519 -883 0
-104 -520 -884 0
-105 -517 -885 0
-106 -518 -886 0
-107 -519 -887 0
-108 -520 -888 0
-109 -517 -889 0
-110 -518 -890 0
-111 -519 -891 0
-112 -520 -892 0
-113 -517 -893 0
-114 -518 -894 0
-115 -519 -895 0
-116 -520 -896 0
-117 -517 -897 0
-118 -518 -898 0
-119 -519 -899 0
-120 -520 -900 0
-121 -517 -901 0
-122 -518 -902 0
-123 -519 -903 0
-124 -520 -904 0
-1 -525 -793 0
-2 -526 -794 0
-3 -527 -795 0
-4 -528 -796 0
-5 -525 -797 0
-6 -526 -798 0
-7 -527 -799 0
-8 -528 -800 0
-9 -525 -801 0
-10 -526 -802 0
-11 -527 -803 0
-12 -528 -804 0
-13 -525 -805 0
-14 -526 -806 0
-15 -527 -807 0
-16 -528 -808 0
-17 -525 -809 0
-18 -526 -810 0
-19 -527 -811 0
-20 -528 -812 0
-21 -525 -813 0
-22 -526 -814 0
-23 -527 -815 0
-24 -528 -816 0
-25 -525 -817 0
-26 -526 -818 0
-27 -527 -819 0
-28 -528 -820 0
-29 -525 -821 0
-30 -526 -822 0
-31 -527 -823 0
-32 -528 -824 0
-33 -525 -825 0
-34 -526 -826 0
-35 -527 -827 0
-36 -528 -828 0
-37 -525 -829 0
-38 -526 -830 0
-39 -527 -831 0
-40 -528 -832 0
-41 -525 -833 0
-42 -526 -834 0
-43 -527 -835 0
-44 -528 -836 0
-45 -525 -837 0
-46 -526 -838 0
-47 -527 -839 0
-48 -528 -840 0
-49 -525 -841 0
-50 -526 -842 0
-51 -527 -843 0
-52 -528 -844 0
-53 -525 -845 0
-54 -526 -846 0
-55 -527 -847 0
-56 -528 -848 0
-57 -525 -849 0
-58 -526 -850 0
-59 -527 -851 0
-60 -528 -852 0
-61 -525 -853 0
-62 -526 -854 0
-63 -527 -855 0
-64 -528 -856 0
-65 -525 -857 0
-66 -526 -858 0
-67 -527 -859 0
-68 -528 -860 0
-69 -525 -861 0
-70 -526 -862 0
-71 -527 -863 0
-72 -528 -864 0
-73 -525 -865 0
-74 -526 -866 0
-75 -527 -867 0
-76 -528 -868 0
-77 -525 -869 0
-78 -526 -870 0
-79 -527 -871 0
-80 -528 -872 0
-81 -525 -873 0
-82 -526 -874 0
-83 -527 -875 0
-84 -528 -876 0
-85 -525 -877 0
-86 -526 -878 0
-87 -527 -879 0
-88 -528 -880 0
-89 -525 -881 0
-90 -526 -882 0
-91 -527 -883 0
-92 -528 -884 0
-93 -525 -885 0
-94 -526 -886 0
-95 -527 -887 0
-96 -528 -888 0
-97 -525 -889 0
-98 -526 -890 0
-99 -527 -891 0
-100 -528 -892 0
-101 -525 -893 0
-102 -526 -894 0
-103 -527 -895 0
-104 -528 -896 0
-105 -525 -897 0
-106 -526 -898 0
-107 -527 -899 0
-108 -528 -900 0
-109 -525 -901 0
-110 -526 -902 0
-111 -527 -903 0
-112 -528 -904 0
-1 -533 -805 0
-2 -534 -806 0
-3 -535 -807 0
-4 -536 -808 0
-5 -533 -809 0
-6 -534 -810 0
-7 -535 -811 0
-8 -536 -812 0
-9 -533 -813 0
-10 -534 -814 0
-11 -535 -815 0
-12 -536 -816 0
-13 -533 -817 0
-14 -534 -818 0
-15 -535 -819 0
-16 -536 -820 0
-17 -533 -821 0
-18 -534 -822 0
-19 -535 -823 0
-20 -536 -824 0
-21 -533 -825 0
-22 -534 -826 0
-23 -535 -827 0
-24 -536 -828 0
-25 -533 -829 0
-26 -534 -830 0
-27 -535 -831 0
-28 -536 -832 0
-29 -533 -833 0
-30 -534 -834 0
-31 -535 -835 0
-32 -536 -836 0
-33 -533 -837 0
-34 -534 -838 0
-35 -535 -839 0
-36 -536 -840 0
-37 -533 -841 0
-38 -534 -842 0
-39 -535 -843 0
-40 -536 -844 0
-41 -533 -845 0
-42 -534 -846 0
-43 -535 -847 0
-44 -536 -848 0
-45 -533 -849 0
-46 -534 -850 0
-47 -535 -851 0
-48 -536 -852 0
-49 -533 -853 0
-50 -534 -854 0
-51 -535 -855 0
-52 -536 -856 0
-53 -533 -857 0
-54 -534 -858 0
-55 -535 -859 0
-56 -536 -860 0
-57 -533 -861 0
-58 -534 -862 0
-59 -535 -863 0
-60 -536 -864 0
-61 -533 -865 0
-62 -534 -866 0
-63 -535 -867 0
-64 -536 -868 0
-65 -533 -869 0
-66 -534 -870 0
-67 -535 -871 0
-68 -536 -872 0
-69 -533 -873 0
-70 -534 -874 0
-71 -535 -875 0
-72 -536 -876 0
-73 -533 -877 0
-74 -534 -878 0
-75 -535 -879 0
-76 -536 -880 0
-77 -533 -881 0
-78 -534 -882 0
-79 -535 -883 0
-80 -536 -884 0
-81 -533 -885 0
-82 -534 -886 0
-83 -535 -887 0
-84 -536 -888 0
-85 -533 -889 0
-86 -534 -890 0
-87 -535 -891 0
-88 -536 -892 0
-89 -533 -893 0
-90 -534 -894 0
-91 -535 -895 0
-92 -536 -896 0
-93 -533 -897 0
-94 -534 -898 0
-95 -535 -899 0
-96 -536 -900 0
-97 -533 -901 0
-98 -534 -902 0
-99 -535 -903 0
-100 -536 -904 0
-1 -541 -817 0
-2 -542 -818 0
-3 -543 -819 0
-4 -544 -820 0
-5 -541 -821 0
-6 -542 -822 0
-7 -543 -823 0
-8 -544 -824 0
-9 -541 -825 0
-10 -542 -826 0
-11 -543 -827 0
-12 -544 -828 0
-13 -541 -829 0
-14 -542 -830 0
-15 -543 -831 0
-16 -544 -832 0
-17 -541 -833 0
-18 -542 -834 0
-19 -543 -835 0
-20 -544 -836 0
-21 -541 -837 0
-22 -542 -838 0
-23 -543 -839 0
-24 -544 -840 0
-25 -541 -841 0
-26 -542 -842 0
-27 -543 -843 0
-28 -544 -844 0
-29 -541 -845 0
-30 -542 -846 0
-31 -543 -847 0
-32 -544 -848 0
-33 -541 -849 0
-34 -542 -850 0
-35 -543 -851 0
-36 -544 -852 0
-37 -541 -853 0
-38 -542 -854 0
-39 -543 -855 0
-40 -544 -856 0
-41 -541 -857 0
-42 -542 -858 0
-43 -543 -859 0
-44 -544 -860 0
-45 -541 -861 0
-46 -542 -862 0
-47 -543 -863 0
-48 -544 -864 0
-49 -541 -865 0
-50 -542 -866 0
-51 -543 -867 0
-52 -544 -868 0
-53 -541 -869 0
-54 -542 -870 0
-55 -543 -871 0
-56 -544 -872 0
-57 -541 -873 0
-58 -542 -874 0
-59 -543 -875 0
-60 -544 -876 0
-61 -541 -877 0
-62 -542 -878 0
-63 -543 -879 0
-64 -544 -880 0
-65 -541 -881 0
-66 -542 -882 0
-67 -543 -883 0
-68 -544 -884 0
-69 -541 -885 0
-70 -542 -886 0
-71 -543 -887 0
-72 -544 -888 0
-73 -541 -889 0
-74 -542 -890 0
-75 -543 -891 0
-76 -544 -892 0
-77 -541 -893 0
-78 -542 -894 0
-79 -543 -895 0
-80 -544 -896 0
-81 -541 -897 0
-82 -542 -898 0
-83 -543 -899 0
-84 -544 -900 0
-85 -541 -901 0
-86 -542 -902 0
-87 -543 -903 0
-88 -544 -904 0
-1 -549 -829 0
-2 -550 -830 0
-3 -551 -831 0
-4 -552 -832 0
-5 -549 -833 0
-6 -550 -834 0
-7 -551 -835 0
-8 -552 -836 0
-9 -549 -837 0
-10 -550 -838 0
-11 -551 -839 0
-12 -552 -840 0
-13 -549 -841 0
-14 -550 -842 0
-15 -551 -843 0
-16 -552 -844 0
-17 -549 -845 0
-18 -550 -846 0
-19 -551 -847 0
-20 -552 -848 0
-21 -549 -849 0
-22 -550 -850 0
-23 -551 -851 0
-24 -552 -852 0
-25 -549 -853 0
-26 -550 -854 0
-27 -551 -855 0
-28 -552 -856 0
-29 -549 -857 0
-30 -550 -858 0
-31 -551 -859 0
-32 -552 -860 0
-33 -549 -861 0
-34 -550 -862 0
-35 -551 -863 0
-36 -552 -864 0
-37 -549 -865 0
-38 -550 -866 0
-39 -551 -867 0
-40 -552 -868 0
-41 -549 -869 0
-42 -550 -870 0
-43 -551 -871 0
-44 -552 -872 0
-45 -549 -873 0
-46 -550 -874 0
-47 -551 -875 0
-48 -552 -876 0
-49 -549 -877 0
-50 -550 -878 0
-51 -551 -879 0
-52 -552 -880 0
-53 -549 -881 0
-54 -550 -882 0
-55 -551 -883 0
-56 -552 -884 0
-57 -549 -885 0
-58 -550 -886 0
-59 -551 -887 0
-60 -552 -888 0
-61 -549 -889 0
-62 -550 -890 0
-63 -551 -891 0
-64 -552 -892 0
-65 -549 -893 0
-66 -550 -894 0
-67 -551 -895 0
-68 -552 -896 0
-69 -549 -897 0
-70 -550 -898 0
-71 -551 -899 0
-72 -552 -900 0
-73 -549 -901 0
-74 -550 -902 0
-75 -551 -903 0
-76 -552 -904 0
-1 -557 -841 0
-2 -558 -842 0
-3 -559 -843 0
-4 -560 -844 0
-5 -557 -845 0
-6 -558 -846 0
-7 -559 -847 0
-8 -560 -848 0
-9 -557 -849 0
-10 -558 -850 0
-11 -559 -851 0
-12 -560 -852 0
-13 -557 -853 0
-14 -558 -854 0
-15 -559 -855 0
-16 -560 -856 0
-17 -557 -857 0
-18 -558 -858 0
-19 -559 -859 0
-20 -560 -860 0
-21 -557 -861 0
-22 -558 -862 0
-23 -559 -863 0
-24 -560 -864 0
-25 -557 -865 0
-26 -558 -866 0
-27 -559 -867 0
-28 -560 -868 0
-29 -557 -869 0
-30 -558 -870 0
-31 -559 -871 0
-32 -560 -872 0
-33 -557 -873 0
-34 -558 -874 0
-35 -559 -875 0
-36 -560 -876 0
-37 -557 -877 0
-38 -558 -878 0
-39 -559 -879 0
-40 -560 -880 0
-41 -557 -881 0
-42 -558 -882 0
-43 -559 -883 0
-44 -560 -884 0
-45 -557 -885 0
-46 -558 -886 0
-47 -559 -887 0
-48 -560 -888 0
-49 -557 -889 0
-50 -558 -890 0
-51 -559 -891 0
-52 -560 -892 0
-53 -557 -893 0
-54 -558 -894 0
-55 -559 -895 0
-56 -560 -896 0
-57 -557 -897 0
-58 -558 -898 0
-59 -559 -899 0
-60 -560 -900 0
-61 -557 -901 0
-62 -558 -902 0
-63 -559 -903 0
-64 -560 -904 0
-1 -565 -853 0
-2 -566 -854 0
-3 -567 -855 0
-4 -568 -856 0
-5 -565 -857 0
-6 -566 -858 0
-7 -567 -859 0
-8 -568 -860 0
-9 -565 -861 0
-10 -566 -862 0
-11 -567 -863 0
-12 -568 -864 0
-13 -565 -865 0
-14 -566 -866 0
-15 -567 -867 0
-16 -568 -868 0
-17 -565 -869 0
-18 -566 -870 0
-19 -567 -871 0
-20 -568 -872 0
-21 -565 -873 0
-22 -566 -874 0
-23 -567 -875 0
-24 -568 -876 0
-25 -565 -877 0
-26 -566 -878 0
-27 -567 -879 0
-28 -568 -880 0
-29 -565 -881 0
-30 -566 -882 0
-31 -567 -883 0
-32 -568 -884 0
-33 -565 -885 0
-34 -566 -886 0
-35 -567 -887 0
-36 -568 -888 0
-37 -565 -889 0
-38 -566 -890 0
-39 -567 -891 0
-40 -568 -892 0
-41 -565 -893 0
-42 -566 -894 0
-43 -567 -895 0
-44 -568 -896 0
-45 -565 -897 0
-46 -566 -898 0
-47 -567 -899 0
-48 -568 -900 0
-49 -565 -901 0
-50 -566 -902 0
-51 -567 -903 0
-52 -568 -904 0
-1 -573 -865 0
-2 -574 -866 0
-3 -575 -867 0
-4 -576 -868 0
-5 -573 -869 0
-6 -574 -870 0
-7 -575 -871 0
-8 -576 -872 0
-9 -573 -873 0
-10 -574 -874 0
-11 -575 -875 0
-12 -576 -876 0
-13 -573 -877 0
-14 -574 -878 0
-15 -575 -879 0
-16 -576 -880 0
-17 -573 -881 0
-18 -574 -882 0
-19 -575 -883 0
-20 -576 -884 0
-21 -573 -885 0
-22 -574 -886 0
-23 -575 -887 0
-24 -576 -888 0
-25 -573 -889 0
-26 -574 -890 0
-27 -575 -891 0
-28 -576 -892 0
-29 -573 -893 0
-30 -574 -894 0
-31 -575 -895 0
-32 -576 -896 0
-33 -573 -897 0
-34 -574 -898 0
-35 -575 -899 0
-36 -576 -900 0
-37 -573 -901 0
-38 -574 -902 0
-39 -575 -903 0
-40 -576 -904 0
-1 -581 -877 0
-2 -582 -878 0
-3 -583 -879 0
-4 -584 -880 0
-5 -581 -881 0
-6 -582 -882 0
-7 -583 -883 0
-8 -584 -884 0
-9 -581 -885 0
-10 -582 -886 0
-11 -583 -887 0
-12 -584 -888 0
-13 -581 -889 0
-14 -582 -890 0
-15 -583 -891 0
-16 -584 -892 0
-17 -581 -893 0
-18 -582 -894 0
-19 -583 -895 0
-20 -584 -896 0
-21 -581 -897 0
-22 -582 -898 0
-23 -583 -899 0
-24 -584 -900 0
-25 -581 -901 0
-26 -582 -902 0
-27 -583 -903 0
-28 -584 -904 0
-1 -589 -889 0
-2 -590 -890 0
-3 -591 -891 0
-4 -592 -892 0
-5 -589 -893 0
-6 -590 -894 0
-7 -591 -895 0
-8 -592 -896 0
-9 -589 -897 0
-10 -590 -898 0
-11 -591 -899 0
-12 -592 -900 0
-13 -589 -901 0
-14 -590 -902 0
-15 -591 -903 0
-16 -592 -904 0
-1 -597 -901 0
-2 -598 -902 0
-3 -599 -903 0
-4 -600 -904 0
-1 -2 0
-1 -3 0
-1 -4 0
-2 -3 0
-2 -4 0
-3 -4 0
-5 -6 0
-5 -7 0
-5 -8 0
-6 -7 0
-6 -8 0
-7 -8 0
-9 -10 0
-9 -11 0
-9 -12 0
-10 -11 0
-10 -12 0
-11 -12 0
-13 -14 0
-13 -15 0
-13 -16 0
-14 -15 0
-14 -16 0
-15 -16 0
-17 -18 0
-17 -19 0
-17 -20 0
-18 -19 0
-18 -20 0
-19 -20 0
-21 -22 0
-21 -23 0
-21 -24 0
-22 -23 0
-22 -24 0
-23 -24 0
-25 -26 0
-25 -27 0
-25 -28 0
-26 -27 0
-26 -28 0
-27 -28 0
-29 -30 0
-29 -31 0
-29 -32 0
-30 -31 0
-30 -32 0
-31 -32 0
-33 -34 0
-33 -35 0
-33 -36 0
-34 -35 0
-34 -36 0
-35 -36 0
-37 -38 0
-37 -39 0
-37 -40 0
-38 -39 0
-38 -40 0
-39 -40 0
-41 -42 0
-41 -43 0
-41 -44 0
-42 -43 0
-42 -44 0
-43 -44 0
-45 -46 0
-45 -47 0
-45 -48 0
-46 -47 0
-46 -48 0
-47 -48 0
-49 -50 0
-49 -51 0
-49 -52 0
-50 -51 0
-50 -52 0
-51 -52 0
-53 -54 0
-53 -55 0
-53 -56 0
-54 -55 0
-54 -56 0
-55 -56 0
-57 -58 0
-57 -59 0
-57 -60 0
-58 -59 0
-58 -60 0
-59 -60 0
-61 -62 0
-61 -63 0
-61 -64 0
-62 -63 0
-62 -64 0
-63 -64 0
-65 -66 0
-65 -67 0
-65 -68 0
-66 -67 0
-66 -68 0
-67 -68 0
-69 -70 0
-69 -71 0
-69 -72 0
-70 -71 0
-70 -72 0
-71 -72 0
-73 -74 0
-73 -75 0
-73 -76 0
-74 -75 0
-74 -76 0
-75 -76 0
-77 -78 0
-77 -79 0
-77 -80 0
-78 -79 0
-78 -80 0
-79 -80 0
-81 -82 0
-81 -83 0
-81 -84 0
-82 -83 0
-82 -84 0
-83 -84 0
-85 -86 0
-85 -87 0
-85 -88 0
-86 -87 0
-86 -88 0
-87 -88 0
-89 -90 0
-89 -91 0
-89 -92 0
-90 -91 0
-90 -92 0
-91 -92 0
-93 -94 0
-93 -95 0
-93 -96 0
-94 -95 0
-94 -96 0
-95 -96 0
-97 -98 0
-97 -99 0
-97 -100 0
-98 -99 0
-98 -100 0
-99 -100 0
-101 -102 0
-101 -103 0
-101 -104 0
-102 -103 0
-102 -104 0
-103 -104 0
-105 -106 0
-105 -107 0
-105 -108 0
-106 -107 0
-106 -108 0
-107 -108 0
-109 -110 0
-109 -111 0
-109 -112 0
-110 -111 0
-110 -112 0
-111 -112 0
-113 -114 0
-113 -115 0
-113 -116 0
-114 -115 0
-114 -116 0
-115 -116 0
-117 -118 0
-117 -119 0
-117 -120 0
-118 -119 0
-118 -120 0
-119 -120 0
-121 -122 0
-121 -123 0
-121 -124 0
-122 -123 0
-122 -124 0
-123 -124 0
-125 -126 0
-125 -127 0
-125 -128 0
-126 -127 0
-126 -128 0
-127 -128 0
-129 -130 0
-129 -131 0
-129 -132 0
-130 -131 0
-130 -132 0
-131 -132 0
-133 -134 0
-133 -135 0
-133 -136 0
-134 -135 0
-134 -136 0
-135 -136 0
-137 -138 0
-137 -139 0
-137 -140 0
-138 -139 0
-138 -140 0
-139 -140 0
-141 -142 0
-141 -143 0
-141 -144 0
-142 -143 0
-142 -144 0
-143 -144 0
-145 -146 0
-145 -147 0
-145 -148 0
-146 -147 0
-146 -148 0
-147 -148 0
-149 -150 0
-149 -151 0
-149 -152 0
-150 -151 0
-150 -152 0
-151 -152 0
-153 -154 0
-153 -155 0
-153 -156 0
-154 -155 0
-154 -156 0
-155 -156 0
-157 -158 0
-157 -159 0
-157 -160 0
-158 -159 0
-158 -160 0
-159 -160 0
-161 -162 0
-161 -163 0
-161 -164 0
-162 -163 0
-162 -164 0
-163 -164 0
-165 -166 0
-165 -167 0
-165 -168 0
-166 -167 0
-166 -168 0
-167 -168 0
-169 -170 0
-169 -171 0
-169 -172 0
-170 -171 0
-170 -172 0
-171 -172 0
-173 -174 0
-173 -175 0
-173 -176 0
-174 -175 0
-174 -176 0
-175 -176 0
-177 -178 0
-177 -179 0
-177 -180 0
-178 -179 0
-178 -180 0
-179 -180 0
-181 -182 0
-181 -183 0
-181 -184 0
-182 -183 0
-182 -184 0
-183 -184 0
-185 -186 0
-185 -187 0
-185 -188 0
-186 -187 0
-186 -188 0
-187 -188 0
-189 -190 0
-189 -191 0
-189 -192 0
-190 -191 0
-190 -192 0
-191 -192 0
-193 -194 0
-193 -195 0
-193 -196 0
-194 -195 0
-194 -196 0
-195 -196 0
-197 -198 0
-197 -199 0
-197 -200 0
-198 -199 0
-198 -200 0
-199 -200 0
-201 -202 0
-201 -203 0
-201 -204 0
-202 -203 0
-202 -204 0
-203 -204 0
-205 -206 0
-205 -207 0
-205 -208 0
-206 -207 0
-206 -208 0
-207 -208 0
-209 -210 0
-209 -211 0
-209 -212 0
-210 -211 0
-210 -212 0
-211 -212 0
-213 -214 0
-213 -215 0
-213 -216 0
-214 -215 0
-214 -216 0
-215 -216 0
-217 -218 0
-217 -219 0
-217 -220 0
-218 -219 0
-218 -220 0
-219 -220 0
-221 -222 0
-221 -223 0
-221 -224 0
-222 -223 0
-222 -224 0
-223 -224 0
-225 -226 0
-225 -227 0
-225 -228 0
-226 -227 0
-226 -228 0
-227 -228 0
-229 -230 0
-229 -231 0
-229 -232 0
-230 -231 0
-230 -232 0
-231 -232 0
-233 -234 0
-233 -235 0
-233 -236 0
-234 -235 0
-234 -236 0
-235 -236 0
-237 -238 0
-237 -239 0
-237 -240 0
-238 -239 0
-238 -240 0
-239 -240 0
-241 -242 0
-241 -243 0
-241 -244 0
-242 -243 0
-242 -244 0
-243 -244 0
-245 -246 0
-245 -247 0
-245 -248 0
-246 -247 0
-246 -248 0
-247 -248 0
-249 -250 0
-249 -251 0
-249 -252 0
-250 -251 0
-250 -252 0
-251 -252 0
-253 -254 0
-253 -255 0
-253 -256 0
-254 -255 0
-254 -256 0
-255 -256 0
-257 -258 0
-257 -259 0
-257 -260 0
-258 -259 0
-258 -260 0
-259 -260 0
-261 -262 0
-261 -263 0
-261 -264 0
-262 -263 0
-262 -264 0
-263 -264 0
-265 -266 0
-265 -267 0
-265 -268 0
-266 -267 0
-266 -268 0
-267 -268 0
-269 -270 0
-269 -271 0
-269 -272 0
-270 -271 0
-270 -272 0
-271 -272 0
-273 -274 0
-273 -275 0
-273 -276 0
-274 -275 0
-274 -276 0
-275 -276 0
-277 -278 0
-277 -279 0
-277 -280 0
-278 -279 0
-278 -280 0
-279 -280 0
-281 -282 0
-281 -283 0
-281 -284 0
-282 -283 0
-282 -284 0
-283 -284 0
-285 -286 0
-285 -287 0
-285 -288 0
-286 -287 0
-286 -288 0
-287 -288 0
-289 -290 0
-289 -291 0
-289 -292 0
-290 -291 0
-290 -292 0
-291 -292 0
-293 -294 0
-293 -295 0
-293 -296 0
-294 -295 0
-294 -296 0
-295 -296 0
-297 -298 0
-297 -299 0
-297 -300 0
-298 -299 0
-298 -300 0
-299 -300 0
-301 -302 0
-301 -303 0
-301 -304 0
-302 -303 0
-302 -304 0
-303 -304 0
-305 -306 0
-305 -307 0
-305 -308 0
-306 -307 0
-306 -308 0
-307 -308 0
-309 -310 0
-309 -311 0
-309 -312 0
-310 -311 0
-310 -312 0
-311 -312 0
-313 -314 0
-313 -315 0
-313 -316 0
-314 -315 0
-314 -316 0
-315 -316 0
-317 -318 0
-317 -319 0
-317 -320 0
-318 -319 0
-318 -320 0
-319 -320 0
-321 -322 0
-321 -323 0
-321 -324 0
-322 -323 0
-322 -324 0
-323 -324 0
-325 -326 0
-325 -327 0
-325 -328 0
-326 -327 0
-326 -328 0
-327 -328 0
-329 -330 0
-329 -331 0
-329 -332 0
-330 -331 0
-330 -332 0
-331 -332 0
-333 -334 0
-333 -335 0
-333 -336 0
-334 -335 0
-334 -336 0
-335 -336 0
-337 -338 0
-337 -339 0
-337 -340 0
-338 -339 0
-338 -340 0
-339 -340 0
-341 -342 0
-341 -343 0
-341 -344 0
-342 -343 0
-342 -344 0
-343 -344 0
-345 -346 0
-345 -347 0
-345 -348 0
-346 -347 0
-346 -348 0
-347 -348 0
-349 -350 0
-349 -351 0
-349 -352 0
-350 -351 0
-350 -352 0
-351 -352 0
-353 -354 0
-353 -355 0
-353 -356 0
-354 -355 0
-354 -356 0
-355 -356 0
-357 -358 0
-357 -359 0
-357 -360 0
-358 -359 0
-358 -360 0
-359 -360 0
-361 -362 0
-361 -363 0
-361 -364 0
-362 -363 0
-362 -364 0
-363 -364 0
-365 -366 0
-365 -367 0
-365 -368 0
-366 -367 0
-366 -368 0
-367 -368 0
-369 -370 0
-369 -371 0
-369 -372 0
-370 -371 0
-370 -372 0
-371 -372 0
-373 -374 0
-373 -375 0
-373 -376 0
-374 -375 0
-374 -376 0
-375 -376 0
-377 -378 0
-377 -379 0
-377 -380 0
-378 -379 0
-378 -380 0
-379 -380 0
-381 -382 0
-381 -383 0
-381 -384 0
-382 -383 0
-382 -384 0
-383 -384 0
-385 -386 0
-385 -387 0
-385 -388 0
-386 -387 0
-386 -388 0
-387 -388 0
-389 -390 0
-389 -391 0
-389 -392 0
-390 -391 0
-390 -392 0
-391 -392 0
-393 -394 0
-393 -395 0
-393 -396 0
-394 -395 0
-394 -396 0
-395 -396 0
-397 -398 0
-397 -399 0
-397 -400 0
-398 -399 0
-398 -400 0
-399 -400 0
-401 -402 0
-401 -403 0
-401 -404 0
-402 -403 0
-402 -404 0
-403 -404 0
-405 -406 0
-405 -407 0
-405 -408 0
-406 -407 0
-406 -408 0
-407 -408 0
-409 -410 0
-409 -411 0
-409 -412 0
-410 -411 0
-410 -412 0
-411 -412 0
-413 -414 0
-413 -415 0
-413 -416 0
-414 -415 0
-414 -416 0
-415 -416 0
-417 -418 0
-417 -419 0
-417 -420 0
-418 -419 0
-418 -420 0
-419 -420 0
-421 -422 0
-421 -423 0
-421 -424 0
-422 -423 0
-422 -424 0
-423 -424 0
-425 -426 0
-425 -427 0
-425 -428 0
-426 -427 0
-426 -428 0
-427 -428 0
-429 -430 0
-429 -431 0
-429 -432 0
-430 -431 0
-430 -432 0
-431 -432 0
-433 -434 0
-433 -435 0
-433 -436 0
-434 -435 0
-434 -436 0
-435 -436 0
-437 -438 0
-437 -439 0
-437 -440 0
-438 -439 0
-438 -440 0
-439 -440 0
-441 -442 0
-441 -443 0
-441 -444 0
-442 -443 0
-442 -444 0
-443 -444 0
-445 -446 0
-445 -447 0
-445 -448 0
-446 -447 0
-446 -448 0
-447 -448 0
-449 -450 0
-449 -451 0
-449 -452 0
-450 -451 0
-450 -452 0
-451 -452 0
-453 -454 0
-453 -455 0
-453 -456 0
-454 -455 0
-454 -456 0
-455 -456 0
-457 -458 0
-457 -459 0
-457 -460 0
-458 -459 0
-458 -460 0
-459 -460 0
-461 -462 0
-461 -463 0
-461 -464 0
-462 -463 0
-462 -464 0
-463 -464 0
-465 -466 0
-465 -467 0
-465 -468 0
-466 -467 0
-466 -468 0
-467 -468 0
-469 -470 0
-469 -471 0
-469 -472 0
-470 -471 0
-470 -472 0
-471 -472 0
-473 -474 0
-473 -475 0
-473 -476 0
-474 -475 0
-474 -476 0
-475 -476 0
-477 -478 0
-477 -479 0
-477 -480 0
-478 -479 0
-478 -480 0
-479 -480 0
-481 -482 0
-481 -483 0
-481 -484 0
-482 -483 0
-482 -484 0
-483 -484 0
-485 -486 0
-485 -487 0
-485 -488 0
-486 -487 0
-486 -488 0
-487 -488 0
-489 -490 0
-489 -491 0
-489 -492 0
-490 -491 0
-490 -492 0
-491 -492 0
-493 -494 0
-493 -495 0
-493 -496 0
-494 -495 0
-494 -496 0
-495 -496 0
-497 -498 0
-497 -499 0
-497 -500 0
-498 -499 0
-498 -500 0
-499 -500 0
-501 -502 0
-501 -503 0
-501 -504 0
-502 -503 0
-502 -504 0
-503 -504 0
-505 -506 0
-505 -507 0
-505 -508 0
-506 -507 0
-506 -508 0
-507 -508 0
-509 -510 0
-509 -511 0
-509 -512 0
-510 -511 0
-510 -512 0
-511 -512 0
-513 -514 0
-513 -515 0
-513 -516 0
-514 -515 0
-514 -516 0
-515 -516 0
-517 -518 0
-517 -519 0
-517 -520 0
-518 -519 0
-518 -520 0
-519 -520 0
-521 -522 0
-521 -523 0
-521 -524 0
-522 -523 0
-522 -524 0
-523 -524 0
-525 -526 0
-525 -527 0
-525 -528 0
-526 -527 0
-526 -528 0
-527 -528 0
-529 -530 0
-529 -531 0
-529 -532 0
-530 -531 0
-530 -532 0
-531 -532 0
-533 -534 0
-533 -535 0
-533 -536 0
-534 -535 0
-534 -536 0
-535 -536 0
-537 -538 0
-537 -539 0
-537 -540 0
-538 -539 0
-538 -540 0
-539 -540 0
-541 -542 0
-541 -543 0
-541 -544 0
-542 -543 0
-542 -544 0
-543 -544 0
-545 -546 0
-545 -547 0
-545 -548 0
-546 -547 0
-546 -548 0
-547 -548 0
-549 -550 0
-549 -551 0
-549 -552 0
-550 -551 0
-550 -552 0
-551 -552 0
-553 -554 0
-553 -555 0
-553 -556 0
-554 -555 0
-554 -556 0
-555 -556 0
-557 -558 0
-557 -559 0
-557 -560 0
-558 -559 0
-558 -560 0
-559 -560 0
-561 -562 0
-561 -563 0
-561 -564 0
-562 -563 0
-562 -564 0
-563 -564 0
-565 -566 0
-565 -567 0
-565 -568 0
-566 -567 0
-566 -568 0
-567 -568 0
-569 -570 0
-569 -571 0
-569 -572 0
-570 -571 0
-570 -572 0
-571 -572 0
-573 -574 0
-573 -575 0
-573 -576 0
-574 -575 0
-574 -576 0
-575 -576 0
-577 -578 0
-577 -579 0
-577 -580 0
-578 -579 0
-578 -580 0
-579 -580 0
-581 -582 0
-581 -583 0
-581 -584 0
-582 -583 0
-582 -584 0
-583 -584 0
-585 -586 0
-585 -587 0
-585 -588 0
-586 -587 0
-586 -588 0
-587 -588 0
-589 -590 0
-589 -591 0
-589 -592 0
-590 -591 0
-590 -592 0
-591 -592 0
-593 -594 0
-593 -595 0
-593 -596 0
-594 -595 0
-594 -596 0
-595 -596 0
-597 -598 0
-597 -599 0
-597 -600 0
-598 -599 0
-598 -600 0
-599 -600 0
-601 -602 0
-601 -603 0
-601 -604 0
-602 -603 0
-602 -604 0
-603 -604 0
-605 -606 0
-605 -607 0
-605 -608 0
-606 -607 0
-606 -608 0
-607 -608 0
-609 -610 0
-609 -611 0
-609 -612 0
-610 -611 0
-610 -612 0
-611 -612 0
-613 -614 0
-613 -615 0
-613 -616 0
-614 -615 0
-614 -616 0
-615 -616 0
-617 -618 0
-617 -619 0
-617 -620 0
-618 -619 0
-618 -620 0
-619 -620 0
-621 -622 0
-621 -623 0
-621 -624 0
-622 -623 0
-622 -624 0
-623 -624 0
-625 -626 0
-625 -627 0
-625 -628 0
-626 -627 0
-626 -628 0
-627 -628 0
-629 -630 0
-629 -631 0
-629 -632 0
-630 -631 0
-630 -632 0
-631 -632 0
-633 -634 0
-633 -635 0
-633 -636 0
-634 -635 0
-634 -636 0
-635 -636 0
-637 -638 0
-637 -639 0
-637 -640 0
-638 -639 0
-638 -640 0
-639 -640 0
-641 -642 0
-641 -643 0
-641 -644 0
-642 -643 0
-642 -644 0
-643 -644 0
-645 -646 0
-645 -647 0
-645 -648 0
-646 -647 0
-646 -648 0
-647 -648 0
-649 -650 0
-649 -651 0
-649 -652 0
-650 -651 0
-650 -652 0
-651 -652 0
-653 -654 0
-653 -655 0
-653 -656 0
-654 -655 0
-654 -656 0
-655 -656 0
-657 -658 0
-657 -659 0
-657 -660 0
-658 -659 0
-658 -660 0
-659 -660 0
-661 -662 0
-661 -663 0
-661 -664 0
-662 -663 0
-662 -664 0
-663 -664 0
-665 -666 0
-665 -667 0
-665 -668 0
-666 -667 0
-666 -668 0
-667 -668 0
-669 -670 0
-669 -671 0
-669 -672 0
-670 -671 0
-670 -672 0
-671 -672 0
-673 -674 0
-673 -675 0
-673 -676 0
-674 -675 0
-674 -676 0
-675 -676 0
-677 -678 0
-677 -679 0
-677 -680 0
-678 -679 0
-678 -680 0
-679 -680 0
-681 -682 0
-681 -683 0
-681 -684 0
-682 -683 0
-682 -684 0
-683 -684 0
-685 -686 0
-685 -687 0
-685 -688 0
-686 -687 0
-686 -688 0
-687 -688 0
-689 -690 0
-689 -691 0
-689 -692 0
-690 -691 0
-690 -692 0
-691 -692 0
-693 -694 0
-693 -695 0
-693 -696 0
-694 -695 0
-694 -696 0
-695 -696 0
-697 -698 0
-697 -699 0
-697 -700 0
-698 -699 0
-698 -700 0
-699 -700 0
-701 -702 0
-701 -703 0
-701 -704 0
-702 -703 0
-702 -704 0
-703 -704 0
-705 -706 0
-705 -707 0
-705 -708 0
-706 -707 0
-706 -708 0
-707 -708 0
-709 -710 0
-709 -711 0
-709 -712 0
-710 -711 0
-710 -712 0
-711 -712 0
-713 -714 0
-713 -715 0
-713 -716 0
-714 -715 0
-714 -716 0
-715 -716 0
-717 -718 0
-717 -719 0
-717 -720 0
-718 -719 0
-718 -720 0
-719 -720 0
-721 -722 0
-721 -723 0
-721 -724 0
-722 -723 0
-722 -724 0
-723 -724 0
-725 -726 0
-725 -727 0
-725 -728 0
-726 -727 0
-726 -728 0
-727 -728 0
-729 -730 0
-729 -731 0
-729 -732 0
-730 -731 0
-730 -732 0
-731 -732 0
-733 -734 0
-733 -735 0
-733 -736 0
-734 -735 0
-734 -736 0
-735 -736 0
-737 -738 0
-737 -739 0
-737 -740 0
-738 -739 0
-738 -740 0
-739 -740 0
-741 -742 0
-741 -743 0
-741 -744 0
-742 -743 0
-742 -744 0
-743 -744 0
-745 -746 0
-745 -747 0
-745 -748 0
-746 -747 0
-746 -748 0
-747 -748 0
-749 -750 0
-749 -751 0
-749 -752 0
-750 -751 0
-750 -752 0
-751 -752 0
-753 -754 0
-753 -755 0
-753 -756 0
-754 -755 0
-754 -756 0
-755 -756 0
-757 -758 0
-757 -759 0
-757 -760 0
-758 -759 0
-758 -760 0
-759 -760 0
-761 -762 0
-761 -763 0
-761 -764 0
-762 -763 0
-762 -764 0
-763 -764 0
-765 -766 0
-765 -767 0
-765 -768 0
-766 -767 0
-766 -768 0
-767 -768 0
-769 -770 0
-769 -771 0
-769 -772 0
-770 -771 0
-770 -772 0
-771 -772 0
-773 -774 0
-773 -775 0
-773 -776 0
-774 -775 0
-774 -776 0
-775 -776 0
-777 -778 0
-777 -779 0
-777 -780 0
-778 -779 0
-778 -780 0
-779 -780 0
-781 -782 0
-781 -783 0
-781 -784 0
-782 -783 0
-782 -784 0
-783 -784 0
-785 -786 0
-785 -787 0
-785 -788 0
-786 -787 0
-786 -788 0
-787 -788 0
-789 -790 0
-789 -791 0
-789 -792 0
-790 -791 0
-790 -792 0
-791 -792 0
-793 -794 0
-793 -795 0
-793 -796 0
-794 -795 0
-794 -796 0
-795 -796 0
-797 -798 0
-797 -799 0
-797 -800 0
-798 -799 0
-798 -800 0
-799 -800 0
-801 -802 0
-801 -803 0
-801 -804 0
-802 -803 0
-802 -804 0
-803 -804 0
-805 -806 0
-805 -807 0
-805 -808 0
-806 -807 0
-806 -808 0
-807 -808 0
-809 -810 0
-809 -811 0
-809 -812 0
-810 -811 0
-810 -812 0
-811 -812 0
-813 -814 0
-813 -815 0
-813 -816 0
-814 -815 0
-814 -816 0
-815 -816 0
-817 -818 0
-817 -819 0
-817 -820 0
-818 -819 0
-818 -820 0
-819 -820 0
-821 -822 0
-821 -823 0
-821 -824 0
-822 -823 0
-822 -824 0
-823 -824 0
-825 -826 0
-825 -827 0
-825 -828 0
-826 -827 0
-826 -828 0
-827 -828 0
-829 -830 0
-829 -831 0
-829 -832 0
-830 -831 0
-830 -832 0
-831 -832 0
-833 -834 0
-833 -835 0
-833 -836 0
-834 -835 0
-834 -836 0
-835 -836 0
-837 -838 0
-837 -839 0
-837 -840 0
-838 -839 0
-838 -840 0
-839 -840 0
-841 -842 0
-841 -843 0
-841 -844 0
-842 -843 0
-842 -844 0
-843 -844 0
-845 -846 0
-845 -847 0
-845 -848 0
-846 -847 0
-846 -848 0
-847 -848 0
-849 -850 0
-849 -851 0
-849 -852 0
-850 -851 0
-850 -852 0
-851 -852 0
-853 -854 0
-853 -855 0
-853 -856 0
-854 -855 0
-854 -856 0
-855 -856 0
-857 -858 0
-857 -859 0
-857 -860 0
-858 -859 0
-858 -860 0
-859 -860 0
-861 -862 0
-861 -863 0
-861 -864 0
-862 -863 0
-862 -864 0
-863 -864 0
-865 -866 0
-865 -867 0
-865 -868 0
-866 -867 0
-866 -868 0
-867 -868 0
-869 -870 0
-869 -871 0
-869 -872 0
-870 -871 0
-870 -872 0
-871 -872 0
-873 -874 0
-873 -875 0
-873 -876 0
-874 -875 0
-874 -876 0
-875 -876 0
-877 -878 0
-877 -879 0
-877 -880 0
-878 -879 0
-878 -880 0
-879 -880 0
-881 -882 0
-881 -883 0
-881 -884 0
-882 -883 0
-882 -884 0
-883 -884 0
-885 -886 0
-885 -887 0
-885 -888 0
-886 -887 0
-886 -888 0
-887 -888 0
-889 -890 0
-889 -891 0
-889 -892 0
-890 -891 0
-890 -892 0
-891 -892 0
-893 -894 0
-893 -895 0
-893 -896 0
-894 -895 0
-894 -896 0
-895 -896 0
-897 -898 0
-897 -899 0
-897 -900 0
-898 -899 0
-898 -900 0
-899 -900 0
-901 -902 0
-901 -903 0
-901 -904 0
-902 -903 0
-902 -904 0
-903 -904 0
1 0
-6 1 0
-7 0
-8 0
-10 1 5 0
-11 2 6 0
-12 0
-14 1 5 9 0
-15 2 6 10 0
-16 3 7 11 0
-18 1 5 9 13 0
-19 2 6 10 14 0
-20 3 7 11 15 0
-22 1 5 9 13 17 0
-23 2 6 10 14 18 0
-24 3 7 11 15 19 0
-26 1 5 9 13 17 21 0
-27 2 6 10 14 18 22 0
-28 3 7 11 15 19 23 0
-30 1 5 9 13 17 21 25 0
-31 2 6 10 14 18 22 26 0
-32 3 7 11 15 19 23 27 0
-34 1 5 9 13 17 21 25 29 0
-35 2 6 10 14 18 22 26 30 0
-36 3 7 11 15 19 23 27 31 0
-38 1 5 9 13 17 21 25 29 33 0
-39 2 6 10 14 18 22 26 30 34 0
-40 3 7 11 15 19 23 27 31 35 0
-42 1 5 9 13 17 21 25 29 33 37 0
-43 2 6 10 14 18 22 26 30 34 38 0
-44 3 7 11 15 19 23 27 31 35 39 0
-46 1 5 9 13 17 21 25 29 33 37 41 0
-47 2 6 10 14 18 22 26 30 34 38 42 0
-48 3 7 11 15 19 23 27 31 35 39 43 0
-50 1 5 9 13 17 21 25 29 33 37 41 45 0
-51 2 6 10 14 18 22 26 30 34 38 42 46 0
-52 3 7 11 15 19 23 27 31 35 39 43 47 0
-54 1 5 9 13 17 21 25 29 33 37 41 45 49 0
-55 2 6 10 14 18 22 26 30 34 38 42 46 50 0
-56 3 7 11 15 19 23 27 31 35 39 43 47 51 0
-58 1 5 9 13 17 21 25 29 33 37 41 45 49 53 0
-59 2 6 10 14 18 22 26 30 34 38 42 46 50 54 0
-60 3 7 11 15 19 23 27 31 35 39 43 47 51 55 0
-62 1 5 9 13 17 21 25 29 33 37 41 45 49 53 57 0
-63 2 6 10 14 18 22 26 30 34 38 42 46 50 54 58 0
-64 3 7 11 15 19 23 27 31 35 39 43 47 51 55 59 0
-66 1 5 9 13 17 21 25 29 33 37 41 45 49 53 57 61 0
-67 2 6 10 14 18 22 26 30 34 38 42 46 50 54 58 62 0
-68 3 7 11 15 19 23 27 31 35 39 43 47 51 55 59 63 0
-70 1 5 9 13 17 21 25 29 33 37 41 45 49 53 57 61 65 0
-71 2 6 10 14 18 22 26 30 34 38 42 46 50 54 58 62 66 0
-72 3 7 11 15 19 23 27 31 35 39 43 47 51 55 59 63 67 0
-74 1 5 9 13 17 21 25 29 33 37 41 45 49 53 57 61 65 69 0
-75 2 6 10 14 18 22 26 30 34 38 42 46 50 54 58 62 66 70 0
-76 3 7 11 15 19 23 27 31 35 39 43 47 51 55 59 63 67 71 0
-78 1 5 9 13 17 21 25 29 33 37 41 45 49 53 57 61 65 69 73 0
-79 2 6 10 14 18 22 26 30 34 38 42 46 50 54 58 62 66 70 74 0
-80 3 7 11 15 19 23 27 31 35 39 43 47 51 55 59 63 67 71 75 0
-82 1 5 9 13 17 21 25 29 33 37 41 45 49 53 57 61 65 69 73 77 0
-83 2 6 10 14 18 22 26 30 34 38 42 46 50 54 58 62 66 70 74 78 0
-84 3 7 11 15 19 23 27 31 35 39 43 47 51 55 59 63 67 71 75 79 0
-86 1 5 9 13 17 21 25 29 33 37 41 45 49 53 57 61 65 69 73 77 81 0
-87 2 6 10 14 18 22 26 30 34 38 42 46 50 54 58 62 66 70 74 78 82 0
-88 3 7 11 15 19 23 27 31 35 39 43 47 51 55 59 63 67 71 75 79 83 0
-90 1 5 9 13 17 21 25 29 33 37 41 45 49 53 57 61 65 69 73 77 81 85 0
-91 2 6 10 14 18 22 26 30 34 38 42 46 50 54 58 62 66 70 74 78 82 86 0
-92 3 7 11 15 19 23 27 31 35 39 43 47 51 55 59 63 67 71 75 79 83 87 0
-94 1 5 9 13 17 21 25 29 33 37 41 45 49 53 57 61 65 69 73 77 81 85 89 0
-95 2 6 10 14 18 22 26 30 34 38 42 46 50 54 58 62 66 70 74 78 82 86 90 0
-96 3 7 11 15 19 23 27 31 35 39 43 47 51 55 59 63 67 71 75 79 83 87 91 0
-98 1 5 9 13 17 21 25 29 33 37 41 45 49 53 57 61 65 69 73 77 81 85 89 93 0
-99 2 6 10 14 18 22 26 30 34 38 42 46 50 54 58 62 66 70 74 78 82 86 90 94 0
-100 3 7 11 15 19 23 27 31 35 39 43 47 51 55 59 63 67 71 75 79 83 87 91 95 0
-102 1 5 9 13 17 21 25 29 33 37 41 45 49 53 57 61 65 69 73 77 81 85 89 93 97 0
-103 2 6 10 14 18 22 26 30 34 38 42 46 50 54 58 62 66 70 74 78 82 86 90 94 98 0
-104 3 7 11 15 19 23 27 31 35 39 43 47 51 55 59 63 67 71 75 79 83 87 91 95 99 0
-106 1 5 9 13 17 21 25 29 33 37 41 45 49 53 57 61 65 69 73 77 81 85 89 93 97 101 0
-107 2 6 10 14 18 22 26 30 34 38 42 46 50 54 58 62 66 70 74 78 82 86 90 94 98 102 0
-108 3 7 11 15 19 23 27 31 35 39 43 47 51 55 59 63 67 71 75 79 83 87 91 95 99 103 0
-110 1 5 9 13 17 21 25 29 33 37 41 45 49 53 57 61 65 69 73 77 81 85 89 93 97 101 105 0
-111 2 6 10 14 18 22 26 30 34 38 42 46 50 54 58 62 66 70 74 78 82 86 90 94 98 102 106 0
-112 3 7 11 15 19 23 27 31 35 39 43 47 51 55 59 63 67 71 75 79 83 87 91 95 99 103 107 0
-114 1 5 9 13 17 21 25 29 33 37 41 45 49 53 57 61 65 69 73 77 81 85 89 93 97 101 105 109 0
-115 2 6 10 14 18 22 26 30 34 38 42 46 50 54 58 62 66 70 74 78 82 86 90 94 98 102 106 110 0
-116 3 7 11 15 19 23 27 31 35 39 43 47 51 55 59 63 67 71 75 79 83 87 91 95 99 103 107 111 0
-118 1 5 9 13 17 21 25 29 33 37 41 45 49 53 57 61 65 69 73 77 81 85 89 93 97 101 105 109 113 0
-119 2 6 10 14 18 22 26 30 34 38 42 46 50 54 58 62 66 70 74 78 82 86 90 94 98 102 106 110 114 0
-120 3 7 11 15 19 23 27 31 35 39 43 47 51 55 59 63 67 71 75 79 83 87 91 95 99 103 107 111 115 0
-122 1 5 9 13 17 21 25 29 33 37 41 45 49 53 57 61 65 69 73 77 81 85 89 93 97 101 105 109 113 117 0
-123 2 6 10 14 18 22 26 30 34 38 42 46 50 54 58 62 66 70 74 78 82 86 90 94 98 102 106 110 114 118 0
-124 3 7 11 15 19 23 27 31 35 39 43 47 51 55 59 63 67 71 75 79 83 87 91 95 99 103 107 111 115 119 0
-126 1 5 9 13 17 21 25 29 33 37 41 45 49 53 57 61 65 69 73 77 81 85 89 93 97 101 105 109 113 117 121 0
-127 2 6 10 14 18 22 26 30 34 38 42 46 50 54 58 62 66 70 74 78 82 86 90 94 98 102 106 110 114 118 122 0
-128 3 7 11 15 19 23 27 31 35 39 43 47 51 55 59 63 67 71 75 79 83 87 91 95 99 103 107 111 115 119 123 0
-130 1 5 9 13 17 21 25 29 33 37 41 45 49 53 57 61 65 69 73 77 81 85 89 93 97 101 105 109 113 117 121 125 0
-131 2 6 10 14 18 22 26 30 34 38 42 46 50 54 58 62 66 70 74 78 82 86 90 94 98 102 106 110 114 118 122 126 0
-132 3 7 11 15 19 23 27 31 35 39 43 47 51 55 59 63 67 71 75 79 83 87 91 95 99 103 107 111 115 119 123 127 0
-134 1 5 9 13 17 21 25 29 33 37 41 45 49 53 57 61 65 69 73 77 81 85 89 93 97 101 105 109 113 117 121 125 129 0
-135 2 6 10 14 18 22 26 30 34 38 42 46 50 54 58 62 66 70 74 78 82 86 90 94 98 102 106 110 114 118 122 126 130 0
-136 3 7 11 15 19 23 27 31 35 39 43 47 51 55 59 63 67 71 75 79 83 87 91 95 99 103 107 111 115 119 123 127 131 0
-138 1 5 9 13 17 21 25 29 33 37 41 45 49 53 57 61 65 69 73 77 81 85 89 93 97 101 105 109 113 117 121 125 129 133 0
-139 2 6 10 14 18 22 26 30 34 38 42 46 50 54 58 62 66 70 74 78 82 86 90 94 98 102 106 110 114 118 122 126 130 134 0
-140 3 7 11 15 19 23 27 31 35 39 43 47 51 55 59 63 67 71 75 79 83 87 91 95 99 103 107 111 115 119 123 127 131 135 0
-142 1 5 9 13 17 21 25 29 33 37 41 45 49 53 57 61 65 69 73 77 81 85 89 93 97 101 105 109 113 117 121 125 129 133 137 0
-143 2 6 10 14 18 22 26 30 34 38 42 46 50 54 58 62 66 70 74 78 82 86 90 94 98 102 106 110 114 118 122 126 130 134 138 0
-144 3 7 11 15 19 23 27 31 35 39 43 47 51 55 59 63 67 71 75 79 83 87 91 95 99 103 107 111 115 119 123 127 131 135 139 0
-146 1 5 9 13 17 21 25 29 33 37 41 45 49 53 57 61 65 69 73 77 81 85 89 93 97 101 105 109 113 117 121 125 129 133 137 141 0
-147 2 6 10 14 18 22 26 30 34 38 42 46 50 54 58 62 66 70 74 78 82 86 90 94 98 102 106 110 114 118 122 126 130 134 138 142 0
-148 3 7 11 15 19 23 27 31 35 39 43 47 51 55 59 63 67 71 75 79 83 87 91 95 99 103 107 111 115 119 123 127 131 135 139 143 0
-150 1 5 9 13 17 21 25 29 33 37 41 45 49 53 57 61 65 69 73 77 81 85 89 93 97 101 105 109 113 117 121 125 129 133 137 141 145 0
-151 2 6 10 14 18 22 26 30 34 38 42 46 50 54 58 62 66 70 74 78 82 86 90 94 98 102 106 110 114 118 122 126 130 134 138 142 146 0
-152 3 7 11 15 19 23 27 31 35 39 43 47 51 55 59 63 67 71 75 79 83 87 91 95 99 103 107 111 115 119 123 127 131 135 139 143 147 0
-154 1 5 9 13 17 21 25 29 33 37 41 45 49 53 57 61 65 69 73 77 81 85 89 93 97 101 105 109 113 117 121 125 129 133 137 141 145 149 0
-155 2 6 10 14 18 22 26 30 34 38 42 46 50 54 58 62 66 70 74 78 82 86 90 94 98 102 106 110 114 118 122 126 130 134 138 142 146 150 0
-156 3 7 11 15 19 23 27 31 35 39 43 47 51 55 59 63 67 71 75 79 83 87 91 95 99 103 107 111 115 119 123 127 131 135 139 143 147 151 0
-158 1 5 9 13 17 21 25 29 33 37 41 45 49 53 57 61 65 69 73 77 81 85 89 93 97 101 105 109 113 117 121 125 129 133 137 141 145 149 153 0
-159 2 6 10 14 18 22 26 30 34 38 42 46 50 54 58 62 66 70 74 78 82 86 90 94 98 102 106 110 114 118 122 126 130 134 138 142 146 150 154 0
-160 3 7 11 15 19 23 27 31 35 39 43 47 51 55 59 63 67 71 75 79 83 87 91 95 99 103 107 111 115 119 123 127 131 135 139 143 147 151 155 0
-162 1 5 9 13 17 21 25 29 33 37 41 45 49 53 57 61 65 69 73 77 81 85 89 93 97 101 105 109 113 117 121 125 129 133 137 141 145 149 153 157 0
-163 2 6 10 14 18 22 26 30 34 38 42 46 50 54 58 62 66 70 74 78 82 86 90 94 98 102 106 110 114 118 122 126 130 134 138 142 146 150 154 158 0
-164 3 7 11 15 19 23 27 31 35 39 43 47 51 55 59 63 67 71 75 79 83 87 91 95 99 103 107 111 115 119 123 127 131 135 139 143 147 151 155 159 0
-166 1 5 9 13 17 21 25 29 33 37 41 45 49 53 57 61 65 69 73 77 81 85 89 93 97 101 105 109 113 117 121 125 129 133 137 141 145 149 153 157 161 0
-167 2 6 10 14 18 22 26 30 34 38 42 46 50 54 58 62 66 70 74 78 82 86 90 94 98 102 106 110 114 118 122 126 130 134 138 142 146 150 154 158 162 0
-168 3 7 11 15 19 23 27 31 35 39 43 47 51 55 59 63 67 71 75 79 83 87 91 95 99 103 107 111 115 119 123 127 131 135 139 143 147 151 155 159 163 0
-170 1 5 9 13 17 21 25 29 33 37 41 45 49 53 57 61 65 69 73 77 81 85 89 93 97 101 105 109 113 117 121 125 129 133 137 141 145 149 153 157 161 165 0
-171 2 6 10 14 18 22 26 30 34 38 42 46 50 54 58 62 66 70 74 78 82 86 90 94 98 102 106 110 114 118 122 126 130 134 138 142 146 150 154 158 162 166 0
-172 3 7 11 15 19 23 27 31 35 39 43 47 51 55 59 63 67 71 75 79 83 87 91 95 99 103 107 111 115 119 123 127 131 135 139 143 147 151 155 159 163 167 0
-174 1 5 9 13 17 21 25 29 33 37 41 45 49 53 57 61 65 69 73 77 81 85 89 93 97 101 105 109 113 117 121 125 129 133 137 141 145 149 153 157 161 165 169 0
-175 2 6 10 14 18 22 26 30 34 38 42 46 50 54 58 62 66 70 74 78 82 86 90 94 98 102 106 110 114 118 122 126 130 134 138 142 146 150 154 158 162 166 170 0
-176 3 7 11 15 19 23 27 31 35 39 43 47 51 55 59 63 67 71 75 79 83 87 91 95 99 103 107 111 115 119 123 127 131 135 139 143 147 151 155 159 163 167 171 0
-178 1 5 9 13 17 21 25 29 33 37 41 45 49 53 57 61 65 69 73 77 81 85 89 93 97 101 105 109 113 117 121 125 129 133 137 141 145 149 153 157 161 165 169 173 0
-179 2 6 10 14 18 22 26 30 34 38 42 46 50 54 58 62 66 70 74 78 82 86 90 94 98 102 106 110 114 118 122 126 130 134 138 142 146 150 154 158 162 166 170 174 0
-180 3 7 11 15 19 23 27 31 35 39 43 47 51 55 59 63 67 71 75 79 83 87 91 95 99 103 107 111 115 119 123 127 131 135 139 143 147 151 155 159 163 167 171 175 0
-182 1 5 9 13 17 21 25 29 33 37 41 45 49 53 57 61 65 69 73 77 81 85 89 93 97 101 105 109 113 117 121 125 129 133 137 141 145 149 153 157 161 165 169 173 177 0
-183 2 6 10 14 18 22 26 30 34 38 42 46 50 54 58 62 66 70 74 78 82 86 90 94 98 102 106 110 114 118 122 126 130 134 138 142 146 150 154 158 162 166 170 174 178 0
-184 3 7 11 15 19 23 27 31 35 39 43 47 51 55 59 63 67 71 75 79 83 87 91 95 99 103 107 111 115 119 123 127 131 135 139 143 147 151 155 159 163 167 171 175 179 0
-186 1 5 9 13 17 21 25 29 33 37 41 45 49 53 57 61 65 69 73 77 81 85 89 93 97 101 105 109 113 117 121 125 129 133 137 141 145 149 153 157 161 165 169 173 177 181 0
-187 2 6 10 14 18 22 26 30 34 38 42 46 50 54 58 62 66 70 74 78 82 86 90 94 98 102 106 110 114 118 122 126 130 134 138 142 146 150 154 158 162 166 170 174 178 182 0
-188 3 7 11 15 19 23 27 31 35 39 43 47 51 55 59 63 67 71 75 79 83 87 91 95 99 103 107 111 115 119 123 127 131 135 139 143 147 151 155 159 163 167 171 175 179 183 0
-190 1 5 9 13 17 21 25 29 33 37 41 45 49 53 57 61 65 69 73 77 81 85 89 93 97 101 105 109 113 117 121 125 129 133 137 141 145 149 153 157 161 165 169 173 177 181 185 0
-191 2 6 10 14 18 22 26 30 34 38 42 46 50 54 58 62 66 70 74 78 82 86 90 94 98 102 106 110 114 118 122 126 130 134 138 142 146 150 154 158 162 166 170 174 178 182 186 0
-192 3 7 11 15 19 23 27 31 35 39 43 47 51 55 59 63 67 71 75 79 83 87 91 95 99 103 107 111 115 119 123 127 131 135 139 143 147 151 155 159 163 167 171 175 179 183 187 0
-194 1 5 9 13 17 21 25 29 33 37 41 45 49 53 57 61 65 69 73 77 81 85 89 93 97 101 105 109 113 117 121 125 129 133 137 141 145 149 153 157 161 165 169 173 177 181 185 189 0
-195 2 6 10 14 18 22 26 30 34 38 42 46 50 54 58 62 66 70 74 78 82 86 90 94 98 102 106 110 114 118 122 126 130 134 138 142 146 150 154 158 162 166 170 174 178 182 186 190 0
-196 3 7 11 15 19 23 27 31 35 39 43 47 51 55 59 63 67 71 75 79 83 87 91 95 99 103 107 111 115 119 123 127 131 135 139 143 147 151 155 159 163 167 171 175 179 183 187 191 0
-198 1 5 9 13 17 21 25 29 33 37 41 45 49 53 57 61 65 69 73 77 81 85 89 93 97 101 105 109 113 117 121 125 129 133 137 141 145 149 153 157 161 165 169 173 177 181 185 189 193 0
-199 2 6 10 14 18 22 26 30 34 38 42 46 50 54 58 62 66 70 74 78 82 86 90 94 98 102 106 110 114 118 122 126 130 134 138 142 146 150 154 158 162 166 170 174 178 182 186 190 194 0
-200 3 7 11 15 19 23 27 31 35 39 43 47 51 55 59 63 67 71 75 79 83 87 91 95 99 103 107 111 115 119 123 127 131 135 139 143 147 151 155 159 163 167 171 175 179 183 187 191 195 0
-202 1 5 9 13 17 21 25 29 33 37 41 45 49 53 57 61 65 69 73 77 81 85 89 93 97 101 105 109 113 117 121 125 129 133 137 141 145 149 153 157 161 165 169 173 177 181 185 189 193 197 0
-203 2 6 10 14 18 22 26 30 34 38 42 46 50 54 58 62 66 70 74 78 82 86 90 94 98 102 106 110 114 118 122 126 130 134 138 142 146 150 154 158 162 166 170 174 178 182 186 190 194 198 0
-204 3 7 11 15 19 23 27 31 35 39 43 47 51 55 59 63 67 71 75 79 83 87 91 95 99 103 107 111 115 119 123 127 131 135 139 143 147 151 155 159 163 167 171 175 179 183 187 191 195 199 0
-206 1 5 9 13 17 21 25 29 33 37 41 45 49 53 57 61 65 69 73 77 81 85 89 93 97 101 105 109 113 117 121 125 129 133 137 141 145 149 153 157 161 165 169 173 177 181 185 189 193 197 201 0
-207 2 6 10 14 18 22 26 30 34 38 42 46 50 54 58 62 66 70 74 78 82 86 90 94 98 102 106 110 114 118 122 126 130 134 138 142 146 150 154 158 162 166 170 174 178 182 186 190 194 198 202 0
-208 3 7 11 15 19 23 27 31 35 39 43 47 51 55 59 63 67 71 75 79 83 87 91 95 99 103 107 111 115 119 123 127 131 135 139 143 147 151 155 159 163 167 171 175 179 183 187 191 195 199 203 0
-210 1 5 9 13 17 21 25 29 33 37 41 45 49 53 57 61 65 69 73 77 81 85 89 93 97 101 105 109 113 117 121 125 129 133 137 141 145 149 153 157 161 165 169 173 177 181 185 189 193 197 201 205 0
-211 2 6 10 14 18 22 26 30 34 38 42 46 50 54 58 62 66 70 74 78 82 86 90 94 98 102 106 110 114 118 122 126 130 134 138 142 146 150 154 158 162 166 170 174 178 182 186 190 194 198 202 206 0
-212 3 7 11 15 19 23 27 31 35 39 43 47 51 55 59 63 67 71 75 79 83 87 91 95 99 103 107 111 115 119 123 127 131 135 139 143 147 151 155 159 163 167 171 175 179 183 187 191 195 199 203 207 0
-214 1 5 9 13 17 21 25 29 33 37 41 45 49 53 57 61 65 69 73 77 81 85 89 93 97 101 105 109 113 117 121 125 129 133 137 141 145 149 153 157 161 165 169 173 177 181 185 189 193 197 201 205 209 0
-215 2 6 10 14 18 22 26 30 34 38 42 46 50 54 58 62 66 70 74 78 82 86 90 94 98 102 106 110 114 118 122 126 130 134 138 142 146 150 154 158 162 166 170 174 178 182 186 190 194 198 202 206 210 0
-216 3 7 11 15 19 23 27 31 35 39 43 47 51 55 59 63 67 71 75 79 83 87 91 95 99 103 107 111 115 119 123 127 131 135 139 143 147 151 155 159 163 167 171 175 179 183 187 191 195 199 203 207 211 0
-218 1 5 9 13 17 21 25 29 33 37 41 45 49 53 57 61 65 69 73 77 81 85 89 93 97 101 105 109 113 117 121 125 129 133 137 141 145 149 153 157 161 165 169 173 177 181 185 189 193 197 201 205 209 213 0
-219 2 6 10 14 18 22 26 30 34 38 42 46 50 54 58 62 66 70 74 78 82 86 90 94 98 102 106 110 114 118 122 126 130 134 138 142 146 150 154 158 162 166 170 174 178 182 186 190 194 198 202 206 210 214 0
-220 3 7 11 15 19 23 27 31 35 39 43 47 51 55 59 63 67 71 75 79 83 87 91 95 99 103 107 111 115 119 123 127 131 135 139 143 147 151 155 159 163 167 171 175 179 183 187 191 195 199 203 207 211 215 0
-222 1 5 9 13 17 21 25 29 33 37 41 45 49 53 57 61 65 69 73 77 81 85 89 93 97 101 105 109 113 117 121 125 129 133 137 141 145 149 153 157 161 165 169 173 177 181 185 189 193 197 201 205 209 213 217 0
-223 2 6 10 14 18 22 26 30 34 38 42 46 50 54 58 62 66 70 74 78 82 86 90 94 98 102 106 110 114 118 122 126 130 134 138 142 146 150 154 158 162 166 170 174 178 182 186 190 194 198 202 206 210 214 218 0
-224 3 7 11 15 19 23 27 31 35 39 43 47 51 55 59 63 67 71 75 79 83 87 91 95 99 103 107 111 115 119 123 127 131 135 139 143 147 151 155 159 163 167 171 175 179 183 187 191 195 199 203 207 211 215 219 0
-226 1 5 9 13 17 21 25 29 33 37 41 45 49 53 57 61 65 69 73 77 81 85 89 93 97 101 105 109 113 117 121 125 129 133 137 141 145 149 153 157 161 165 169 173 177 181 185 189 193 197 201 205 209 213 217 221 0
-227 2 6 10 14 18 22 26 30 34 38 42 46 50 54 58 62 66 70 74 78 82 86 90 94 98 102 106 110 114 118 122 126 130 134 138 142 146 150 154 158 162 166 170 174 178 182 186 190 194 198 202 206 210 214 218 222 0
-228 3 7 11 15 19 23 27 31 35 39 43 47 51 55 59 63 67 71 75 79 83 87 91 95 99 103 107 111 115 119 123 127 131 135 139 143 147 151 155 159 163 167 171 175 179 183 187 191 195 199 203 207 211 215 219 223 0
-230 1 5 9 13 17 21 25 29 33 37 41 45 49 53 57 61 65 69 73 77 81 85 89 93 97 101 105 109 113 117 121 125 129 133 137 141 145 149 153 157 161 165 169 173 177 181 185 189 193 197 201 205 209 213 217 221 225 0
-231 2 6 10 14 18 22 26 30 34 38 42 46 50 54 58 62 66 70 74 78 82 86 90 94 98 102 106 110 114 118 122 126 130 134 138 142 146 150 154 158 162 166 170 174 178 182 186 190 194 198 202 206 210 214 218 222 226 0
-232 3 7 11 15 19 23 27 31 35 39 43 47 51 55 59 63 67 71 75 79 83 87 91 95 99 103 107 111 115 119 123 127 131 135 139 143 147 151 155 159 163 167 171 175 179 183 187 191 195 199 203 207 211 215 219 223 227 0
-234 1 5 9 13 17 21 25 29 33 37 41 45 49 53 57 61 65 69 73 77 81 85 89 93 97 101 105 109 113 117 121 125 129 133 137 141 145 149 153 157 161 165 169 173 177 181 185 189 193 197 201 205 209 213 217 221 225 229 0
-235 2 6 10 14 18 22 26 30 34 38 42 46 50 54 58 62 66 70 74 78 82 86 90 94 98 102 106 110 114 118 122 126 130 134 138 142 146 150 154 158 162 166 170 174 178 182 186 190 194 198 202 206 210 214 218 222 226 230 0
-236 3 7 11 15 19 23 27 31 35 39 43 47 51 55 59 63 67 71 75 79 83 87 91 95 99 103 107 111 115 119 123 127 131 135 139 143 147 151 155 159 163 167 171 175 179 183 187 191 195 199 203 207 211 215 219 223 227 231 0
-238 1 5 9 13 17 21 25 29 33 37 41 45 49 53 57 61 65 69 73 77 81 85 89 93 97 101 105 109 113 117 121 125 129 133 137 141 145 149 153 157 161 165 169 173 177 181 185 189 193 197 201 205 209 213 217 221 225 229 233 0
-239 2 6 10 14 18 22 26 30 34 38 42 46 50 54 58 62 66 70 74 78 82 86 90 94 98 102 106 110 114 118 122 126 130 134 138 142 146 150 154 158 162 166 170 174 178 182 186 190 194 198 202 206 210 214 218 222 226 230 234 0
-240 3 7 11 15 19 23 27 31 35 39 43 47 51 55 59 63 67 71 75 79 83 87 91 95 99 103 107 111 115 119 123 127 131 135 139 143 147 151 155 159 163 167 171 175 179 183 187 191 195 199 203 207 211 215 219 223 227 231 235 0
-242 1 5 9 13 17 21 25 29 33 37 41 45 49 53 57 61 65 69 73 77 81 85 89 93 97 101 105 109 113 117 121 125 129 133 137 141 145 149 153 157 161 165 169 173 177 181 185 189 193 197 201 205 209 213 217 221 225 229 233 237 0
-243 2 6 10 14 18 22 26 30 34 38 42 46 50 54 58 62 66 70 74 78 82 86 90 94 98 102 106 110 114 118 122 126 130 134 138 142 146 150 154 158 162 166 170 174 178 182 186 190 194 198 202 206 210 214 218 222 226 230 234 238 0
-244 3 7 11 15 19 23 27 31 35 39 43 47 51 55 59 63 67 71 75 79 83 87 91 95 99 103 107 111 115 119 123 127 131 135 139 143 147 151 155 159 163 167 171 175 179 183 187 191 195 199 203 207 211 215 219 223 227 231 235 239 0
-246 1 5 9 13 17 21 25 29 33 37 41 45 49 53 57 61 65 69 73 77 81 85 89 93 97 101 105 109 113 117 121 125 129 133 137 141 145 149 153 157 161 165 169 173 177 181 185 189 193 197 201 205 209 213 217 221 225 229 233 237 241 0
-247 2 6 10 14 18 22 26 30 34 38 42 46 50 54 58 62 66 70 74 78 82 86 90 94 98 102 106 110 114 118 122 126 130 134 138 142 146 150 154 158 162 166 170 174 178 182 186 190 194 198 202 206 210 214 218 222 226 230 234 238 242 0
-248 3 7 11 15 19 23 27 31 35 39 43 47 51 55 59 63 67 71 75 79 83 87 91 95 99 103 107 111 115 119 123 127 131 135 139 143 147 151 155 159 163 167 171 175 179 183 187 191 195 199 203 207 211 215 219 223 227 231 235 239 243 0
-250 1 5 9 13 17 21 25 29 33 37 41 45 49 53 57 61 65 69 73 77 81 85 89 93 97 101 105 109 113 117 121 125 129 133 137 141 145 149 153 157 161 165 169 173 177 181 185 189 193 197 201 205 209 213 217 221 225 229 233 237 241 245 0
-251 2 6 10 14 18 22 26 30 34 38 42 46 50 54 58 62 66 70 74 78 82 86 90 94 98 102 106 110 114 118 122 126 130 134 138 142 146 150 154 158 162 166 170 174 178 182 186 190 194 198 202 206 210 214 218 222 226 230 234 238 242 246 0
-252 3 7 11 15 19 23 27 31 35 39 43 47 51 55 59 63 67 71 75 79 83 87 91 95 99 103 107 111 115 119 123 127 131 135 139 143 147 151 155 159 163 167 171 175 179 183 187 191 195 199 203 207 211 215 219 223 227 231 235 239 243 247 0
-254 1 5 9 13 17 21 25 29 33 37 41 45 49 53 57 61 65 69 73 77 81 85 89 93 97 101 105 109 113 117 121 125 129 133 137 141 145 149 153 157 161 165 169 173 177 181 185 189 193 197 201 205 209 213 217 221 225 229 233 237 241 245 249 0
-255 2 6 10 14 18 22 26 30 34 38 42 46 50 54 58 62 66 70 74 78 82 86 90 94 98 102 106 110 114 118 122 126 130 134 138 142 146 150 154 158 162 166 170 174 178 182 186 190 194 198 202 206 210 214 218 222 226 230 234 238 242 246 250 0
-256 3 7 11 15 19 23 27 31 35 39 43 47 51 55 59 63 67 71 75 79 83 87 91 95 99 103 107 111 115 119 123 127 131 135 139 143 147 151 155 159 163 167 171 175 179 183 187 191 195 199 203 207 211 215 219 223 227 231 235 239 243 247 251 0
-258 1 5 9 13 17 21 25 29 33 37 41 45 49 53 57 61 65 69 73 77 81 85 89 93 97 101 105 109 113 117 121 125 129 133 137 141 145 149 153 157 161 165 169 173 177 181 185 189 193 197 201 205 209 213 217 221 225 229 233 237 241 245 249 253 0
-259 2 6 10 14 18 22 26 30 34 38 42 46 50 54 58 62 66 70 74 78 82 86 90 94 98 102 106 110 114 118 122 126 130 134 138 142 146 150 154 158 162 166 170 174 178 182 186 190 194 198 202 206 210 214 218 222 226 230 234 238 242 246 250 254 0
-260 3 7 11 15 19 23 27 31 35 39 43 47 51 55 59 63 67 71 75 79 83 87 91 95 99 103 107 111 115 119 123 127 131 135 139 143 147 151 155 159 163 167 171 175 179 183 187 191 195 199 203 207 211 215 219 223 227 231 235 239 243 247 251 255 0
-262 1 5 9 13 17 21 25 29 33 37 41 45 49 53 57 61 65 69 73 77 81 85 89 93 97 101 105 109 113 117 121 125 129 133 137 141 145 149 153 157 161 165 169 173 177 181 185 189 193 197 201 205 209 213 217 221 225 229 233 237 241 245 249 253 257 0
-263 2 6 10 14 18 22 26 30 34 38 42 46 50 54 58 62 66 70 74 78 82 86 90 94 98 102 106 110 114 118 122 126 130 134 138 142 146 150 154 158 162 166 170 174 178 182 186 190 194 198 202 206 210 214 218 222 226 230 234 238 242 246 250 254 258 0
-264 3 7 11 15 19 23 27 31 35 39 43 47 51 55 59 63 67 71 75 79 83 87 91 95 99 103 107 111 115 119 123 127 131 135 139 143 147 151 155 159 163 167 171 175 179 183 187 191 195 199 203 207 211 215 219 223 227 231 235 239 243 247 251 255 259 0
-266 1 5 9 13 17 21 25 29 33 37 41 45 49 53 57 61 65 69 73 77 81 85 89 93 97 101 105 109 113 117 121 125 129 133 137 141 145 149 153 157 161 165 169 173 177 181 185 189 193 197 201 205 209 213 217 221 225 229 233 237 241 245 249 253 257 261 0
-267 2 6 10 14 18 22 26 30 34 38 42 46 50 54 58 62 66 70 74 78 82 86 90 94 98 102 106 110 114 118 122 126 130 134 138 142 146 150 154 158 162 166 170 174 178 182 186 190 194 198 202 206 210 214 218 222 226 230 234 238 242 246 250 254 258 262 0
-268 3 7 11 15 19 23 27 31 35 39 43 47 51 55 59 63 67 71 75 79 83 87 91 95 99 103 107 111 115 119 123 127 131 135 139 143 147 151 155 159 163 167 171 175 179 183 187 191 195 199 203 207 211 215 219 223 227 231 235 239 243 247 251 255 259 263 0
-270 1 5 9 13 17 21 25 29 33 37 41 45 49 53 57 61 65 69 73 77 81 85 89 93 97 101 105 109 113 117 121 125 129 133 137 141 145 149 153 157 161 165 169 173 177 181 185 189 193 197 201 205 209 213 217 221 225 229 233 237 241 245 249 253 257 261 265 0
-271 2 6 10 14 18 22 26 30 34 38 42 46 50 54 58 62 66 70 74 78 82 86 90 94 98 102 106 110 114 118 122 126 130 134 138 142 146 150 154 158 162 166 170 174 178 182 186 190 194 198 202 206 210 214 218 222 226 230 234 238 242 246 250 254 258 262 266 0
-272 3 7 11 15 19 23 27 31 35 39 43 47 51 55 59 63 67 71 75 79 83 87 91 95 99 103 107 111 115 119 123 127 131 135 139 143 147 151 155 159 163 167 171 175 179 183 187 191 195 199 203 207 211 215 219 223 227 231 235 239 243 247 251 255 259 263 267 0
-274 1 5 9 13 17 21 25 29 33 37 41 45 49 53 57 61 65 69 73 77 81 85 89 93 97 101 105 109 113 117 121 125 129 133 137 141 145 149 153 157 161 165 169 173 177 181 185 189 193 197 201 205 209 213 217 221 225 229 233 237 241 245 249 253 257 261 265 269 0
-275 2 6 10 14 18 22 26 30 34 38 42 46 50 54 58 62 66 70 74 78 82 86 90 94 98 102 106 110 114 118 122 126 130 134 138 142 146 150 154 158 162 166 170 174 178 182 186 190 194 198 202 206 210 214 218 222 226 230 234 238 242 246 250 254 258 262 266 270 0
-276 3 7 11 15 19 23 27 31 35 39 43 47 51 55 59 63 67 71 75 79 83 87 91 95 99 103 107 111 115 119 123 127 131 135 139 143 147 151 155 159 163 167 171 175 179 183 187 191 195 199 203 207 211 215 219 223 227 231 235 239 243 247 251 255 259 263 267 271 0
-278 1 5 9 13 17 21 25 29 33 37 41 45 49 53 57 61 65 69 73 77 81 85 89 93 97 101 105 109 113 117 121 125 129 133 137 141 145 149 153 157 161 165 169 173 177 181 185 189 193 197 201 205 209 213 217 221 225 229 233 237 241 245 249 253 257 261 265 269 273 0
-279 2 6 10 14 18 22 26 30 34 38 42 46 50 54 58 62 66 70 74 78 82 86 90 94 98 102 106 110 114 118 122 126 130 134 138 142 146 150 154 158 162 166 170 174 178 182 186 190 194 198 202 206 210 214 218 222 226 230 234 238 242 246 250 254 258 262 266 270 274 0
-280 3 7 11 15 19 23 27 31 35 39 43 47 51 55 59 63 67 71 75 79 83 87 91 95 99 103 107 111 115 119 123 127 131 135 139 143 147 151 155 159 163 167 171 175 179 183 187 191 195 199 203 207 211 215 219 223 227 231 235 239 243 247 251 255 259 263 267 271 275 0
-282 1 5 9 13 17 21 25 29 33 37 41 45 49 53 57 61 65 69 73 77 81 85 89 93 97 101 105 109 113 117 121 125 129 133 137 141 145 149 153 157 161 165 169 173 177 181 185 189 193 197 201 205 209 213 217 221 225 229 233 237 241 245 249 253 257 261 265 269 273 277 0
-283 2 6 10 14 18 22 26 30 34 38 42 46 50 54 58 62 66 70 74 78 82 86 90 94 98 102 106 110 114 118 122 126 130 134 138 142 146 150 154 158 162 166 170 174 178 182 186 190 194 198 202 206 210 214 218 222 226 230 234 238 242 246 250 254 258 262 266 270 274 278 0
-284 3 7 11 15 19 23 27 31 35 39 43 47 51 55 59 63 67 71 75 79 83 87 91 95 99 103 107 111 115 119 123 127 131 135 139 143 147 151 155 159 163 167 171 175 179 183 187 191 195 199 203 207 211 215 219 223 227 231 235 239 243 247 251 255 259 263 267 271 275 279 0
-286 1 5 9 13 17 21 25 29 33 37 41 45 49 53 57 61 65 69 73 77 81 85 89 93 97 101 105 109 113 117 121 125 129 133 137 141 145 149 153 157 161 165 169 173 177 181 185 189 193 197 201 205 209 213 217 221 225 229 233 237 241 245 249 253 257 261 265 269 273 277 281 0
-287 2 6 10 14 18 22 26 30 34 38 42 46 50 54 58 62 66 70 74 78 82 86 90 94 98 102 106 110 114 118 122 126 130 134 138 142 146 150 154 158 162 166 170 174 178 182 186 190 194 198 202 206 210 214 218 222 226 230 234 238 242 246 250 254 258 262 266 270 274 278 282 0
-288 3 7 11 15 19 23 27 31 35 39 43 47 51 55 59 63 67 71 75 79 83 87 91 95 99 103 107 111 115 119 123 127 131 135 139 143 147 151 155 159 163 167 171 175 179 183 187 191 195 199 203 207 211 215 219 223 227 231 235 239 243 247 251 255 259 263 267 271 275 279 283 0
-290 1 5 9 13 17 21 25 29 33 37 41 45 49 53 57 61 65 69 73 77 81 85 89 93 97 101 105 109 113 117 121 125 129 133 137 141 145 149 153 157 161 165 169 173 177 181 185 189 193 197 201 205 209 213 217 221 225 229 233 237 241 245 249 253 257 261 265 269 273 277 281 285 0
-291 2 6 10 14 18 22 26 30 34 38 42 46 50 54 58 62 66 70 74 78 82 86 90 94 98 102 106 110 114 118 122 126 130 134 138 142 146 150 154 158 162 166 170 174 178 182 186 190 194 198 202 206 210 214 218 222 226 230 234 238 242 246 250 254 258 262 266 270 274 278 282 286 0
-292 3 7 11 15 19 23 27 31 35 39 43 47 51 55 59 63 67 71 75 79 83 87 91 95 99 103 107 111 115 119 123 127 131 135 139 143 147 151 155 159 163 167 171 175 179 183 187 191 195 199 203 207 211 215 219 223 227 231 235 239 243 247 251 255 259 263 267 271 275 279 283 287 0
-294 1 5 9 13 17 21 25 29 33 37 41 45 49 53 57 61 65 69 73 77 81 85 89 93 97 101 105 109 113 117 121 125 129 133 137 141 145 149 153 157 161 165 169 173 177 181 185 189 193 197 201 205 209 213 217 221 225 229 233 237 241 245 249 253 257 261 265 269 273 277 281 285 289 0
-295 2 6 10 14 18 22 26 30 34 38 42 46 50 54 58 62 66 70 74 78 82 86 90 94 98 102 106 110 114 118 122 126 130 134 138 142 146 150 154 158 162 166 170 174 178 182 186 190 194 198 202 206 210 214 218 222 226 230 234 238 242 246 250 254 258 262 266 270 274 278 282 286 290 0
-296 3 7 11 15 19 23 27 31 35 39 43 47 51 55 59 63 67 71 75 79 83 87 91 95 99 103 107 111 115 119 123 127 131 135 139 143 147 151 155 159 163 167 171 175 179 183 187 191 195 199 203 207 211 215 219 223 227 231 235 239 243 247 251 255 259 263 267 271 275 279 283 287 291 0
-298 1 5 9 13 17 21 25 29 33 37 41 45 49 53 57 61 65 69 73 77 81 85 89 93 97 101 105 109 113 117 121 125 129 133 137 141 145 149 153 157 161 165 169 173 177 181 185 189 193 197 201 205 209 213 217 221 225 229 233 237 241 245 249 253 257 261 265 269 273 277 281 285 289 293 0
-299 2 6 10 14 18 22 26 30 34 38 42 46 50 54 58 62 66 70 74 78 82 86 90 94 98 102 106 110 114 118 122 126 130 134 138 142 146 150 154 158 162 166 170 174 178 182 186 190 194 198 202 206 210 214 218 222 226 230 234 238 242 246 250 254 258 262 266 270 274 278 282 286 290 294 0
-300 3 7 11 15 19 23 27 31 35 39 43 47 51 55 59 63 67 71 75 79 83 87 91 95 99 103 107 111 115 119 123 127 131 135 139 143 147 151 155 159 163 167 171 175 179 183 187 191 195 199 203 207 211 215 219 223 227 231 235 239 243 247 251 255 259 263 267 271 275 279 283 287 291 295 0
-302 1 5 9 13 17 21 25 29 33 37 41 45 49 53 57 61 65 69 73 77 81 85 89 93 97 101 105 109 113 117 121 125 129 133 137 141 145 149 153 157 161 165 169 173 177 181 185 189 193 197 201 205 209 213 217 221 225 229 233 237 241 245 249 253 257 261 265 269 273 277 281 285 289 293 297 0
-303 2 6 10 14 18 22 26 30 34 38 42 46 50 54 58 62 66 70 74 78 82 86 90 94 98 102 106 110 114 118 122 126 130 134 138 142 146 150 154 158 162 166 170 174 178 182 186 190 194 198 202 206 210 214 218 222 226 230 234 238 242 246 250 254 258 262 266 270 274 278 282 286 290 294 298 0
-304 3 7 11 15 19 23 27 31 35 39 43 47 51 55 59 63 67 71 75 79 83 87 91 95 99 103 107 111 115 119 123 127 131 135 139 143 147 151 155 159 163 167 171 175 179 183 187 191 195 199 203 207 211 215 219 223 227 231 235 239 243 247 251 255 259 263 267 271 275 279 283 287 291 295 299 0
-306 1 5 9 13 17 21 25 29 33 37 41 45 49 53 57 61 65 69 73 77 81 85 89 93 97 101 105 109 113 117 121 125 129 133 137 141 145 149 153 157 161 165 169 173 177 181 185 189 193 197 201 205 209 213 217 221 225 229 233 237 241 245 249 253 257 261 265 269 273 277 281 285 289 293 297 301 0
-307 2 6 10 14 18 22 26 30 34 38 42 46 50 54 58 62 66 70 74 78 82 86 90 94 98 102 106 110 114 118 122 126 130 134 138 142 146 150 154 158 162 166 170 174 178 182 186 190 194 198 202 206 210 214 218 222 226 230 234 238 242 246 250 254 258 262 266 270 274 278 282 286 290 294 298 302 0
-308 3 7 11 15 19 23 27 31 35 39 43 47 51 55 59 63 67 71 75 79 83 87 91 95 99 103 107 111 115 119 123 127 131 135 139 143 147 151 155 159 163 167 171 175 179 183 187 191 195 199 203 207 211 215 219 223 227 231 235 239 243 247 251 255 259 263 267 271 275 279 283 287 291 295 299 303 0
-310 1 5 9 13 17 21 25 29 33 37 41 45 49 53 57 61 65 69 73 77 81 85 89 93 97 101 105 109 113 117 121 125 129 133 137 141 145 149 153 157 161 165 169 173 177 181 185 189 193 197 201 205 209 213 217 221 225 229 233 237 241 245 249 253 257 261 265 269 273 277 281 285 289 293 297 301 305 0
-311 2 6 10 14 18 22 26 30 34 38 42 46 50 54 58 62 66 70 74 78 82 86 90 94 98 102 106 110 114 118 122 126 130 134 138 142 146 150 154 158 162 166 170 174 178 182 186 190 194 198 202 206 210 214 218 222 226 230 234 238 242 246 250 254 258 262 266 270 274 278 282 286 290 294 298 302 306 0
-312 3 7 11 15 19 23 27 31 35 39 43 47 51 55 59 63 67 71 75 79 83 87 91 95 99 103 107 111 115 119 123 127 131 135 139 143 147 151 155 159 163 167 171 175 179 183 187 191 195 199 203 207 211 215 219 223 227 231 235 239 243 247 251 255 259 263 267 271 275 279 283 287 291 295 299 303 307 0
-314 1 5 9 13 17 21 25 29 33 37 41 45 49 53 57 61 65 69 73 77 81 85 89 93 97 101 105 109 113 117 121 125 129 133 137 141 145 149 153 157 161 165 169 173 177 181 185 189 193 197 201 205 209 213 217 221 225 229 233 237 241 245 249 253 257 261 265 269 273 277 281 285 289 293 297 301 305 309 0
-315 2 6 10 14 18 22 26 30 34 38 42 46 50 54 58 62 66 70 74 78 82 86 90 94 98 102 106 110 114 118 122 126 130 134 138 142 146 150 154 158 162 166 170 174 178 182 186 190 194 198 202 206 210 214 218 222 226 230 234 238 242 246 250 254 258 262 266 270 274 278 282 286 290 294 298 302 306 310 0
-316 3 7 11 15 19 23 27 31 35 39 43 47 51 55 59 63 67 71 75 79 83 87 91 95 99 103 107 111 115 119 123 127 131 135 139 143 147 151 155 159 163 167 171 175 179 183 187 191 195 199 203 207 211 215 219 223 227 231 235 239 243 247 251 255 259 263 267 271 275 279 283 287 291 295 299 303 307 311 0
-318 1 5 9 13 17 21 25 29 33 37 41 45 49 53 57 61 65 69 73 77 81 85 89 93 97 101 105 109 113 117 121 125 129 133 137 141 145 149 153 157 161 165 169 173 177 181 185 189 193 197 201 205 209 213 217 221 225 229 233 237 241 245 249 253 257 261 265 269 273 277 281 285 289 293 297 301 305 309 313 0
-319 2 6 10 14 18 22 26 30 34 38 42 46 50 54 58 62 66 70 74 78 82 86 90 94 98 102 106 110 114 118 122 126 130 134 138 142 146 150 154 158 162 166 170 174 178 182 186 190 194 198 202 206 210 214 218 222 226 230 234 238 242 246 250 254 258 262 266 270 274 278 282 286 290 294 298 302 306 310 314 0
-320 3 7 11 15 19 23 27 31 35 39 43 47 51 55 59 63 67 71 75 79 83 87 91 95 99 103 107 111 115 119 123 127 131 135 139 143 147 151 155 159 163 167 171 175 179 183 187 191 195 199 203 207 211 215 219 223 227 231 235 239 243 247 251 255 259 263 267 271 275 279 283 287 291 295 299 303 307 311 315 0
-322 1 5 9 13 17 21 25 29 33 37 41 45 49 53 57 61 65 69 73 77 81 85 89 93 97 101 105 109 113 117 121 125 129 133 137 141 145 149 153 157 161 165 169 173 177 181 185 189 193 197 201 205 209 213 217 221 225 229 233 237 241 245 249 253 257 261 265 269 273 277 281 285 289 293 297 301 305 309 313 317 0
-323 2 6 10 14 18 22 26 30 34 38 42 46 50 54 58 62 66 70 74 78 82 86 90 94 98 102 106 110 114 118 122 126 130 134 138 142 146 150 154 158 162 166 170 174 178 182 186 190 194 198 202 206 210 214 218 222 226 230 234 238 242 246 250 254 258 262 266 270 274 278 282 286 290 294 298 302 306 310 314 318 0
-324 3 7 11 15 19 23 27 31 35 39 43 47 51 55 59 63 67 71 75 79 83 87 91 95 99 103 107 111 115 119 123 127 131 135 139 143 147 151 155 159 163 167 171 175 179 183 187 191 195 199 203 207 211 215 219 223 227 231 235 239 243 247 251 255 259 263 267 271 275 279 283 287 291 295 299 303 307 311 315 319 0
-326 1 5 9 13 17 21 25 29 33 37 41 45 49 53 57 61 65 69 73 77 81 85 89 93 97 101 105 109 113 117 121 125 129 133 137 141 145 149 153 157 161 165 169 173 177 181 185 189 193 197 201 205 209 213 217 221 225 229 233 237 241 245 249 253 257 261 265 269 273 277 281 285 289 293 297 301 305 309 313 317 321 0
-327 2 6 10 14 18 22 26 30 34 38 42 46 50 54 58 62 66 70 74 78 82 86 90 94 98 102 106 110 114 118 122 126 130 134 138 142 146 150 154 158 162 166 170 174 178 182 186 190 194 198 202 206 210 214 218 222 226 230 234 238 242 246 250 254 258 262 266 270 274 278 282 286 290 294 298 302 306 310 314 318 322 0
-328 3 7 11 15 19 23 27 31 35 39 43 47 51 55 59 63 67 71 75 79 83 87 91 95 99 103 107 111 115 119 123 127 131 135 139 143 147 151 155 159 163 167 171 175 179 183 187 191 195 199 203 207 211 215 219 223 227 231 235 239 243 247 251 255 259 263 267 271 275 279 283 287 291 295 299 303 307 311 315 319 323 0
-330 1 5 9 13 17 21 25 29 33 37 41 45 49 53 57 61 65 69 73 77 81 85 89 93 97 101 105 109 113 117 121 125 129 133 137 141 145 149 153 157 161 165 169 173 177 181 185 189 193 197 201 205 209 213 217 221 225 229 233 237 241 245 249 253 257 261 265 269 273 277 281 285 289 293 297 301 305 309 313 317 321 325 0
-331 2 6 10 14 18 22 26 30 34 38 42 46 50 54 58 62 66 70 74 78 82 86 90 94 98 102 106 110 114 118 122 126 130 134 138 142 146 150 154 158 162 166 170 174 178 182 186 190 194 198 202 206 210 214 218 222 226 230 234 238 242 246 250 254 258 262 266 270 274 278 282 286 290 294 298 302 306 310 314 318 322 326 0
-332 3 7 11 15 19 23 27 31 35 39 43 47 51 55 59 63 67 71 75 79 83 87 91 95 99 103 107 111 115 119 123 127 131 135 139 143 147 151 155 159 163 167 171 175 179 183 187 191 195 199 203 207 211 215 219 223 227 231 235 239 243 247 251 255 259 263 267 271 275 279 283 287 291 295 299 303 307 311 315 319 323 327 0
-334 1 5 9 13 17 21 25 29 33 37 41 45 49 53 57 61 65 69 73 77 81 85 89 93 97 101 105 109 113 117 121 125 129 133 137 141 145 149 153 157 161 165 169 173 177 181 185 189 193 197 201 205 209 213 217 221 225 229 233 237 241 245 249 253 257 261 265 269 273 277 281 285 289 293 297 301 305 309 313 317 321 325 329 0
-335 2 6 10 14 18 22 26 30 34 38 42 46 50 54 58 62 66 70 74 78 82 86 90 94 98 102 106 110 114 118 122 126 130 134 138 142 146 150 154 158 162 166 170 174 178 182 186 190 194 198 202 206 210 214 218 222 226 230 234 238 242 246 250 254 258 262 266 270 274 278 282 286 290 294 298 302 306 310 314 318 322 326 330 0
-336 3 7 11 15 19 23 27 31 35 39 43 47 51 55 59 63 67 71 75 79 83 87 91 95 99 103 107 111 115 119 123 127 131 135 139 143 147 151 155 159 163 167 171 175 179 183 187 191 195 199 203 207 211 215 219 223 227 231 235 239 243 247 251 255 259 263 267 271 275 279 283 287 291 295 299 303 307 311 315 319 323 327 331 0
-338 1 5 9 13 17 21 25 29 33 37 41 45 49 53 57 61 65 69 73 77 81 85 89 93 97 101 105 109 113 117 121 125 129 133 137 141 145 149 153 157 161 165 169 173 177 181 185 189 193 197 201 205 209 213 217 221 225 229 233 237 241 245 249 253 257 261 265 269 273 277 281 285 289 293 297 301 305 309 313 317 321 325 329 333 0
-339 2 6 10 14 18 22 26 30 34 38 42 46 50 54 58 62 66 70 74 78 82 86 90 94 98 102 106 110 114 118 122 126 130 134 138 142 146 150 154 158 162 166 170 174 178 182 186 190 194 198 202 206 210 214 218 222 226 230 234 238 242 246 250 254 258 262 266 270 274 278 282 286 290 294 298 302 306 310 314 318 322 326 330 334 0
-340 3 7 11 15 19 23 27 31 35 39 43 47 51 55 59 63 67 71 75 79 83 87 91 95 99 103 107 111 115 119 123 127 131 135 139 143 147 151 155 159 163 167 171 175 179 183 187 191 195 199 203 207 211 215 219 223 227 231 235 239 243 247 251 255 259 263 267 271 275 279 283 287 291 295 299 303 307 311 315 319 323 327 331 335 0
-342 1 5 9 13 17 21 25 29 33 37 41 45 49 53 57 61 65 69 73 77 81 85 89 93 97 101 105 109 113 117 121 125 129 133 137 141 145 149 153 157 161 165 169 173 177 181 185 189 193 197 201 205 209 213 217 221 225 229 233 237 241 245 249 253 257 261 265 269 273 277 281 285 289 293 297 301 305 309 313 317 321 325 329 333 337 0
-343 2 6 10 14 18 22 26 30 34 38 42 46 50 54 58 62 66 70 74 78 82 86 90 94 98 102 106 110 114 118 122 126 130 134 138 142 146 150 154 158 162 166 170 174 178 182 186 190 194 198 202 206 210 214 218 222 226 230 234 238 242 246 250 254 258 262 266 270 274 278 282 286 290 294 298 302 306 310 314 318 322 326 330 334 338 0
-344 3 7 11 15 19 23 27 31 35 39 43 47 51 55 59 63 67 71 75 79 83 87 91 95 99 103 107 111 115 119 123 127 131 135 139 143 147 151 155 159 163 167 171 175 179 183 187 191 195 199 203 207 211 215 219 223 227 231 235 239 243 247 251 255 259 263 267 271 275 279 283 287 291 295 299 303 307 311 315 319 323 327 331 335 339 0
-346 1 5 9 13 17 21 25 29 33 37 41 45 49 53 57 61 65 69 73 77 81 85 89 93 97 101 105 109 113 117 121 125 129 133 137 141 145 149 153 157 161 165 169 173 177 181 185 189 193 197 201 205 209 213 217 221 225 229 233 237 241 245 249 253 257 261 265 269 273 277 281 285 289 293 297 301 305 309 313 317 321 325 329 333 337 341 0
-347 2 6 10 14 18 22 26 30 34 38 42 46 50 54 58 62 66 70 74 78 82 86 90 94 98 102 106 110 114 118 122 126 130 134 138 142 146 150 154 158 162 166 170 174 178 182 186 190 194 198 202 206 210 214 218 222 226 230 234 238 242 246 250 254 258 262 266 270 274 278 282 286 290 294 298 302 306 310 314 318 322 326 330 334 338 342 0
-348 3 7 11 15 19 23 27 31 35 39 43 47 51 55 59 63 67 71 75 79 83 87 91 95 99 103 107 111 115 119 123 127 131 135 139 143 147 151 155 159 163 167 171 175 179 183 187 191 195 199 203 207 211 215 219 223 227 231 235 239 243 247 251 255 259 263 267 271 275 279 283 287 291 295 299 303 307 311 315 319 323 327 331 335 339 343 0
-350 1 5 9 13 17 21 25 29 33 37 41 45 49 53 57 61 65 69 73 77 81 85 89 93 97 101 105 109 113 117 121 125 129 133 137 141 145 149 153 157 161 165 169 173 177 181 185 189 193 197 201 205 209 213 217 221 225 229 233 237 241 245 249 253 257 261 265 269 273 277 281 285 289 293 297 301 305 309 313 317 321 325 329 333 337 341 345 0
-351 2 6 10 14 18 22 26 30 34 38 42 46 50 54 58 62 66 70 74 78 82 86 90 94 98 102 106 110 114 118 122 126 130 134 138 142 146 150 154 158 162 166 170 174 178 182 186 190 194 198 202 206 210 214 218 222 226 230 234 238 242 246 250 254 258 262 266 270 274 278 282 286 290 294 298 302 306 310 314 318 322 326 330 334 338 342 346 0
-352 3 7 11 15 19 23 27 31 35 39 43 47 51 55 59 63 67 71 75 79 83 87 91 95 99 103 107 111 115 119 123 127 131 135 139 143 147 151 155 159 163 167 171 175 179 183 187 191 195 199 203 207 211 215 219 223 227 231 235 239 243 247 251 255 259 263 267 271 275 279 283 287 291 295 299 303 307 311 315 319 323 327 331 335 339 343 347 0
-354 1 5 9 13 17 21 25 29 33 37 41 45 49 53 57 61 65 69 73 77 81 85 89 93 97 101 105 109 113 117 121 125 129 133 137 141 145 149 153 157 161 165 169 173 177 181 185 189 193 197 201 205 209 213 217 221 225 229 233 237 241 245 249 253 257 261 265 269 273 277 281 285 289 293 297 301 305 309 313 317 321 325 329 333 337 341 345 349 0
-355 2 6 10 14 18 22 26 30 34 38 42 46 50 54 58 62 66 70 74 78 82 86 90 94 98 102 106 110 114 118 122 126 130 134 138 142 146 150 154 158 162 166 170 174 178 182 186 190 194 198 202 206 210 214 218 222 226 230 234 238 242 246 250 254 258 262 266 270 274 278 282 286 290 294 298 302 306 310 314 318 322 326 330 334 338 342 346 350 0
-356 3 7 11 15 19 23 27 31 35 39 43 47 51 55 59 63 67 71 75 79 83 87 91 95 99 103 107 111 115 119 123 127 131 135 139 143 147 151 155 159 163 167 171 175 179 183 187 191 195 199 203 207 211 215 219 223 227 231 235 239 243 247 251 255 259 263 267 271 275 279 283 287 291 295 299 303 307 311 315 319 323 327 331 335 339 343 347 351 0
-358 1 5 9 13 17 21 25 29 33 37 41 45 49 53 57 61 65 69 73 77 81 85 89 93 97 101 105 109 113 117 121 125 129 133 137 141 145 149 153 157 161 165 169 173 177 181 185 189 193 197 201 205 209 213 217 221 225 229 233 237 241 245 249 253 257 261 265 269 273 277 281 285 289 293 297 301 305 309 313 317 321 325 329 333 337 341 345 349 353 0
-359 2 6 10 14 18 22 26 30 34 38 42 46 50 54 58 62 66 70 74 78 82 86 90 94 98 102 106 110 114 118 122 126 130 134 138 142 146 150 154 158 162 166 170 174 178 182 186 190 194 198 202 206 210 214 218 222 226 230 234 238 242 246 250 254 258 262 266 270 274 278 282 286 290 294 298 302 306 310 314 318 322 326 330 334 338 342 346 350 354 0
-360 3 7 11 15 19 23 27 31 35 39 43 47 51 55 59 63 67 71 75 79 83 87 91 95 99 103 107 111 115 119 123 127 131 135 139 143 147 151 155 159 163 167 171 175 179 183 187 191 195 199 203 207 211 215 219 223 227 231 235 239 243 247 251 255 259 263 267 271 275 279 283 287 291 295 299 303 307 311 315 319 323 327 331 335 339 343 347 351 355 0
-362 1 5 9 13 17 21 25 29 33 37 41 45 49 53 57 61 65 69 73 77 81 85 89 93 97 101 105 109 113 117 121 125 129 133 137 141 145 149 153 157 161 165 169 173 177 181 185 189 193 197 201 205 209 213 217 221 225 229 233 237 241 245 249 253 257 261 265 269 273 277 281 285 289 293 297 301 305 309 313 317 321 325 329 333 337 341 345 349 353 357 0
-363 2 6 10 14 18 22 26 30 34 38 42 46 50 54 58 62 66 70 74 78 82 86 90 94 98 102 106 110 114 118 122 126 130 134 138 142 146 150 154 158 162 166 170 174 178 182 186 190 194 198 202 206 210 214 218 222 226 230 234 238 242 246 250 254 258 262 266 270 274 278 282 286 290 294 298 302 306 310 314 318 322 326 330 334 338 342 346 350 354 358 0
-364 3 7 11 15 19 23 27 31 35 39 43 47 51 55 59 63 67 71 75 79 83 87 91 95 99 103 107 111 115 119 123 127 131 135 139 143 147 151 155 159 163 167 171 175 179 183 187 191 195 199 203 207 211 215 219 223 227 231 235 239 243 247 251 255 259 263 267 271 275 279 283 287 291 295 299 303 307 311 315 319 323 327 331 335 339 343 347 351 355 359 0
-366 1 5 9 13 17 21 25 29 33 37 41 45 49 53 57 61 65 69 73 77 81 85 89 93 97 101 105 109 113 117 121 125 129 133 137 141 145 149 153 157 161 165 169 173 177 181 185 189 193 197 201 205 209 213 217 221 225 229 233 237 241 245 249 253 257 261 265 269 273 277 281 285 289 293 297 301 305 309 313 317 321 325 329 333 337 341 345 349 353 357 361 0
-367 2 6 10 14 18 22 26 30 34 38 42 46 50 54 58 62 66 70 74 78 82 86 90 94 98 102 106 110 114 118 122 126 130 134 138 142 146 150 154 158 162 166 170 174 178 182 186 190 194 198 202 206 210 214 218 222 226 230 234 238 242 246 250 254 258 262 266 270 274 278 282 286 290 294 298 302 306 310 314 318 322 326 330 334 338 342 346 350 354 358 362 0
-368 3 7 11 15 19 23 27 31 35 39 43 47 51 55 59 63 67 71 75 79 83 87 91 95 99 103 107 111 115 119 123 127 131 135 139 143 147 151 155 159 163 167 171 175 179 183 187 191 195 199 203 207 211 215 219 223 227 231 235 239 243 247 251 255 259 263 267 271 275 279 283 287 291 295 299 303 307 311 315 319 323 327 331 335 339 343 347 351 355 359 363 0
-370 1 5 9 13 17 21 25 29 33 37 41 45 49 53 57 61 65 69 73 77 81 85 89 93 97 101 105 109 113 117 121 125 129 133 137 141 145 149 153 157 161 165 169 173 177 181 185 189 193 197 201 205 209 213 217 221 225 229 233 237 241 245 249 253 257 261 265 269 273 277 281 285 289 293 297 301 305 309 313 317 321 325 329 333 337 341 345 349 353 357 361 365 0
-371 2 6 10 14 18 22 26 30 34 38 42 46 50 54 58 62 66 70 74 78 82 86 90 94 98 102 106 110 114 118 122 126 130 134 138 142 146 150 154 158 162 166 170 174 178 182 186 190 194 198 202 206 210 214 218 222 226 230 234 238 242 246 250 254 258 262 266 270 274 278 282 286 290 294 298 302 306 310 314 318 322 326 330 334 338 342 346 350 354 358 362 366 0
-372 3 7 11 15 19 23 27 31 35 39 43 47 51 55 59 63 67 71 75 79 83 87 91 95 99 103 107 111 115 119 123 127 131 135 139 143 147 151 155 159 163 167 171 175 179 183 187 191 195 199 203 207 211 215 219 223 227 231 235 239 243 247 251 255 259 263 267 271 275 279 283 287 291 295 299 303 307 311 315 319 323 327 331 335 339 343 347 351 355 359 363 367 0
-374 1 5 9 13 17 21 25 29 33 37 41 45 49 53 57 61 65 69 73 77 81 85 89 93 97 101 105 109 113 117 121 125 129 133 137 141 145 149 153 157 161 165 169 173 177 181 185 189 193 197 201 205 209 213 217 221 225 229 233 237 241 245 249 253 257 261 265 269 273 277 281 285 289 293 297 301 305 309 313 317 321 325 329 333 337 341 345 349 353 357 361 365 369 0
-375 2 6 10 14 18 22 26 30 34 38 42 46 50 54 58 62 66 70 74 78 82 86 90 94 98 102 106 110 114 118 122 126 130 134 138 142 146 150 154 158 162 166 170 174 178 182 186 190 194 198 202 206 210 214 218 222 226 230 234 238 242 246 250 254 258 262 266 270 274 278 282 286 290 294 298 302 306 310 314 318 322 326 330 334 338 342 346 350 354 358 362 366 370 0
-376 3 7 11 15 19 23 27 31 35 39 43 47 51 55 59 63 67 71 75 79 83 87 91 95 99 103 107 111 115 119 123 127 131 135 139 143 147 151 155 159 163 167 171 175 179 183 187 191 195 199 203 207 211 215 219 223 227 231 235 239 243 247 251 255 259 263 267 271 275 279 283 287 291 295 299 303 307 311 315 319 323 327 331 335 339 343 347 351 355 359 363 367 371 0
-378 1 5 9 13 17 21 25 29 33 37 41 45 49 53 57 61 65 69 73 77 81 85 89 93 97 101 105 109 113 117 121 125 129 133 137 141 145 149 153 157 161 165 169 173 177 181 185 189 193 197 201 205 209 213 217 221 225 229 233 237 241 245 249 253 257 261 265 269 273 277 281 285 289 293 297 301 305 309 313 317 321 325 329 333 337 341 345 349 353 357 361 365 369 373 0
-379 2 6 10 14 18 22 26 30 34 38 42 46 50 54 58 62 66 70 74 78 82 86 90 94 98 102 106 110 114 118 122 126 130 134 138 142 146 150 154 158 162 166 170 174 178 182 186 190 194 198 202 206 210 214 218 222 226 230 234 238 242 246 250 254 258 262 266 270 274 278 282 286 290 294 298 302 306 310 314 318 322 326 330 334 338 342 346 350 354 358 362 366 370 374 0
-380 3 7 11 15 19 23 27 31 35 39 43 47 51 55 59 63 67 71 75 79 83 87 91 95 99 103 107 111 115 119 123 127 131 135 139 143 147 151 155 159 163 167 171 175 179 183 187 191 195 199 203 207 211 215 219 223 227 231 235 239 243 247 251 255 259 263 267 271 275 279 283 287 291 295 299 303 307 311 315 319 323 327 331 335 339 343 347 351 355 359 363 367 371 375 0
-382 1 5 9 13 17 21 25 29 33 37 41 45 49 53 57 61 65 69 73 77 81 85 89 93 97 101 105 109 113 117 121 125 129 133 137 141 145 149 153 157 161 165 169 173 177 181 185 189 193 197 201 205 209 213 217 221 225 229 233 237 241 245 249 253 257 261 265 269 273 277 281 285 289 293 297 301 305 309 313 317 321 325 329 333 337 341 345 349 353 357 361 365 369 373 377 0
-383 2 6 10 14 18 22 26 30 34 38 42 46 50 54 58 62 66 70 74 78 82 86 90 94 98 102 106 110 114 118 122 126 130 134 138 142 146 150 154 158 162 166 170 174 178 182 186 190 194 198 202 206 210 214 218 222 226 230 234 238 242 246 250 254 258 262 266 270 274 278 282 286 290 294 298 302 306 310 314 318 322 326 330 334 338 342 346 350 354 358 362 366 370 374 378 0
-384 3 7 11 15 19 23 27 31 35 39 43 47 51 55 59 63 67 71 75 79 83 87 91 95 99 103 107 111 115 119 123 127 131 135 139 143 147 151 155 159 163 167 171 175 179 183 187 191 195 199 203 207 211 215 219 223 227 231 235 239 243 247 251 255 259 263 267 271 275 279 283 287 291 295 299 303 307 311 315 319 323 327 331 335 339 343 347 351 355 359 363 367 371 375 379 0
-386 1 5 9 13 17 21 25 29 33 37 41 45 49 53 57 61 65 69 73 77 81 85 89 93 97 101 105 109 113 117 121 125 129 133 137 141 145 149 153 157 161 165 169 173 177 181 185 189 193 197 201 205 209 213 217 221 225 229 233 237 241 245 249 253 257 261 265 269 273 277 281 285 289 293 297 301 305 309 313 317 321 325 329 333 337 341 345 349 353 357 361 365 369 373 377 381 0
-387 2 6 10 14 18 22 26 30 34 38 42 46 50 54 58 62 66 70 74 78 82 86 90 94 98 102 106 110 114 118 122 126 130 134 138 142 146 150 154 158 162 166 170 174 178 182 186 190 194 198 202 206 210 214 218 222 226 230 234 238 242 246 250 254 258 262 266 270 274 278 282 286 290 294 298 302 306 310 314 318 322 326 330 334 338 342 346 350 354 358 362 366 370 374 378 382 0
-388 3 7 11 15 19 23 27 31 35 39 43 47 51 55 59 63 67 71 75 79 83 87 91 95 99 103 107 111 115 119 123 127 131 135 139 143 147 151 155 159 163 167 171 175 179 183 187 191 195 199 203 207 211 215 219 223 227 231 235 239 243 247 251 255 259 263 267 271 275 279 283 287 291 295 299 303 307 311 315 319 323 327 331 335 339 343 347 351 355 359 363 367 371 375 379 383 0
-390 1 5 9 13 17 21 25 29 33 37 41 45 49 53 57 61 65 69 73 77 81 85 89 93 97 101 105 109 113 117 121 125 129 133 137 141 145 149 153 157 161 165 169 173 177 181 185 189 193 197 201 205 209 213 217 221 225 229 233 237 241 245 249 253 257 261 265 269 273 277 281 285 289 293 297 301 305 309 313 317 321 325 329 333 337 341 345 349 353 357 361 365 369 373 377 381 385 0
-391 2 6 10 14 18 22 26 30 34 38 42 46 50 54 58 62 66 70 74 78 82 86 90 94 98 102 106 110 114 118 122 126 130 134 138 142 146 150 154 158 162 166 170 174 178 182 186 190 194 198 202 206 210 214 218 222 226 230 234 238 242 246 250 254 258 262 266 270 274 278 282 286 290 294 298 302 306 310 314 318 322 326 330 334 338 342 346 350 354 358 362 366 370 374 378 382 386 0
-392 3 7 11 15 19 23 27 31 35 39 43 47 51 55 59 63 67 71 75 79 83 87 91 95 99 103 107 111 115 119 123 127 131 135 139 143 147 151 155 159 163 167 171 175 179 183 187 191 195 199 203 207 211 215 219 223 227 231 235 239 243 247 251 255 259 263 267 271 275 279 283 287 291 295 299 303 307 311 315 319 323 327 331 335 339 343 347 351 355 359 363 367 371 375 379 383 387 0
-394 1 5 9 13 17 21 25 29 33 37 41 45 49 53 57 61 65 69 73 77 81 85 89 93 97 101 105 109 113 117 121 125 129 133 137 141 145 149 153 157 161 165 169 173 177 181 185 189 193 197 201 205 209 213 217 221 225 229 233 237 241 245 249 253 257 261 265 269 273 277 281 285 289 293 297 301 305 309 313 317 321 325 329 333 337 341 345 349 353 357 361 365 369 373 377 381 385 389 0
-395 2 6 10 14 18 22 26 30 34 38 42 46 50 54 58 62 66 70 74 78 82 86 90 94 98 102 106 110 114 118 122 126 130 134 138 142 146 150 154 158 162 166 170 174 178 182 186 190 194 198 202 206 210 214 218 222 226 230 234 238 242 246 250 254 258 262 266 270 274 278 282 286 290 294 298 302 306 310 314 318 322 326 330 334 338 342 346 350 354 358 362 366 370 374 378 382 386 390 0
-396 3 7 11 15 19 23 27 31 35 39 43 47 51 55 59 63 67 71 75 79 83 87 91 95 99 103 107 111 115 119 123 127 131 135 139 143 147 151 155 159 163 167 171 175 179 183 187 191 195 199 203 207 211 215 219 223 227 231 235 239 243 247 251 255 259 263 267 271 275 279 283 287 291 295 299 303 307 311 315 319 323 327 331 335 339 343 347 351 355 359 363 367 371 375 379 383 387 391 0
-398 1 5 9 13 17 21 25 29 33 37 41 45 49 53 57 61 65 69 73 77 81 85 89 93 97 101 105 109 113 117 121 125 129 133 137 141 145 149 153 157 161 165 169 173 177 181 185 189 193 197 201 205 209 213 217 221 225 229 233 237 241 245 249 253 257 261 265 269 273 277 281 285 289 293 297 301 305 309 313 317 321 325 329 333 337 341 345 349 353 357 361 365 369 373 377 381 385 389 393 0
-399 2 6 10 14 18 22 26 30 34 38 42 46 50 54 58 62 66 70 74 78 82 86 90 94 98 102 106 110 114 118 122 126 130 134 138 142 146 150 154 158 162 166 170 174 178 182 186 190 194 198 202 206 210 214 218 222 226 230 234 238 242 246 250 254 258 262 266 270 274 278 282 286 290 294 298 302 306 310 314 318 322 326 330 334 338 342 346 350 354 358 362 366 370 374 378 382 386 390 394 0
-400 3 7 11 15 19 23 27 31 35 39 43 47 51 55 59 63 67 71 75 79 83 87 91 95 99 103 107 111 115 119 123 127 131 135 139 143 147 151 155 159 163 167 171 175 179 183 187 191 195 199 203 207 211 215 219 223 227 231 235 239 243 247 251 255 259 263 267 271 275 279 283 287 291 295 299 303 307 311 315 319 323 327 331 335 339 343 347 351 355 359 363 367 371 375 379 383 387 391 395 0
-402 1 5 9 13 17 21 25 29 33 37 41 45 49 53 57 61 65 69 73 77 81 85 89 93 97 101 105 109 113 117 121 125 129 133 137 141 145 149 153 157 161 165 169 173 177 181 185 189 193 197 201 205 209 213 217 221 225 229 233 237 241 245 249 253 257 261 265 269 273 277 281 285 289 293 297 301 305 309 313 317 321 325 329 333 337 341 345 349 353 357 361 365 369 373 377 381 385 389 393 397 0
-403 2 6 10 14 18 22 26 30 34 38 42 46 50 54 58 62 66 70 74 78 82 86 90 94 98 102 106 110 114 118 122 126 130 134 138 142 146 150 154 158 162 166 170 174 178 182 186 190 194 198 202 206 210 214 218 222 226 230 234 238 242 246 250 254 258 262 266 270 274 278 282 286 290 294 298 302 306 310 314 318 322 326 330 334 338 342 346 350 354 358 362 366 370 374 378 382 386 390 394 398 0
-404 3 7 11 15 19 23 27 31 35 39 43 47 51 55 59 63 67 71 75 79 83 87 91 95 99 103 107 111 115 119 123 127 131 135 139 143 147 151 155 159 163 167 171 175 179 183 187 191 195 199 203 207 211 215 219 223 227 231 235 239 243 247 251 255 259 263 267 271 275 279 283 287 291 295 299 303 307 311 315 319 323 327 331 335 339 343 347 351 355 359 363 367 371 375 379 383 387 391 395 399 0
-406 1 5 9 13 17 21 25 29 33 37 41 45 49 53 57 61 65 69 73 77 81 85 89 93 97 101 105 109 113 117 121 125 129 133 137 141 145 149 153 157 161 165 169 173 177 181 185 189 193 197 201 205 209 213 217 221 225 229 233 237 241 245 249 253 257 261 265 269 273 277 281 285 289 293 297 301 305 309 313 317 321 325 329 333 337 341 345 349 353 357 361 365 369 373 377 381 385 389 393 397 401 0
-407 2 6 10 14 18 22 26 30 34 38 42 46 50 54 58 62 66 70 74 78 82 86 90 94 98 102 106 110 114 118 122 126 130 134 138 142 146 150 154 158 162 166 170 174 178 182 186 190 194 198 202 206 210 214 218 222 226 230 234 238 242 246 250 254 258 262 266 270 274 278 282 286 290 294 298 302 306 310 314 318 322 326 330 334 338 342 346 350 354 358 362 366 370 374 378 382 386 390 394 398 402 0
-408 3 7 11 15 19 23 27 31 35 39 43 47 51 55 59 63 67 71 75 79 83 87 91 95 99 103 107 111 115 119 123 127 131 135 139 143 147 151 155 159 163 167 171 175 179 183 187 191 195 199 203 207 211 215 219 223 227 231 235 239 243 247 251 255 259 263 267 271 275 279 283 287 291 295 299 303 307 311 315 319 323 327 331 335 339 343 347 351 355 359 363 367 371 375 379 383 387 391 395 399 403 0
-410 1 5 9 13 17 21 25 29 33 37 41 45 49 53 57 61 65 69 73 77 81 85 89 93 97 101 105 109 113 117 121 125 129 133 137 141 145 149 153 157 161 165 169 173 177 181 185 189 193 197 201 205 209 213 217 221 225 229 233 237 241 245 249 253 257 261 265 269 273 277 281 285 289 293 297 301 305 309 313 317 321 325 329 333 337 341 345 349 353 357 361 365 369 373 377 381 385 389 393 397 401 405 0
-411 2 6 10 14 18 22 26 30 34 38 42 46 50 54 58 62 66 70 74 78 82 86 90 94 98 102 106 110 114 118 122 126 130 134 138 142 146 150 154 158 162 166 170 174 178 182 186 190 194 198 202 206 210 214 218 222 226 230 234 238 242 246 250 254 258 262 266 270 274 278 282 286 290 294 298 302 306 310 314 318 322 326 330 334 338 342 346 350 354 358 362 366 370 374 378 382 386 390 394 398 402 406 0
-412 3 7 11 15 19 23 27 31 35 39 43 47 51 55 59 63 67 71 75 79 83 87 91 95 99 103 107 111 115 119 123 127 131 135 139 143 147 151 155 159 163 167 171 175 179 183 187 191 195 199 203 207 211 215 219 223 227 231 235 239 243 247 251 255 259 263 267 271 275 279 283 287 291 295 299 303 307 311 315 319 323 327 331 335 339 343 347 351 355 359 363 367 371 375 379 383 387 391 395 399 403 407 0
-414 1 5 9 13 17 21 25 29 33 37 41 45 49 53 57 61 65 69 73 77 81 85 89 93 97 101 105 109 113 117 121 125 129 133 137 141 145 149 153 157 161 165 169 173 177 181 185 189 193 197 201 205 209 213 217 221 225 229 233 237 241 245 249 253 257 261 265 269 273 277 281 285 289 293 297 301 305 309 313 317 321 325 329 333 337 341 345 349 353 357 361 365 369 373 377 381 385 389 393 397 401 405 409 0
-415 2 6 10 14 18 22 26 30 34 38 42 46 50 54 58 62 66 70 74 78 82 86 90 94 98 102 106 110 114 118 122 126 130 134 138 142 146 150 154 158 162 166 170 174 178 182 186 190 194 198 202 206 210 214 218 222 226 230 234 238 242 246 250 254 258 262 266 270 274 278 282 286 290 294 298 302 306 310 314 318 322 326 330 334 338 342 346 350 354 358 362 366 370 374 378 382 386 390 394 398 402 406 410 0
-416 3 7 11 15 19 23 27 31 35 39 43 47 51 55 59 63 67 71 75 79 83 87 91 95 99 103 107 111 115 119 123 127 131 135 139 143 147 151 155 159 163 167 171 175 179 183 187 191 195 199 203 207 211 215 219 223 227 231 235 239 243 247 251 255 259 263 267 271 275 279 283 287 291 295 299 303 307 311 315 319 323 327 331 335 339 343 347 351 355 359 363 367 371 375 379 383 387 391 395 399 403 407 411 0
-418 1 5 9 13 17 21 25 29 33 37 41 45 49 53 57 61 65 69 73 77 81 85 89 93 97 101 105 109 113 117 121 125 129 133 137 141 145 149 153 157 161 165 169 173 177 181 185 189 193 197 201 205 209 213 217 221 225 229 233 237 241 245 249 253 257 261 265 269 273 277 281 285 289 293 297 301 305 309 313 317 321 325 329 333 337 341 345 349 353 357 361 365 369 373 377 381 385 389 393 397 401 405 409 413 0
-419 2 6 10 14 18 22 26 30 34 38 42 46 50 54 58 62 66 70 74 78 82 86 90 94 98 102 106 110 114 118 122 126 130 134 138 142 146 150 154 158 162 166 170 174 178 182 186 190 194 198 202 206 210 214 218 222 226 230 234 238 242 246 250 254 258 262 266 270 274 278 282 286 290 294 298 302 306 310 314 318 322 326 330 334 338 342 346 350 354 358 362 366 370 374 378 382 386 390 394 398 402 406 410 414 0
-420 3 7 11 15 19 23 27 31 35 39 43 47 51 55 59 63 67 71 75 79 83 87 91 95 99 103 107 111 115 119 123 127 131 135 139 143 147 151 155 159 163 167 171 175 179 183 187 191 195 199 203 207 211 215 219 223 227 231 235 239 243 247 251 255 259 263 267 271 275 279 283 287 291 295 299 303 307 311 315 319 323 327 331 335 339 343 347 351 355 359 363 367 371 375 379 383 387 391 395 399 403 407 411 415 0
-422 1 5 9 13 17 21 25 29 33 37 41 45 49 53 57 61 65 69 73 77 81 85 89 93 97 101 105 109 113 117 121 125 129 133 137 141 145 149 153 157 161 165 169 173 177 181 185 189 193 197 201 205 209 213 217 221 225 229 233 237 241 245 249 253 257 261 265 269 273 277 281 285 289 293 297 301 305 309 313 317 321 325 329 333 337 341 345 349 353 357 361 365 369 373 377 381 385 389 393 397 401 405 409 413 417 0
-423 2 6 10 14 18 22 26 30 34 38 42 46 50 54 58 62 66 70 74 78 82 86 90 94 98 102 106 110 114 118 122 126 130 134 138 142 146 150 154 158 162 166 170 174 178 182 186 190 194 198 202 206 210 214 218 222 226 230 234 238 242 246 250 254 258 262 266 270 274 278 282 286 290 294 298 302 306 310 314 318 322 326 330 334 338 342 346 350 354 358 362 366 370 374 378 382 386 390 394 398 402 406 410 414 418 0
-424 3 7 11 15 19 23 27 31 35 39 43 47 51 55 59 63 67 71 75 79 83 87 91 95 99 103 107 111 115 119 123 127 131 135 139 143 147 151 155 159 163 167 171 175 179 183 187 191 195 199 203 207 211 215 219 223 227 231 235 239 243 247 251 255 259 263 267 271 275 279 283 287 291 295 299 303 307 311 315 319 323 327 331 335 339 343 347 351 355 359 363 367 371 375 379 383 387 391 395 399 403 407 411 415 419 0
-426 1 5 9 13 17 21 25 29 33 37 41 45 49 53 57 61 65 69 73 77 81 85 89 93 97 101 105 109 113 117 121 125 129 133 137 141 145 149 153 157 161 165 169 173 177 181 185 189 193 197 201 205 209 213 217 221 225 229 233 237 241 245 249 253 257 261 265 269 273 277 281 285 289 293 297 301 305 309 313 317 321 325 329 333 337 341 345 349 353 357 361 365 369 373 377 381 385 389 393 397 401 405 409 413 417 421 0
-427 2 6 10 14 18 22 26 30 34 38 42 46 50 54 58 62 66 70 74 78 82 86 90 94 98 102 106 110 114 118 122 126 130 134 138 142 146 150 154 158 162 166 170 174 178 182 186 190 194 198 202 206 210 214 218 222 226 230 234 238 242 246 250 254 258 262 266 270 274 278 282 286 290 294 298 302 306 310 314 318 322 326 330 334 338 342 346 350 354 358 362 366 370 374 378 382 386 390 394 398 402 406 410 414 418 422 0
-428 3 7 11 15 19 23 27 31 35 39 43 47 51 55 59 63 67 71 75 79 83 87 91 95 99 103 107 111 115 119 123 127 131 135 139 143 147 151 155 159 163 167 171 175 179 183 187 191 195 199 203 207 211 215 219 223 227 231 235 239 243 247 251 255 259 263 267 271 275 279 283 287 291 295 299 303 307 311 315 319 323 327 331 335 339 343 347 351 355 359 363 367 371 375 379 383 387 391 395 399 403 407 411 415 419 423 0
-430 1 5 9 13 17 21 25 29 33 37 41 45 49 53 57 61 65 69 73 77 81 85 89 93 97 101 105 109 113 117 121 125 129 133 137 141 145 149 153 157 161 165 169 173 177 181 185 189 193 197 201 205 209 213 217 221 225 229 233 237 241 245 249 253 257 261 265 269 273 277 281 285 289 293 297 301 305 309 313 317 321 325 329 333 337 341 345 349 353 357 361 365 369 373 377 381 385 389 393 397 401 405 409 413 417 421 425 0
-431 2 6 10 14 18 22 26 30 34 38 42 46 50 54 58 62 66 70 74 78 82 86 90 94 98 102 106 110 114 118 122 126 130 134 138 142 146 150 154 158 162 166 170 174 178 182 186 190 194 198 202 206 210 214 218 222 226 230 234 238 242 246 250 254 258 262 266 270 274 278 282 286 290 294 298 302 306 310 314 318 322 326 330 334 338 342 346 350 354 358 362 366 370 374 378 382 386 390 394 398 402 406 410 414 418 422 426 0
-432 3 7 11 15 19 23 27 31 35 39 43 47 51 55 59 63 67 71 75 79 83 87 91 95 99 103 107 111 115 119 123 127 131 135 139 143 147 151 155 159 163 167 171 175 179 183 187 191 195 199 203 207 211 215 219 223 227 231 235 239 243 247 251 255 259 263 267 271 275 279 283 287 291 295 299 303 307 311 315 319 323 327 331 335 339 343 347 351 355 359 363 367 371 375 379 383 387 391 395 399 403 407 411 415 419 423 427 0
-434 1 5 9 13 17 21 25 29 33 37 41 45 49 53 57 61 65 69 73 77 81 85 89 93 97 101 105 109 113 117 121 125 129 133 137 141 145 149 153 157 161 165 169 173 177 181 185 189 193 197 201 205 209 213 217 221 225 229 233 237 241 245 249 253 257 261 265 269 273 277 281 285 289 293 297 301 305 309 313 317 321 325 329 333 337 341 345 349 353 357 361 365 369 373 377 381 385 389 393 397 401 405 409 413 417 421 425 429 0
-435 2 6 10 14 18 22 26 30 34 38 42 46 50 54 58 62 66 70 74 78 82 86 90 94 98 102 106 110 114 118 122 126 130 134 138 142 146 150 154 158 162 166 170 174 178 182 186 190 194 198 202 206 210 214 218 222 226 230 234 238 242 246 250 254 258 262 266 270 274 278 282 286 290 294 298 302 306 310 314 318 322 326 330 334 338 342 346 350 354 358 362 366 370 374 378 382 386 390 394 398 402 406 410 414 418 422 426 430 0
-436 3 7 11 15 19 23 27 31 35 39 43 47 51 55 59 63 67 71 75 79 83 87 91 95 99 103 107 111 115 119 123 127 131 135 139 143 147 151 155 159 163 167 171 175 179 183 187 191 195 199 203 207 211 215 219 223 227 231 235 239 243 247 251 255 259 263 267 271 275 279 283 287 291 295 299 303 307 311 315 319 323 327 331 335 339 343 347 351 355 359 363 367 371 375 379 383 387 391 395 399 403 407 411 415 419 423 427 431 0
-438 1 5 9 13 17 21 25 29 33 37 41 45 49 53 57 61 65 69 73 77 81 85 89 93 97 101 105 109 113 117 121 125 129 133 137 141 145 149 153 157 161 165 169 173 177 181 185 189 193 197 201 205 209 213 217 221 225 229 233 237 241 245 249 253 257 261 265 269 273 277 281 285 289 293 297 301 305 309 313 317 321 325 329 333 337 341 345 349 353 357 361 365 369 373 377 381 385 389 393 397 401 405 409 413 417 421 425 429 433 0
-439 2 6 10 14 18 22 26 30 34 38 42 46 50 54 58 62 66 70 74 78 82 86 90 94 98 102 106 110 114 118 122 126 130 134 138 142 146 150 154 158 162 166 170 174 178 182 186 190 194 198 202 206 210 214 218 222 226 230 234 238 242 246 250 254 258 262 266 270 274 278 282 286 290 294 298 302 306 310 314 318 322 326 330 334 338 342 346 350 354 358 362 366 370 374 378 382 386 390 394 398 402 406 410 414 418 422 426 430 434 0
-440 3 7 11 15 19 23 27 31 35 39 43 47 51 55 59 63 67 71 75 79 83 87 91 95 99 103 107 111 115 119 123 127 131 135 139 143 147 151 155 159 163 167 171 175 179 183 187 191 195 199 203 207 211 215 219 223 227 231 235 239 243 247 251 255 259 263 267 271 275 279 283 287 291 295 299 303 307 311 315 319 323 327 331 335 339 343 347 351 355 359 363 367 371 375 379 383 387 391 395 399 403 407 411 415 419 423 427 431 435 0
-442 1 5 9 13 17 21 25 29 33 37 41 45 49 53 57 61 65 69 73 77 81 85 89 93 97 101 105 109 113 117 121 125 129 133 137 141 145 149 153 157 161 165 169 173 177 181 185 189 193 197 201 205 209 213 217 221 225 229 233 237 241 245 249 253 257 261 265 269 273 277 281 285 289 293 297 301 305 309 313 317 321 325 329 333 337 341 345 349 353 357 361 365 369 373 377 381 385 389 393 397 401 405 409 413 417 421 425 429 433 437 0
-443 2 6 10 14 18 22 26 30 34 38 42 46 50 54 58 62 66 70 74 78 82 86 90 94 98 102 106 110 114 118 122 126 130 134 138 142 146 150 154 158 162 166 170 174 178 182 186 190 194 198 202 206 210 214 218 222 226 230 234 238 242 246 250 254 258 262 266 270 274 278 282 286 290 294 298 302 306 310 314 318 322 326 330 334 338 342 346 350 354 358 362 366 370 374 378 382 386 390 394 398 402 406 410 414 418 422 426 430 434 438 0
-444 3 7 11 15 19 23 27 31 35 39 43 47 51 55 59 63 67 71 75 79 83 87 91 95 99 103 107 111 115 119 123 127 131 135 139 143 147 151 155 159 163 167 171 175 179 183 187 191 195 199 203 207 211 215 219 223 227 231 235 239 243 247 251 255 259 263 267 271 275 279 283 287 291 295 299 303 307 311 315 319 323 327 331 335 339 343 347 351 355 359 363 367 371 375 379 383 387 391 395 399 403 407 411 415 419 423 427 431 435 439 0
-446 1 5 9 13 17 21 25 29 33 37 41 45 49 53 57 61 65 69 73 77 81 85 89 93 97 101 105 109 113 117 121 125 129 133 137 141 145 149 153 157 161 165 169 173 177 181 185 189 193 197 201 205 209 213 217 221 225 229 233 237 241 245 249 253 257 261 265 269 273 277 281 285 289 293 297 301 305 309 313 317 321 325 329 333 337 341 345 349 353 357 361 365 369 373 377 381 385 389 393 397 401 405 409 413 417 421 425 429 433 437 441 0
-447 2 6 10 14 18 22 26 30 34 38 42 46 50 54 58 62 66 70 74 78 82 86 90 94 98 102 106 110 114 118 122 126 130 134 138 142 146 150 154 158 162 166 170 174 178 182 186 190 194 198 202 206 210 214 218 222 226 230 234 238 242 246 250 254 258 262 266 270 274 278 282 286 290 294 298 302 306 310 314 318 322 326 330 334 338 342 346 350 354 358 362 366 370 374 378 382 386 390 394 398 402 406 410 414 418 422 426 430 434 438 442 0
-448 3 7 11 15 19 23 27 31 35 39 43 47 51 55 59 63 67 71 75 79 83 87 91 95 99 103 107 111 115 119 123 127 131 135 139 143 147 151 155 159 163 167 171 175 179 183 187 191 195 199 203 207 211 215 219 223 227 231 235 239 243 247 251 255 259 263 267 271 275 279 283 287 291 295 299 303 307 311 315 319 323 327 331 335 339 343 347 351 355 359 363 367 371 375 379 383 387 391 395 399 403 407 411 415 419 423 427 431 435 439 443 0
-450 1 5 9 13 17 21 25 29 33 37 41 45 49 53 57 61 65 69 73 77 81 85 89 93 97 101 105 109 113 117 121 125 129 133 137 141 145 149 153 157 161 165 169 173 177 181 185 189 193 197 201 205 209 213 217 221 225 229 233 237 241 245 249 253 257 261 265 269 273 277 281 285 289 293 297 301 305 309 313 317 321 325 329 333 337 341 345 349 353 357 361 365 369 373 377 381 385 389 393 397 401 405 409 413 417 421 425 429 433 437 441 445 0
-451 2 6 10 14 18 22 26 30 34 38 42 46 50 54 58 62 66 70 74 78 82 86 90 94 98 102 106 110 114 118 122 126 130 134 138 142 146 150 154 158 162 166 170 174 178 182 186 190 194 198 202 206 210 214 218 222 226 230 234 238 242 246 250 254 258 262 266 270 274 278 282 286 290 294 298 302 306 310 314 318 322 326 330 334 338 342 346 350 354 358 362 366 370 374 378 382 386 390 394 398 402 406 410 414 418 422 426 430 434 438 442 446 0
-452 3 7 11 15 19 23 27 31 35 39 43 47 51 55 59 63 67 71 75 79 83 87 91 95 99 103 107 111 115 119 123 127 131 135 139 143 147 151 155 159 163 167 171 175 179 183 187 191 195 199 203 207 211 215 219 223 227 231 235 239 243 247 251 255 259 263 267 271 275 279 283 287 291 295 299 303 307 311 315 319 323 327 331 335 339 343 347 351 355 359 363 367 371 375 379 383 387 391 395 399 403 407 411 415 419 423 427 431 435 439 443 447 0
-454 1 5 9 13 17 21 25 29 33 37 41 45 49 53 57 61 65 69 73 77 81 85 89 93 97 101 105 109 113 117 121 125 129 133 137 141 145 149 153 157 161 165 169 173 177 181 185 189 193 197 201 205 209 213 217 221 225 229 233 237 241 245 249 253 257 261 265 269 273 277 281 285 289 293 297 301 305 309 313 317 321 325 329 333 337 341 345 349 353 357 361 365 369 373 377 381 385 389 393 397 401 405 409 413 417 421 425 429 433 437 441 445 449 0
-455 2 6 10 14 18 22 26 30 34 38 42 46 50 54 58 62 66 70 74 78 82 86 90 94 98 102 106 110 114 118 122 126 130 134 138 142 146 150 154 158 162 166 170 174 178 182 186 190 194 198 202 206 210 214 218 222 226 230 234 238 242 246 250 254 258 262 266 270 274 278 282 286 290 294 298 302 306 310 314 318 322 326 330 334 338 342 346 350 354 358 362 366 370 374 378 382 386 390 394 398 402 406 410 414 418 422 426 430 434 438 442 446 450 0
-456 3 7 11 15 19 23 27 31 35 39 43 47 51 55 59 63 67 71 75 79 83 87 91 95 99 103 107 111 115 119 123 127 131 135 139 143 147 151 155 159 163 167 171 175 179 183 187 191 195 199 203 207 211 215 219 223 227 231 235 239 243 247 251 255 259 263 267 271 275 279 283 287 291 295 299 303 307 311 315 319 323 327 331 335 339 343 347 351 355 359 363 367 371 375 379 383 387 391 395 399 403 407 411 415 419 423 427 431 435 439 443 447 451 0
-458 1 5 9 13 17 21 25 29 33 37 41 45 49 53 57 61 65 69 73 77 81 85 89 93 97 101 105 109 113 117 121 125 129 133 137 141 145 149 153 157 161 165 169 173 177 181 185 189 193 197 201 205 209 213 217 221 225 229 233 237 241 245 249 253 257 261 265 269 273 277 281 285 289 293 297 301 305 309 313 317 321 325 329 333 337 341 345 349 353 357 361 365 369 373 377 381 385 389 393 397 401 405 409 413 417 421 425 429 433 437 441 445 449 453 0
-459 2 6 10 14 18 22 26 30 34 38 42 46 50 54 58 62 66 70 74 78 82 86 90 94 98 102 106 110 114 118 122 126 130 134 138 142 146 150 154 158 162 166 170 174 178 182 186 190 194 198 202 206 210 214 218 222 226 230 234 238 242 246 250 254 258 262 266 270 274 278 282 286 290 294 298 302 306 310 314 318 322 326 330 334 338 342 346 350 354 358 362 366 370 374 378 382 386 390 394 398 402 406 410 414 418 422 426 430 434 438 442 446 450 454 0
-460 3 7 11 15 19 23 27 31 35 39 43 47 51 55 59 63 67 71 75 79 83 87 91 95 99 103 107 111 115 119 123 127 131 135 139 143 147 151 155 159 163 167 171 175 179 183 187 191 195 199 203 207 211 215 219 223 227 231 235 239 243 247 251 255 259 263 267 271 275 279 283 287 291 295 299 303 307 311 315 319 323 327 331 335 339 343 347 351 355 359 363 367 371 375 379 383 387 391 395 399 403 407 411 415 419 423 427 431 435 439 443 447 451 455 0
-462 1 5 9 13 17 21 25 29 33 37 41 45 49 53 57 61 65 69 73 77 81 85 89 93 97 101 105 109 113 117 121 125 129 133 137 141 145 149 153 157 161 165 169 173 177 181 185 189 193 197 201 205 209 213 217 221 225 229 233 237 241 245 249 253 257 261 265 269 273 277 281 285 289 293 297 301 305 309 313 317 321 325 329 333 337 341 345 349 353 357 361 365 369 373 377 381 385 389 393 397 401 405 409 413 417 421 425 429 433 437 441 445 449 453 457 0
-463 2 6 10 14 18 22 26 30 34 38 42 46 50 54 58 62 66 70 74 78 82 86 90 94 98 102 106 110 114 118 122 126 130 134 138 142 146 150 154 158 162 166 170 174 178 182 186 190 194 198 202 206 210 214 218 222 226 230 234 238 242 246 250 254 258 262 266 270 274 278 282 286 290 294 298 302 306 310 314 318 322 326 330 334 338 342 346 350 354 358 362 366 370 374 378 382 386 390 394 398 402 406 410 414 418 422 426 430 434 438 442 446 450 454 458 0
-464 3 7 11 15 19 23 27 31 35 39 43 47 51 55 59 63 67 71 75 79 83 87 91 95 99 103 107 111 115 119 123 127 131 135 139 143 147 151 155 159 163 167 171 175 179 183 187 191 195 199 203 207 211 215 219 223 227 231 235 239 243 247 251 255 259 263 267 271 275 279 283 287 291 295 299 303 307 311 315 319 323 327 331 335 339 343 347 351 355 359 363 367 371 375 379 383 387 391 395 399 403 407 411 415 419 423 427 431 435 439 443 447 451 455 459 0
-466 1 5 9 13 17 21 25 29 33 37 41 45 49 53 57 61 65 69 73 77 81 85 89 93 97 101 105 109 113 117 121 125 129 133 137 141 145 149 153 157 161 165 169 173 177 181 185 189 193 197 201 205 209 213 217 221 225 229 233 237 241 245 249 253 257 261 265 269 273 277 281 285 289 293 297 301 305 309 313 317 321 325 329 333 337 341 345 349 353 357 361 365 369 373 377 381 385 389 393 397 401 405 409 413 417 421 425 429 433 437 441 445 449 453 457 461 0
-467 2 6 10 14 18 22 26 30 34 38 42 46 50 54 58 62 66 70 74 78 82 86 90 94 98 102 106 110 114 118 122 126 130 134 138 142 146 150 154 158 162 166 170 174 178 182 186 190 194 198 202 206 210 214 218 222 226 230 234 238 242 246 250 254 258 262 266 270 274 278 282 286 290 294 298 302 306 310 314 318 322 326 330 334 338 342 346 350 354 358 362 366 370 374 378 382 386 390 394 398 402 406 410 414 418 422 426 430 434 438 442 446 450 454 458 462 0
-468 3 7 11 15 19 23 27 31 35 39 43 47 51 55 59 63 67 71 75 79 83 87 91 95 99 103 107 111 115 119 123 127 131 135 139 143 147 151 155 159 163 167 171 175 179 183 187 191 195 199 203 207 211 215 219 223 227 231 235 239 243 247 251 255 259 263 267 271 275 279 283 287 291 295 299 303 307 311 315 319 323 327 331 335 339 343 347 351 355 359 363 367 371 375 379 383 387 391 395 399 403 407 411 415 419 423 427 431 435 439 443 447 451 455 459 463 0
-470 1 5 9 13 17 21 25 29 33 37 41 45 49 53 57 61 65 69 73 77 81 85 89 93 97 101 105 109 113 117 121 125 129 133 137 141 145 149 153 157 161 165 169 173 177 181 185 189 193 197 201 205 209 213 217 221 225 229 233 237 241 245 249 253 257 261 265 269 273 277 281 285 289 293 297 301 305 309 313 317 321 325 329 333 337 341 345 349 353 357 361 365 369 373 377 381 385 389 393 397 401 405 409 413 417 421 425 429 433 437 441 445 449 453 457 461 465 0
-471 2 6 10 14 18 22 26 30 34 38 42 46 50 54 58 62 66 70 74 78 82 86 90 94 98 102 106 110 114 118 122 126 130 134 138 142 146 150 154 158 162 166 170 174 178 182 186 190 194 198 202 206 210 214 218 222 226 230 234 238 242 246 250 254 258 262 266 270 274 278 282 286 290 294 298 302 306 310 314 318 322 326 330 334 338 342 346 350 354 358 362 366 370 374 378 382 386 390 394 398 402 406 410 414 418 422 426 430 434 438 442 446 450 454 458 462 466 0
-472 3 7 11 15 19 23 27 31 35 39 43 47 51 55 59 63 67 71 75 79 83 87 91 95 99 103 107 111 115 119 123 127 131 135 139 143 147 151 155 159 163 167 171 175 179 183 187 191 195 199 203 207 211 215 219 223 227 231 235 239 243 247 251 255 259 263 267 271 275 279 283 287 291 295 299 303 307 311 315 319 323 327 331 335 339 343 347 351 355 359 363 367 371 375 379 383 387 391 395 399 403 407 411 415 419 423 427 431 435 439 443 447 451 455 459 463 467 0
-474 1 5 9 13 17 21 25 29 33 37 41 45 49 53 57 61 65 69 73 77 81 85 89 93 97 101 105 109 113 117 121 125 129 133 137 141 145 149 153 157 161 165 169 173 177 181 185 189 193 197 201 205 209 213 217 221 225 229 233 237 241 245 249 253 257 261 265 269 273 277 281 285 289 293 297 301 305 309 313 317 321 325 329 333 337 341 345 349 353 357 361 365 369 373 377 381 385 389 393 397 401 405 409 413 417 421 425 429 433 437 441 445 449 453 457 461 465 469 0
-475 2 6 10 14 18 22 26 30 34 38 42 46 50 54 58 62 66 70 74 78 82 86 90 94 98 102 106 110 114 118 122 126 130 134 138 142 146 150 154 158 162 166 170 174 178 182 186 190 194 198 202 206 210 214 218 222 226 230 234 238 242 246 250 254 258 262 266 270 274 278 282 286 290 294 298 302 306 310 314 318 322 326 330 334 338 342 346 350 354 358 362 366 370 374 378 382 386 390 394 398 402 406 410 414 418 422 426 430 434 438 442 446 450 454 458 462 466 470 0
-476 3 7 11 15 19 23 27 31 35 39 43 47 51 55 59 63 67 71 75 79 83 87 91 95 99 103 107 111 115 119 123 127 131 135 139 143 147 151 155 159 163 167 171 175 179 183 187 191 195 199 203 207 211 215 219 223 227 231 235 239 243 247 251 255 259 263 267 271 275 279 283 287 291 295 299 303 307 311 315 319 323 327 331 335 339 343 347 351 355 359 363 367 371 375 379 383 387 391 395 399 403 407 411 415 419 423 427 431 435 439 443 447 451 455 459 463 467 471 0
-478 1 5 9 13 17 21 25 29 33 37 41 45 49 53 57 61 65 69 73 77 81 85 89 93 97 101 105 109 113 117 121 125 129 133 137 141 145 149 153 157 161 165 169 173 177 181 185 189 193 197 201 205 209 213 217 221 225 229 233 237 241 245 249 253 257 261 265 269 273 277 281 285 289 293 297 301 305 309 313 317 321 325 329 333 337 341 345 349 353 357 361 365 369 373 377 381 385 389 393 397 401 405 409 413 417 421 425 429 433 437 441 445 449 453 457 461 465 469 473 0
-479 2 6 10 14 18 22 26 30 34 38 42 46 50 54 58 62 66 70 74 78 82 86 90 94 98 102 106 110 114 118 122 126 130 134 138 142 146 150 154 158 162 166 170 174 178 182 186 190 194 198 202 206 210 214 218 222 226 230 234 238 242 246 250 254 258 262 266 270 274 278 282 286 290 294 298 302 306 310 314 318 322 326 330 334 338 342 346 350 354 358 362 366 370 374 378 382 386 390 394 398 402 406 410 414 418 422 426 430 434 438 442 446 450 454 458 462 466 470 474 0
-480 3 7 11 15 19 23 27 31 35 39 43 47 51 55 59 63 67 71 75 79 83 87 91 95 99 103 107 111 115 119 123 127 131 135 139 143 147 151 155 159 163 167 171 175 179 183 187 191 195 199 203 207 211 215 219 223 227 231 235 239 243 247 251 255 259 263 267 271 275 279 283 287 291 295 299 303 307 311 315 319 323 327 331 335 339 343 347 351 355 359 363 367 371 375 379 383 387 391 395 399 403 407 411 415 419 423 427 431 435 439 443 447 451 455 459 463 467 471 475 0
-482 1 5 9 13 17 21 25 29 33 37 41 45 49 53 57 61 65 69 73 77 81 85 89 93 97 101 105 109 113 117 121 125 129 133 137 141 145 149 153 157 161 165 169 173 177 181 185 189 193 197 201 205 209 213 217 221 225 229 233 237 241 245 249 253 257 261 265 269 273 277 281 285 289 293 297 301 305 309 313 317 321 325 329 333 337 341 345 349 353 357 361 365 369 373 377 381 385 389 393 397 401 405 409 413 417 421 425 429 433 437 441 445 449 453 457 461 465 469 473 477 0
-483 2 6 10 14 18 22 26 30 34 38 42 46 50 54 58 62 66 70 74 78 82 86 90 94 98 102 106 110 114 118 122 126 130 134 138 142 146 150 154 158 162 166 170 174 178 182 186 190 194 198 202 206 210 214 218 222 226 230 234 238 242 246 250 254 258 262 266 270 274 278 282 286 290 294 298 302 306 310 314 318 322 326 330 334 338 342 346 350 354 358 362 366 370 374 378 382 386 390 394 398 402 406 410 414 418 422 426 430 434 438 442 446 450 454 458 462 466 470 474 478 0
-484 3 7 11 15 19 23 27 31 35 39 43 47 51 55 59 63 67 71 75 79 83 87 91 95 99 103 107 111 115 119 123 127 131 135 139 143 147 151 155 159 163 167 171 175 179 183 187 191 195 199 203 207 211 215 219 223 227 231 235 239 243 247 251 255 259 263 267 271 275 279 283 287 291 295 299 303 307 311 315 319 323 327 331 335 339 343 347 351 355 359 363 367 371 375 379 383 387 391 395 399 403 407 411 415 419 423 427 431 435 439 443 447 451 455 459 463 467 471 475 479 0
-486 1 5 9 13 17 21 25 29 33 37 41 45 49 53 57 61 65 69 73 77 81 85 89 93 97 101 105 109 113 117 121 125 129 133 137 141 145 149 153 157 161 165 169 173 177 181 185 189 193 197 201 205 209 213 217 221 225 229 233 237 241 245 249 253 257 261 265 269 273 277 281 285 289 293 297 301 305 309 313 317 321 325 329 333 337 341 345 349 353 357 361 365 369 373 377 381 385 389 393 397 401 405 409 413 417 421 425 429 433 437 441 445 449 453 457 461 465 469 473 477 481 0
-487 2 6 10 14 18 22 26 30 34 38 42 46 50 54 58 62 66 70 74 78 82 86 90 94 98 102 106 110 114 118 122 126 130 134 138 142 146 150 154 158 162 166 170 174 178 182 186 190 194 198 202 206 210 214 218 222 226 230 234 238 242 246 250 254 258 262 266 270 274 278 282 286 290 294 298 302 306 310 314 318 322 326 330 334 338 342 346 350 354 358 362 366 370 374 378 382 386 390 394 398 402 406 410 414 418 422 426 430 434 438 442 446 450 454 458 462 466 470 474 478 482 0
-488 3 7 11 15 19 23 27 31 35 39 43 47 51 55 59 63 67 71 75 79 83 87 91 95 99 103 107 111 115 119 123 127 131 135 139 143 147 151 155 159 163 167 171 175 179 183 187 191 195 199 203 207 211 215 219 223 227 231 235 239 243 247 251 255 259 263 267 271 275 279 283 287 291 295 299 303 307 311 315 319 323 327 331 335 339 343 347 351 355 359 363 367 371 375 379 383 387 391 395 399 403 407 411 415 419 423 427 431 435 439 443 447 451 455 459 463 467 471 475 479 483 0
-490 1 5 9 13 17 21 25 29 33 37 41 45 49 53 57 61 65 69 73 77 81 85 89 93 97 101 105 109 113 117 121 125 129 133 137 141 145 149 153 157 161 165 169 173 177 181 185 189 193 197 201 205 209 213 217 221 225 229 233 237 241 245 249 253 257 261 265 269 273 277 281 285 289 293 297 301 305 309 313 317 321 325 329 333 337 341 345 349 353 357 361 365 369 373 377 381 385 389 393 397 401 405 409 413 417 421 425 429 433 437 441 445 449 453 457 461 465 469 473 477 481 485 0
-491 2 6 10 14 18 22 26 30 34 38 42 46 50 54 58 62 66 70 74 78 82 86 90 94 98 102 106 110 114 118 122 126 130 134 138 142 146 150 154 158 162 166 170 174 178 182 186 190 194 198 202 206 210 214 218 222 226 230 234 238 242 246 250 254 258 262 266 270 274 278 282 286 290 294 298 302 306 310 314 318 322 326 330 334 338 342 346 350 354 358 362 366 370 374 378 382 386 390 394 398 402 406 410 414 418 422 426 430 434 438 442 446 450 454 458 462 466 470 474 478 482 486 0
-492 3 7 11 15 19 23 27 31 35 39 43 47 51 55 59 63 67 71 75 79 83 87 91 95 99 103 107 111 115 119 123 127 131 135 139 143 147 151 155 159 163 167 171 175 179 183 187 191 195 199 203 207 211 215 219 223 227 231 235 239 243 247 251 255 259 263 267 271 275 279 283 287 291 295 299 303 307 311 315 319 323 327 331 335 339 343 347 351 355 359 363 367 371 375 379 383 387 391 395 399 403 407 411 415 419 423 427 431 435 439 443 447 451 455 459 463 467 471 475 479 483 487 0
-494 1 5 9 13 17 21 25 29 33 37 41 45 49 53 57 61 65 69 73 77 81 85 89 93 97 101 105 109 113 117 121 125 129 133 137 141 145 149 153 157 161 165 169 173 177 181 185 189 193 197 201 205 209 213 217 221 225 229 233 237 241 245 249 253 257 261 265 269 273 277 281 285 289 293 297 301 305 309 313 317 321 325 329 333 337 341 345 349 353 357 361 365 369 373 377 381 385 389 393 397 401 405 409 413 417 421 425 429 433 437 441 445 449 453 457 461 465 469 473 477 481 485 489 0
-495 2 6 10 14 18 22 26 30 34 38 42 46 50 54 58 62 66 70 74 78 82 86 90 94 98 102 106 110 114 118 122 126 130 134 138 142 146 150 154 158 162 166 170 174 178 182 186 190 194 198 202 206 210 214 218 222 226 230 234 238 242 246 250 254 258 262 266 270 274 278 282 286 290 294 298 302 306 310 314 318 322 326 330 334 338 342 346 350 354 358 362 366 370 374 378 382 386 390 394 398 402 406 410 414 418 422 426 430 434 438 442 446 450 454 458 462 466 470 474 478 482 486 490 0
-496 3 7 11 15 19 23 27 31 35 39 43 47 51 55 59 63 67 71 75 79 83 87 91 95 99 103 107 111 115 119 123 127 131 135 139 143 147 151 155 159 163 167 171 175 179 183 187 191 195 199 203 207 211 215 219 223 227 231 235 239 243 247 251 255 259 263 267 271 275 279 283 287 291 295 299 303 307 311 315 319 323 327 331 335 339 343 347 351 355 359 363 367 371 375 379 383 387 391 395 399 403 407 411 415 419 423 427 431 435 439 443 447 451 455 459 463 467 471 475 479 483 487 491 0
-498 1 5 9 13 17 21 25 29 33 37 41 45 49 53 57 61 65 69 73 77 81 85 89 93 97 101 105 109 113 117 121 125 129 133 137 141 145 149 153 157 161 165 169 173 177 181 185 189 193 197 201 205 209 213 217 221 225 229 233 237 241 245 249 253 257 261 265 269 273 277 281 285 289 293 297 301 305 309 313 317 321 325 329 333 337 341 345 349 353 357 361 365 369 373 377 381 385 389 393 397 401 405 409 413 417 421 425 429 433 437 441 445 449 453 457 461 465 469 473 477 481 485 489 493 0
-499 2 6 10 14 18 22 26 30 34 38 42 46 50 54 58 62 66 70 74 78 82 86 90 94 98 102 106 110 114 118 122 126 130 134 138 142 146 150 154 158 162 166 170 174 178 182 186 190 194 198 202 206 210 214 218 222 226 230 234 238 242 246 250 254 258 262 266 270 274 278 282 286 290 294 298 302 306 310 314 318 322 326 330 334 338 342 346 350 354 358 362 366 370 374 378 382 386 390 394 398 402 406 410 414 418 422 426 430 434 438 442 446 450 454 458 462 466 470 474 478 482 486 490 494 0
-500 3 7 11 15 19 23 27 31 35 39 43 47 51 55 59 63 67 71 75 79 83 87 91 95 99 103 107 111 115 119 123 127 131 135 139 143 147 151 155 159 163 167 171 175 179 183 187 191 195 199 203 207 211 215 219 223 227 231 235 239 243 247 251 255 259 263 267 271 275 279 283 287 291 295 299 303 307 311 315 319 323 327 331 335 339 343 347 351 355 359 363 367 371 375 379 383 387 391 395 399 403 407 411 415 419 423 427 431 435 439 443 447 451 455 459 463 467 471 475 479 483 487 491 495 0
-502 1 5 9 13 17 21 25 29 33 37 41 45 49 53 57 61 65 69 73 77 81 85 89 93 97 101 105 109 113 117 121 125 129 133 137 141 145 149 153 157 161 165 169 173 177 181 185 189 193 197 201 205 209 213 217 221 225 229 233 237 241 245 249 253 257 261 265 269 273 277 281 285 289 293 297 301 305 309 313 317 321 325 329 333 337 341 345 349 353 357 361 365 369 373 377 381 385 389 393 397 401 405 409 413 417 421 425 429 433 437 441 445 449 453 457 461 465 469 473 477 481 485 489 493 497 0
-503 2 6 10 14 18 22 26 30 34 38 42 46 50 54 58 62 66 70 74 78 82 86 90 94 98 102 106 110 114 118 122 126 130 134 138 142 146 150 154 158 162 166 170 174 178 182 186 190 194 198 202 206 210 214 218 222 226 230 234 238 242 246 250 254 258 262 266 270 274 278 282 286 290 294 298 302 306 310 314 318 322 326 330 334 338 342 346 350 354 358 362 366 370 374 378 382 386 390 394 398 402 406 410 414 418 422 426 430 434 438 442 446 450 454 458 462 466 470 474 478 482 486 490 494 498 0
-504 3 7 11 15 19 23 27 31 35 39 43 47 51 55 59 63 67 71 75 79 83 87 91 95 99 103 107 111 115 119 123 127 131 135 139 143 147 151 155 159 163 167 171 175 179 183 187 191 195 199 203 207 211 215 219 223 227 231 235 239 243 247 251 255 259 263 267 271 275 279 283 287 291 295 299 303 307 311 315 319 323 327 331 335 339 343 347 351 355 359 363 367 371 375 379 383 387 391 395 399 403 407 411 415 419 423 427 431 435 439 443 447 451 455 459 463 467 471 475 479 483 487 491 495 499 0
-506 1 5 9 13 17 21 25 29 33 37 41 45 49 53 57 61 65 69 73 77 81 85 89 93 97 101 105 109 113 117 121 125 129 133 137 141 145 149 153 157 161 165 169 173 177 181 185 189 193 197 201 205 209 213 217 221 225 229 233 237 241 245 249 253 257 261 265 269 273 277 281 285 289 293 297 301 305 309 313 317 321 325 329 333 337 341 345 349 353 357 361 365 369 373 377 381 385 389 393 397 401 405 409 413 417 421 425 429 433 437 441 445 449 453 457 461 465 469 473 477 481 485 489 493 497 501 0
-507 2 6 10 14 18 22 26 30 34 38 42 46 50 54 58 62 66 70 74 78 82 86 90 94 98 102 106 110 114 118 122 126 130 134 138 142 146 150 154 158 162 166 170 174 178 182 186 190 194 198 202 206 210 214 218 222 226 230 234 238 242 246 250 254 258 262 266 270 274 278 282 286 290 294 298 302 306 310 314 318 322 326 330 334 338 342 346 350 354 358 362 366 370 374 378 382 386 390 394 398 402 406 410 414 418 422 426 430 434 438 442 446 450 454 458 462 466 470 474 478 482 486 490 494 498 502 0
-508 3 7 11 15 19 23 27 31 35 39 43 47 51 55 59 63 67 71 75 79 83 87 91 95 99 103 107 111 115 119 123 127 131 135 139 143 147 151 155 159 163 167 171 175 179 183 187 191 195 199 203 207 211 215 219 223 227 231 235 239 243 247 251 255 259 263 267 271 275 279 283 287 291 295 299 303 307 311 315 319 323 327 331 335 339 343 347 351 355 359 363 367 371 375 379 383 387 391 395 399 403 407 411 415 419 423 427 431 435 439 443 447 451 455 459 463 467 471 475 479 483 487 491 495 499 503 0
-510 1 5 9 13 17 21 25 29 33 37 41 45 49 53 57 61 65 69 73 77 81 85 89 93 97 101 105 109 113 117 121 125 129 133 137 141 145 149 153 157 161 165 169 173 177 181 185 189 193 197 201 205 209 213 217 221 225 229 233 237 241 245 249 253 257 261 265 269 273 277 281 285 289 293 297 301 305 309 313 317 321 325 329 333 337 341 345 349 353 357 361 365 369 373 377 381 385 389 393 397 401 405 409 413 417 421 425 429 433 437 441 445 449 453 457 461 465 469 473 477 481 485 489 493 497 501 505 0
-511 2 6 10 14 18 22 26 30 34 38 42 46 50 54 58 62 66 70 74 78 82 86 90 94 98 102 106 110 114 118 122 126 130 134 138 142 146 150 154 158 162 166 170 174 178 182 186 190 194 198 202 206 210 214 218 222 226 230 234 238 242 246 250 254 258 262 266 270 274 278 282 286 290 294 298 302 306 310 314 318 322 326 330 334 338 342 346 350 354 358 362 366 370 374 378 382 386 390 394 398 402 406 410 414 418 422 426 430 434 438 442 446 450 454 458 462 466 470 474 478 482 486 490 494 498 502 506 0
-512 3 7 11 15 19 23 27 31 35 39 43 47 51 55 59 63 67 71 75 79 83 87 91 95 99 103 107 111 115 119 123 127 131 135 139 143 147 151 155 159 163 167 171 175 179 183 187 191 195 199 203 207 211 215 219 223 227 231 235 239 243 247 251 255 259 263 267 271 275 279 283 287 291 295 299 303 307 311 315 319 323 327 331 335 339 343 347 351 355 359 363 367 371 375 379 383 387 391 395 399 403 407 411 415 419 423 427 431 435 439 443 447 451 455 459 463 467 471 475 479 483 487 491 495 499 503 507 0
-514 1 5 9 13 17 21 25 29 33 37 41 45 49 53 57 61 65 69 73 77 81 85 89 93 97 101 105 109 113 117 121 125 129 133 137 141 145 149 153 157 161 165 169 173 177 181 185 189 193 197 201 205 209 213 217 221 225 229 233 237 241 245 249 253 257 261 265 269 273 277 281 285 289 293 297 301 305 309 313 317 321 325 329 333 337 341 345 349 353 357 361 365 369 373 377 381 385 389 393 397 401 405 409 413 417 421 425 429 433 437 441 445 449 453 457 461 465 469 473 477 481 485 489 493 497 501 505 509 0
-515 2 6 10 14 18 22 26 30 34 38 42 46 50 54 58 62 66 70 74 78 82 86 90 94 98 102 106 110 114 118 122 126 130 134 138 142 146 150 154 158 162 166 170 174 178 182 186 190 194 198 202 206 210 214 218 222 226 230 234 238 242 246 250 254 258 262 266 270 274 278 282 286 290 294 298 302 306 310 314 318 322 326 330 334 338 342 346 350 354 358 362 366 370 374 378 382 386 390 394 398 402 406 410 414 418 422 426 430 434 438 442 446 450 454 458 462 466 470 474 478 482 486 490 494 498 502 506 510 0
-516 3 7 11 15 19 23 27 31 35 39 43 47 51 55 59 63 67 71 75 79 83 87 91 95 99 103 107 111 115 119 123 127 131 135 139 143 147 151 155 159 163 167 171 175 179 183 187 191 195 199 203 207 211 215 219 223 227 231 235 239 243 247 251 255 259 263 267 271 275 279 283 287 291 295 299 303 307 311 315 319 323 327 331 335 339 343 347 351 355 359 363 367 371 375 379 383 387 391 395 399 403 407 411 415 419 423 427 431 435 439 443 447 451 455 459 463 467 471 475 479 483 487 491 495 499 503 507 511 0
-518 1 5 9 13 17 21 25 29 33 37 41 45 49 53 57 61 65 69 73 77 81 85 89 93 97 101 105 109 113 117 121 125 129 133 137 141 145 149 153 157 161 165 169 173 177 181 185 189 193 197 201 205 209 213 217 221 225 229 233 237 241 245 249 253 257 261 265 269 273 277 281 285 289 293 297 301 305 309 313 317 321 325 329 333 337 341 345 349 353 357 361 365 369 373 377 381 385 389 393 397 401 405 409 413 417 421 425 429 433 437 441 445 449 453 457 461 465 469 473 477 481 485 489 493 497 501 505 509 513 0
-519 2 6 10 14 18 22 26 30 34 38 42 46 50 54 58 62 66 70 74 78 82 86 90 94 98 102 106 110 114 118 122 126 130 134 138 142 146 150 154 158 162 166 170 174 178 182 186 190 194 198 202 206 210 214 218 222 226 230 234 238 242 246 250 254 258 262 266 270 274 278 282 286 290 294 298 302 306 310 314 318 322 326 330 334 338 342 346 350 354 358 362 366 370 374 378 382 386 390 394 398 402 406 410 414 418 422 426 430 434 438 442 446 450 454 458 462 466 470 474 478 482 486 490 494 498 502 506 510 514 0
-520 3 7 11 15 19 23 27 31 35 39 43 47 51 55 59 63 67 71 75 79 83 87 91 95 99 103 107 111 115 119 123 127 131 135 139 143 147 151 155 159 163 167 171 175 179 183 187 191 195 199 203 207 211 215 219 223 227 231 235 239 243 247 251 255 259 263 267 271 275 279 283 287 291 295 299 303 307 311 315 319 323 327 331 335 339 343 347 351 355 359 363 367 371 375 379 383 387 391 395 399 403 407 411 415 419 423 427 431 435 439 443 447 451 455 459 463 467 471 475 479 483 487 491 495 499 503 507 511 515 0
-522 1 5 9 13 17 21 25 29 33 37 41 45 49 53 57 61 65 69 73 77 81 85 89 93 97 101 105 109 113 117 121 125 129 133 137 141 145 149 153 157 161 165 169 173 177 181 185 189 193 197 201 205 209 213 217 221 225 229 233 237 241 245 249 253 257 261 265 269 273 277 281 285 289 293 297 301 305 309 313 317 321 325 329 333 337 341 345 349 353 357 361 365 369 373 377 381 385 389 393 397 401 405 409 413 417 421 425 429 433 437 441 445 449 453 457 461 465 469 473 477 481 485 489 493 497 501 505 509 513 517 0
-523 2 6 10 14 18 22 26 30 34 38 42 46 50 54 58 62 66 70 74 78 82 86 90 94 98 102 106 110 114 118 122 126 130 134 138 142 146 150 154 158 162 166 170 174 178 182 186 190 194 198 202 206 210 214 218 222 226 230 234 238 242 246 250 254 258 262 266 270 274 278 282 286 290 294 298 302 306 310 314 318 322 326 330 334 338 342 346 350 354 358 362 366 370 374 378 382 386 390 394 398 402 406 410 414 418 422 426 430 434 438 442 446 450 454 458 462 466 470 474 478 482 486 490 494 498 502 506 510 514 518 0
-524 3 7 11 15 19 23 27 31 35 39 43 47 51 55 59 63 67 71 75 79 83 87 91 95 99 103 107 111 115 119 123 127 131 135 139 143 147 151 155 159 163 167 171 175 179 183 187 191 195 199 203 207 211 215 219 223 227 231 235 239 243 247 251 255 259 263 267 271 275 279 283 287 291 295 299 303 307 311 315 319 323 327 331 335 339 343 347 351 355 359 363 367 371 375 379 383 387 391 395 399 403 407 411 415 419 423 427 431 435 439 443 447 451 455 459 463 467 471 475 479 483 487 491 495 499 503 507 511 515 519 0
-526 1 5 9 13 17 21 25 29 33 37 41 45 49 53 57 61 65 69 73 77 81 85 89 93 97 101 105 109 113 117 121 125 129 133 137 141 145 149 153 157 161 165 169 173 177 181 185 189 193 197 201 205 209 213 217 221 225 229 233 237 241 245 249 253 257 261 265 269 273 277 281 285 289 293 297 301 305 309 313 317 321 325 329 333 337 341 345 349 353 357 361 365 369 373 377 381 385 389 393 397 401 405 409 413 417 421 425 429 433 437 441 445 449 453 457 461 465 469 473 477 481 485 489 493 497 501 505 509 513 517 521 0
-527 2 6 10 14 18 22 26 30 34 38 42 46 50 54 58 62 66 70 74 78 82 86 90 94 98 102 106 110 114 118 122 126 130 134 138 142 146 150 154 158 162 166 170 174 178 182 186 190 194 198 202 206 210 214 218 222 226 230 234 238 242 246 250 254 258 262 266 270 274 278 282 286 290 294 298 302 306 310 314 318 322 326 330 334 338 342 346 350 354 358 362 366 370 374 378 382 386 390 394 398 402 406 410 414 418 422 426 430 434 438 442 446 450 454 458 462 466 470 474 478 482 486 490 494 498 502 506 510 514 518 522 0
-528 3 7 11 15 19 23 27 31 35 39 43 47 51 55 59 63 67 71 75 79 83 87 91 95 99 103 107 111 115 119 123 127 131 135 139 143 147 151 155 159 163 167 171 175 179 183 187 191 195 199 203 207 211 215 219 223 227 231 235 239 243 247 251 255 259 263 267 271 275 279 283 287 291 295 299 303 307 311 315 319 323 327 331 335 339 343 347 351 355 359 363 367 371 375 379 383 387 391 395 399 403 407 411 415 419 423 427 431 435 439 443 447 451 455 459 463 467 471 475 479 483 487 491 495 499 503 507 511 515 519 523 0
-530 1 5 9 13 17 21 25 29 33 37 41 45 49 53 57 61 65 69 73 77 81 85 89 93 97 101 105 109 113 117 121 125 129 133 137 141 145 149 153 157 161 165 169 173 177 181 185 189 193 197 201 205 209 213 217 221 225 229 233 237 241 245 249 253 257 261 265 269 273 277 281 285 289 293 297 301 305 309 313 317 321 325 329 333 337 341 345 349 353 357 361 365 369 373 377 381 385 389 393 397 401 405 409 413 417 421 425 429 433 437 441 445 449 453 457 461 465 469 473 477 481 485 489 493 497 501 505 509 513 517 521 525 0
-531 2 6 10 14 18 22 26 30 34 38 42 46 50 54 58 62 66 70 74 78 82 86 90 94 98 102 106 110 114 118 122 126 130 134 138 142 146 150 154 158 162 166 170 174 178 182 186 190 194 198 202 206 210 214 218 222 226 230 234 238 242 246 250 254 258 262 266 270 274 278 282 286 290 294 298 302 306 310 314 318 322 326 330 334 338 342 346 350 354 358 362 366 370 374 378 382 386 390 394 398 402 406 410 414 418 422 426 430 434 438 442 446 450 454 458 462 466 470 474 478 482 486 490 494 498 502 506 510 514 518 522 526 0
-532 3 7 11 15 19 23 27 31 35 39 43 47 51 55 59 63 67 71 75 79 83 87 91 95 99 103 107 111 115 119 123 127 131 135 139 143 147 151 155 159 163 167 171 175 179 183 187 191 195 199 203 207 211 215 219 223 227 231 235 239 243 247 251 255 259 263 267 271 275 279 283 287 291 295 299 303 307 311 315 319 323 327 331 335 339 343 347 351 355 359 363 367 371 375 379 383 387 391 395 399 403 407 411 415 419 423 427 431 435 439 443 447 451 455 459 463 467 471 475 479 483 487 491 495 499 503 507 511 515 519 523 527 0
-534 1 5 9 13 17 21 25 29 33 37 41 45 49 53 57 61 65 69 73 77 81 85 89 93 97 101 105 109 113 117 121 125 129 133 137 141 145 149 153 157 161 165 169 173 177 181 185 189 193 197 201 205 209 213 217 221 225 229 233 237 241 245 249 253 257 261 265 269 273 277 281 285 289 293 297 301 305 309 313 317 321 325 329 333 337 341 345 349 353 357 361 365 369 373 377 381 385 389 393 397 401 405 409 413 417 421 425 429 433 437 441 445 449 453 457 461 465 469 473 477 481 485 489 493 497 501 505 509 513 517 521 525 529 0
-535 2 6 10 14 18 22 26 30 34 38 42 46 50 54 58 62 66 70 74 78 82 86 90 94 98 102 106 110 114 118 122 126 130 134 138 142 146 150 154 158 162 166 170 174 178 182 186 190 194 198 202 206 210 214 218 222 226 230 234 238 242 246 250 254 258 262 266 270 274 278 282 286 290 294 298 302 306 310 314 318 322 326 330 334 338 342 346 350 354 358 362 366 370 374 378 382 386 390 394 398 402 406 410 414 418 422 426 430 434 438 442 446 450 454 458 462 466 470 474 478 482 486 490 494 498 502 506 510 514 518 522 526 530 0
-536 3 7 11 15 19 23 27 31 35 39 43 47 51 55 59 63 67 71 75 79 83 87 91 95 99 103 107 111 115 119 123 127 131 135 139 143 147 151 155 159 163 167 171 175 179 183 187 191 195 199 203 207 211 215 219 223 227 231 235 239 243 247 251 255 259 263 267 271 275 279 283 287 291 295 299 303 307 311 315 319 323 327 331 335 339 343 347 351 355 359 363 367 371 375 379 383 387 391 395 399 403 407 411 415 419 423 427 431 435 439 443 447 451 455 459 463 467 471 475 479 483 487 491 495 499 503 507 511 515 519 523 527 531 0
-538 1 5 9 13 17 21 25 29 33 37 41 45 49 53 57 61 65 69 73 77 81 85 89 93 97 101 105 109 113 117 121 125 129 133 137 141 145 149 153 157 161 165 169 173 177 181 185 189 193 197 201 205 209 213 217 221 225 229 233 237 241 245 249 253 257 261 265 269 273 277 281 285 289 293 297 301 305 309 313 317 321 325 329 333 337 341 345 349 353 357 361 365 369 373 377 381 385 389 393 397 401 405 409 413 417 421 425 429 433 437 441 445 449 453 457 461 465 469 473 477 481 485 489 493 497 501 505 509 513 517 521 525 529 533 0
-539 2 6 10 14 18 22 26 30 34 38 42 46 50 54 58 62 66 70 74 78 82 86 90 94 98 102 106 110 114 118 122 126 130 134 138 142 146 150 154 158 162 166 170 174 178 182 186 190 194 198 202 206 210 214 218 222 226 230 234 238 242 246 250 254 258 262 266 270 274 278 282 286 290 294 298 302 306 310 314 318 322 326 330 334 338 342 346 350 354 358 362 366 370 374 378 382 386 390 394 398 402 406 410 414 418 422 426 430 434 438 442 446 450 454 458 462 466 470 474 478 482 486 490 494 498 502 506 510 514 518 522 526 530 534 0
-540 3 7 11 15 19 23 27 31 35 39 43 47 51 55 59 63 67 71 75 79 83 87 91 95 99 103 107 111 115 119 123 127 131 135 139 143 147 151 155 159 163 167 171 175 179 183 187 191 195 199 203 207 211 215 219 223 227 231 235 239 243 247 251 255 259 263 267 271 275 279 283 287 291 295 299 303 307 311 315 319 323 327 331 335 339 343 347 351 355 359 363 367 371 375 379 383 387 391 395 399 403 407 411 415 419 423 427 431 435 439 443 447 451 455 459 463 467 471 475 479 483 487 491 495 499 503 507 511 515 519 523 527 531 535 0
-542 1 5 9 13 17 21 25 29 33 37 41 45 49 53 57 61 65 69 73 77 81 85 89 93 97 101 105 109 113 117 121 125 129 133 137 141 145 149 153 157 161 165 169 173 177 181 185 189 193 197 201 205 209 213 217 221 225 229 233 237 241 245 249 253 257 261 265 269 273 277 281 285 289 293 297 301 305 309 313 317 321 325 329 333 337 341 345 349 353 357 361 365 369 373 377 381 385 389 393 397 401 405 409 413 417 421 425 429 433 437 441 445 449 453 457 461 465 469 473 477 481 485 489 493 497 501 505 509 513 517 521 525 529 533 537 0
-543 2 6 10 14 18 22 26 30 34 38 42 46 50 54 58 62 66 70 74 78 82 86 90 94 98 102 106 110 114 118 122 126 130 134 138 142 146 150 154 158 162 166 170 174 178 182 186 190 194 198 202 206 210 214 218 222 226 230 234 238 242 246 250 254 258 262 266 270 274 278 282 286 290 294 298 302 306 310 314 318 322 326 330 334 338 342 346 350 354 358 362 366 370 374 378 382 386 390 394 398 402 406 410 414 418 422 426 430 434 438 442 446 450 454 458 462 466 470 474 478 482 486 490 494 498 502 506 510 514 518 522 526 530 534 538 0
-544 3 7 11 15 19 23 27 31 35 39 43 47 51 55 59 63 67 71 75 79 83 87 91 95 99 103 107 111 115 119 123 127 131 135 139 143 147 151 155 159 163 167 171 175 179 183 187 191 195 199 203 207 211 215 219 223 227 231 235 239 243 247 251 255 259 263 267 271 275 279 283 287 291 295 299 303 307 311 315 319 323 327 331 335 339 343 347 351 355 359 363 367 371 375 379 383 387 391 395 399 403 407 411 415 419 423 427 431 435 439 443 447 451 455 459 463 467 471 475 479 483 487 491 495 499 503 507 511 515 519 523 527 531 535 539 0
-546 1 5 9 13 17 21 25 29 33 37 41 45 49 53 57 61 65 69 73 77 81 85 89 93 97 101 105 109 113 117 121 125 129 133 137 141 145 149 153 157 161 165 169 173 177 181 185 189 193 197 201 205 209 213 217 221 225 229 233 237 241 245 249 253 257 261 265 269 273 277 281 285 289 293 297 301 305 309 313 317 321 325 329 333 337 341 345 349 353 357 361 365 369 373 377 381 385 389 393 397 401 405 409 413 417 421 425 429 433 437 441 445 449 453 457 461 465 469 473 477 481 485 489 493 497 501 505 509 513 517 521 525 529 533 537 541 0
-547 2 6 10 14 18 22 26 30 34 38 42 46 50 54 58 62 66 70 74 78 82 86 90 94 98 102 106 110 114 118 122 126 130 134 138 142 146 150 154 158 162 166 170 174 178 182 186 190 194 198 202 206 210 214 218 222 226 230 234 238 242 246 250 254 258 262 266 270 274 278 282 286 290 294 298 302 306 310 314 318 322 326 330 334 338 342 346 350 354 358 362 366 370 374 378 382 386 390 394 398 402 406 410 414 418 422 426 430 434 438 442 446 450 454 458 462 466 470 474 478 482 486 490 494 498 502 506 510 514 518 522 526 530 534 538 542 0
-548 3 7 11 15 19 23 27 31 35 39 43 47 51 55 59 63 67 71 75 79 83 87 91 95 99 103 107 111 115 119 123 127 131 135 139 143 147 151 155 159 163 167 171 175 179 183 187 191 195 199 203 207 211 215 219 223 227 231 235 239 243 247 251 255 259 263 267 271 275 279 283 287 291 295 299 303 307 311 315 319 323 327 331 335 339 343 347 351 355 359 363 367 371 375 379 383 387 391 395 399 403 407 411 415 419 423 427 431 435 439 443 447 451 455 459 463 467 471 475 479 483 487 491 495 499 503 507 511 515 519 523 527 531 535 539 543 0
-550 1 5 9 13 17 21 25 29 33 37 41 45 49 53 57 61 65 69 73 77 81 85 89 93 97 101 105 109 113 117 121 125 129 133 137 141 145 149 153 157 161 165 169 173 177 181 185 189 193 197 201 205 209 213 217 221 225 229 233 237 241 245 249 253 257 261 265 269 273 277 281 285 289 293 297 301 305 309 313 317 321 325 329 333 337 341 345 349 353 357 361 365 369 373 377 381 385 389 393 397 401 405 409 413 417 421 425 429 433 437 441 445 449 453 457 461 465 469 473 477 481 485 489 493 497 501 505 509 513 517 521 525 529 533 537 541 545 0
-551 2 6 10 14 18 22 26 30 34 38 42 46 50 54 58 62 66 70 74 78 82 86 90 94 98 102 106 110 114 118 122 126 130 134 138 142 146 150 154 158 162 166 170 174 178 182 186 190 194 198 202 206 210 214 218 222 226 230 234 238 242 246 250 254 258 262 266 270 274 278 282 286 290 294 298 302 306 310 314 318 322 326 330 334 338 342 346 350 354 358 362 366 370 374 378 382 386 390 394 398 402 406 410 414 418 422 426 430 434 438 442 446 450 454 458 462 466 470 474 478 482 486 490 494 498 502 506 510 514 518 522 526 530 534 538 542 546 0
-552 3 7 11 15 19 23 27 31 35 39 43 47 51 55 59 63 67 71 75 79 83 87 91 95 99 103 107 111 115 119 123 127 131 135 139 143 147 151 155 159 163 167 171 175 179 183 187 191 195 199 203 207 211 215 219 223 227 231 235 239 243 247 251 255 259 263 267 271 275 279 283 287 291 295 299 303 307 311 315 319 323 327 331 335 339 343 347 351 355 359 363 367 371 375 379 383 387 391 395 399 403 407 411 415 419 423 427 431 435 439 443 447 451 455 459 463 467 471 475 479 483 487 491 495 499 503 507 511 515 519 523 527 531 535 539 543 547 0
-554 1 5 9 13 17 21 25 29 33 37 41 45 49 53 57 61 65 69 73 77 81 85 89 93 97 101 105 109 113 117 121 125 129 133 137 141 145 149 153 157 161 165 169 173 177 181 185 189 193 197 201 205 209 213 217 221 225 229 233 237 241 245 249 253 257 261 265 269 273 277 281 285 289 293 297 301 305 309 313 317 321 325 329 333 337 341 345 349 353 357 361 365 369 373 377 381 385 389 393 397 401 405 409 413 417 421 425 429 433 437 441 445 449 453 457 461 465 469 473 477 481 485 489 493 497 501 505 509 513 517 521 525 529 533 537 541 545 549 0
-555 2 6 10 14 18 22 26 30 34 38 42 46 50 54 58 62 66 70 74 78 82 86 90 94 98 102 106 110 114 118 122 126 130 134 138 142 146 150 154 158 162 166 170 174 178 182 186 190 194 198 202 206 210 214 218 222 226 230 234 238 242 246 250 254 258 262 266 270 274 278 282 286 290 294 298 302 306 310 314 318 322 326 330 334 338 342 346 350 354 358 362 366 370 374 378 382 386 390 394 398 402 406 410 414 418 422 426 430 434 438 442 446 450 454 458 462 466 470 474 478 482 486 490 494 498 502 506 510 514 518 522 526 530 534 538 542 546 550 0
-556 3 7 11 15 19 23 27 31 35 39 43 47 51 55 59 63 67 71 75 79 83 87 91 95 99 103 107 111 115 119 123 127 131 135 139 143 147 151 155 159 163 167 171 175 179 183 187 191 195 199 203 207 211 215 219 223 227 231 235 239 243 247 251 255 259 263 267 271 275 279 283 287 291 295 299 303 307 311 315 319 323 327 331 335 339 343 347 351 355 359 363 367 371 375 379 383 387 391 395 399 403 407 411 415 419 423 427 431 435 439 443 447 451 455 459 463 467 471 475 479 483 487 491 495 499 503 507 511 515 519 523 527 531 535 539 543 547 551 0
-558 1 5 9 13 17 21 25 29 33 37 41 45 49 53 57 61 65 69 73 77 81 85 89 93 97 101 105 109 113 117 121 125 129 133 137 141 145 149 153 157 161 165 169 173 177 181 185 189 193 197 201 205 209 213 217 221 225 229 233 237 241 245 249 253 257 261 265 269 273 277 281 285 289 293 297 301 305 309 313 317 321 325 329 333 337 341 345 349 353 357 361 365 369 373 377 381 385 389 393 397 401 405 409 413 417 421 425 429 433 437 441 445 449 453 457 461 465 469 473 477 481 485 489 493 497 501 505 509 513 517 521 525 529 533 537 541 545 549 553 0
-559 2 6 10 14 18 22 26 30 34 38 42 46 50 54 58 62 66 70 74 78 82 86 90 94 98 102 106 110 114 118 122 126 130 134 138 142 146 150 154 158 162 166 170 174 178 182 186 190 194 198 202 206 210 214 218 222 226 230 234 238 242 246 250 254 258 262 266 270 274 278 282 286 290 294 298 302 306 310 314 318 322 326 330 334 338 342 346 350 354 358 362 366 370 374 378 382 386 390 394 398 402 406 410 414 418 422 426 430 434 438 442 446 450 454 458 462 466 470 474 478 482 486 490 494 498 502 506 510 514 518 522 526 530 534 538 542 546 550 554 0
-560 3 7 11 15 19 23 27 31 35 39 43 47 51 55 59 63 67 71 75 79 83 87 91 95 99 103 107 111 115 119 123 127 131 135 139 143 147 151 155 159 163 167 171 175 179 183 187 191 195 199 203 207 211 215 219 223 227 231 235 239 243 247 251 255 259 263 267 271 275 279 283 287 291 295 299 303 307 311 315 319 323 327 331 335 339 343 347 351 355 359 363 367 371 375 379 383 387 391 395 399 403 407 411 415 419 423 427 431 435 439 443 447 451 455 459 463 467 471 475 479 483 487 491 495 499 503 507 511 515 519 523 527 531 535 539 543 547 551 555 0
-562 1 5 9 13 17 21 25 29 33 37 41 45 49 53 57 61 65 69 73 77 81 85 89 93 97 101 105 109 113 117 121 125 129 133 137 141 145 149 153 157 161 165 169 173 177 181 185 189 193 197 201 205 209 213 217 221 225 229 233 237 241 245 249 253 257 261 265 269 273 277 281 285 289 293 297 301 305 309 313 317 321 325 329 333 337 341 345 349 353 357 361 365 369 373 377 381 385 389 393 397 401 405 409 413 417 421 425 429 433 437 441 445 449 453 457 461 465 469 473 477 481 485 489 493 497 501 505 509 513 517 521 525 529 533 537 541 545 549 553 557 0
-563 2 6 10 14 18 22 26 30 34 38 42 46 50 54 58 62 66 70 74 78 82 86 90 94 98 102 106 110 114 118 122 126 130 134 138 142 146 150 154 158 162 166 170 174 178 182 186 190 194 198 202 206 210 214 218 222 226 230 234 238 242 246 250 254 258 262 266 270 274 278 282 286 290 294 298 302 306 310 314 318 322 326 330 334 338 342 346 350 354 358 362 366 370 374 378 382 386 390 394 398 402 406 410 414 418 422 426 430 434 438 442 446 450 454 458 462 466 470 474 478 482 486 490 494 498 502 506 510 514 518 522 526 530 534 538 542 546 550 554 558 0
-564 3 7 11 15 19 23 27 31 35 39 43 47 51 55 59 63 67 71 75 79 83 87 91 95 99 103 107 111 115 119 123 127 131 135 139 143 147 151 155 159 163 167 171 175 179 183 187 191 195 199 203 207 211 215 219 223 227 231 235 239 243 247 251 255 259 263 267 271 275 279 283 287 291 295 299 303 307 311 315 319 323 327 331 335 339 343 347 351 355 359 363 367 371 375 379 383 387 391 395 399 403 407 411 415 419 423 427 431 435 439 443 447 451 455 459 463 467 471 475 479 483 487 491 495 499 503 507 511 515 519 523 527 531 535 539 543 547 551 555 559 0
-566 1 5 9 13 17 21 25 29 33 37 41 45 49 53 57 61 65 69 73 77 81 85 89 93 97 101 105 109 113 117 121 125 129 133 137 141 145 149 153 157 161 165 169 173 177 181 185 189 193 197 201 205 209 213 217 221 225 229 233 237 241 245 249 253 257 261 265 269 273 277 281 285 289 293 297 301 305 309 313 317 321 325 329 333 337 341 345 349 353 357 361 365 369 373 377 381 385 389 393 397 401 405 409 413 417 421 425 429 433 437 441 445 449 453 457 461 465 469 473 477 481 485 489 493 497 501 505 509 513 517 521 525 529 533 537 541 545 549 553 557 561 0
-567 2 6 10 14 18 22 26 30 34 38 42 46 50 54 58 62 66 70 74 78 82 86 90 94 98 102 106 110 114 118 122 126 130 134 138 142 146 150 154 158 162 166 170 174 178 182 186 190 194 198 202 206 210 214 218 222 226 230 234 238 242 246 250 254 258 262 266 270 274 278 282 286 290 294 298 302 306 310 314 318 322 326 330 334 338 342 346 350 354 358 362 366 370 374 378 382 386 390 394 398 402 406 410 414 418 422 426 430 434 438 442 446 450 454 458 462 466 470 474 478 482 486 490 494 498 502 506 510 514 518 522 526 530 534 538 542 546 550 554 558 562 0
-568 3 7 11 15 19 23 27 31 35 39 43 47 51 55 59 63 67 71 75 79 83 87 91 95 99 103 107 111 115 119 123 127 131 135 139 143 147 151 155 159 163 167 171 175 179 183 187 191 195 199 203 207 211 215 219 223 227 231 235 239 243 247 251 255 259 263 267 271 275 279 283 287 291 295 299 303 307 311 315 319 323 327 331 335 339 343 347 351 355 359 363 367 371 375 379 383 387 391 395 399 403 407 411 415 419 423 427 431 435 439 443 447 451 455 459 463 467 471 475 479 483 487 491 495 499 503 507 511 515 519 523 527 531 535 539 543 547 551 555 559 563 0
-570 1 5 9 13 17 21 25 29 33 37 41 45 49 53 57 61 65 69 73 77 81 85 89 93 97 101 105 109 113 117 121 125 129 133 137 141 145 149 153 157 161 165 169 173 177 181 185 189 193 197 201 205 209 213 217 221 225 229 233 237 241 245 249 253 257 261 265 269 273 277 281 285 289 293 297 301 305 309 313 317 321 325 329 333 337 341 345 349 353 357 361 365 369 373 377 381 385 389 393 397 401 405 409 413 417 421 425 429 433 437 441 445 449 453 457 461 465 469 473 477 481 485 489 493 497 501 505 509 513 517 521 525 529 533 537 541 545 549 553 557 561 565 0
-571 2 6 10 14 18 22 26 30 34 38 42 46 50 54 58 62 66 70 74 78 82 86 90 94 98 102 106 110 114 118 122 126 130 134 138 142 146 150 154 158 162 166 170 174 178 182 186 190 194 198 202 206 210 214 218 222 226 230 234 238 242 246 250 254 258 262 266 270 274 278 282 286 290 294 298 302 306 310 314 318 322 326 330 334 338 342 346 350 354 358 362 366 370 374 378 382 386 390 394 398 402 406 410 414 418 422 426 430 434 438 442 446 450 454 458 462 466 470 474 478 482 486 490 494 498 502 506 510 514 518 522 526 530 534 538 542 546 550 554 558 562 566 0
-572 3 7 11 15 19 23 27 31 35 39 43 47 51 55 59 63 67 71 75 79 83 87 91 95 99 103 107 111 115 119 123 127 131 135 139 143 147 151 155 159 163 167 171 175 179 183 187 191 195 199 203 207 211 215 219 223 227 231 235 239 243 247 251 255 259 263 267 271 275 279 283 287 291 295 299 303 307 311 315 319 323 327 331 335 339 343 347 351 355 359 363 367 371 375 379 383 387 391 395 399 403 407 411 415 419 423 427 431 435 439 443 447 451 455 459 463 467 471 475 479 483 487 491 495 499 503 507 511 515 519 523 527 531 535 539 543 547 551 555 559 563 567 0
-574 1 5 9 13 17 21 25 29 33 37 41 45 49 53 57 61 65 69 73 77 81 85 89 93 97 101 105 109 113 117 121 125 129 133 137 141 145 149 153 157 161 165 169 173 177 181 185 189 193 197 201 205 209 213 217 221 225 229 233 237 241 245 249 253 257 261 265 269 273 277 281 285 289 293 297 301 305 309 313 317 321 325 329 333 337 341 345 349 353 357 361 365 369 373 377 381 385 389 393 397 401 405 409 413 417 421 425 429 433 437 441 445 449 453 457 461 465 469 473 477 481 485 489 493 497 501 505 509 513 517 521 525 529 533 537 541 545 549 553 557 561 565 569 0
-575 2 6 10 14 18 22 26 30 34 38 42 46 50 54 58 62 66 70 74 78 82 86 90 94 98 102 106 110 114 118 122 126 130 134 138 142 146 150 154 158 162 166 170 174 178 182 186 190 194 198 202 206 210 214 218 222 226 230 234 238 242 246 250 254 258 262 266 270 274 278 282 286 290 294 298 302 306 310 314 318 322 326 330 334 338 342 346 350 354 358 362 366 370 374 378 382 386 390 394 398 402 406 410 414 418 422 426 430 434 438 442 446 450 454 458 462 466 470 474 478 482 486 490 494 498 502 506 510 514 518 522 526 530 534 538 542 546 550 554 558 562 566 570 0
-576 3 7 11 15 19 23 27 31 35 39 43 47 51 55 59 63 67 71 75 79 83 87 91 95 99 103 107 111 115 119 123 127 131 135 139 143 147 151 155 159 163 167 171 175 179 183 187 191 195 199 203 207 211 215 219 223 227 231 235 239 243 247 251 255 259 263 267 271 275 279 283 287 291 295 299 303 307 311 315 319 323 327 331 335 339 343 347 351 355 359 363 367 371 375 379 383 387 391 395 399 403 407 411 415 419 423 427 431 435 439 443 447 451 455 459 463 467 471 475 479 483 487 491 495 499 503 507 511 515 519 523 527 531 535 539 543 547 551 555 559 563 567 571 0
-578 1 5 9 13 17 21 25 29 33 37 41 45 49 53 57 61 65 69 73 77 81 85 89 93 97 101 105 109 113 117 121 125 129 133 137 141 145 149 153 157 161 165 169 173 177 181 185 189 193 197 201 205 209 213 217 221 225 229 233 237 241 245 249 253 257 261 265 269 273 277 281 285 289 293 297 301 305 309 313 317 321 325 329 333 337 341 345 349 353 357 361 365 369 373 377 381 385 389 393 397 401 405 409 413 417 421 425 429 433 437 441 445 449 453 457 461 465 469 473 477 481 485 489 493 497 501 505 509 513 517 521 525 529 533 537 541 545 549 553 557 561 565 569 573 0
-579 2 6 10 14 18 22 26 30 34 38 42 46 50 54 58 62 66 70 74 78 82 86 90 94 98 102 106 110 114 118 122 126 130 134 138 142 146 150 154 158 162 166 170 174 178 182 186 190 194 198 202 206 210 214 218 222 226 230 234 238 242 246 250 254 258 262 266 270 274 278 282 286 290 294 298 302 306 310 314 318 322 326 330 334 338 342 346 350 354 358 362 366 370 374 378 382 386 390 394 398 402 406 410 414 418 422 426 430 434 438 442 446 450 454 458 462 466 470 474 478 482 486 490 494 498 502 506 510 514 518 522 526 530 534 538 542 546 550 554 558 562 566 570 574 0
-580 3 7 11 15 19 23 27 31 35 39 43 47 51 55 59 63 67 71 75 79 83 87 91 95 99 103 107 111 115 119 123 127 131 135 139 143 147 151 155 159 163 167 171 175 179 183 187 191 195 199 203 207 211 215 219 223 227 231 235 239 243 247 251 255 259 263 267 271 275 279 283 287 291 295 299 303 307 311 315 319 323 327 331 335 339 343 347 351 355 359 363 367 371 375 379 383 387 391 395 399 403 407 411 415 419 423 427 431 435 439 443 447 451 455 459 463 467 471 475 479 483 487 491 495 499 503 507 511 515 519 523 527 531 535 539 543 547 551 555 559 563 567 571 575 0
-582 1 5 9 13 17 21 25 29 33 37 41 45 49 53 57 61 65 69 73 77 81 85 89 93 97 101 105 109 113 117 121 125 129 133 137 141 145 149 153 157 161 165 169 173 177 181 185 189 193 197 201 205 209 213 217 221 225 229 233 237 241 245 249 253 257 261 265 269 273 277 281 285 289 293 297 301 305 309 313 317 321 325 329 333 337 341 345 349 353 357 361 365 369 373 377 381 385 389 393 397 401 405 409 413 417 421 425 429 433 437 441 445 449 453 457 461 465 469 473 477 481 485 489 493 497 501 505 509 513 517 521 525 529 533 537 541 545 549 553 557 561 565 569 573 577 0
-583 2 6 10 14 18 22 26 30 34 38 42 46 50 54 58 62 66 70 74 78 82 86 90 94 98 102 106 110 114 118 122 126 130 134 138 142 146 150 154 158 162 166 170 174 178 182 186 190 194 198 202 206 210 214 218 222 226 230 234 238 242 246 250 254 258 262 266 270 274 278 282 286 290 294 298 302 306 310 314 318 322 326 330 334 338 342 346 350 354 358 362 366 370 374 378 382 386 390 394 398 402 406 410 414 418 422 426 430 434 438 442 446 450 454 458 462 466 470 474 478 482 486 490 494 498 502 506 510 514 518 522 526 530 534 538 542 546 550 554 558 562 566 570 574 578 0
-584 3 7 11 15 19 23 27 31 35 39 43 47 51 55 59 63 67 71 75 79 83 87 91 95 99 103 107 111 115 119 123 127 131 135 139 143 147 151 155 159 163 167 171 175 179 183 187 191 195 199 203 207 211 215 219 223 227 231 235 239 243 247 251 255 259 263 267 271 275 279 283 287 291 295 299 303 307 311 315 319 323 327 331 335 339 343 347 351 355 359 363 367 371 375 379 383 387 391 395 399 403 407 411 415 419 423 427 431 435 439 443 447 451 455 459 463 467 471 475 479 483 487 491 495 499 503 507 511 515 519 523 527 531 535 539 543 547 551 555 559 563 567 571 575 579 0
-586 1 5 9 13 17 21 25 29 33 37 41 45 49 53 57 61 65 69 73 77 81 85 89 93 97 101 105 109 113 117 121 125 129 133 137 141 145 149 153 157 161 165 169 173 177 181 185 189 193 197 201 205 209 213 217 221 225 229 233 237 241 245 249 253 257 261 265 269 273 277 281 285 289 293 297 301 305 309 313 317 321 325 329 333 337 341 345 349 353 357 361 365 369 373 377 381 385 389 393 397 401 405 409 413 417 421 425 429 433 437 441 445 449 453 457 461 465 469 473 477 481 485 489 493 497 501 505 509 513 517 521 525 529 533 537 541 545 549 553 557 561 565 569 573 577 581 0
-587 2 6 10 14 18 22 26 30 34 38 42 46 50 54 58 62 66 70 74 78 82 86 90 94 98 102 106 110 114 118 122 126 130 134 138 142 146 150 154 158 162 166 170 174 178 182 186 190 194 198 202 206 210 214 218 222 226 230 234 238 242 246 250 254 258 262 266 270 274 278 282 286 290 294 298 302 306 310 314 318 322 326 330 334 338 342 346 350 354 358 362 366 370 374 378 382 386 390 394 398 402 406 410 414 418 422 426 430 434 438 442 446 450 454 458 462 466 470 474 478 482 486 490 494 498 502 506 510 514 518 522 526 530 534 538 542 546 550 554 558 562 566 570 574 578 582 0
-588 3 7 11 15 19 23 27 31 35 39 43 47 51 55 59 63 67 71 75 79 83 87 91 95 99 103 107 111 115 119 123 127 131 135 139 143 147 151 155 159 163 167 171 175 179 183 187 191 195 199 203 207 211 215 219 223 227 231 235 239 243 247 251 255 259 263 267 271 275 279 283 287 291 295 299 303 307 311 315 319 323 327 331 335 339 343 347 351 355 359 363 367 371 375 379 383 387 391 395 399 403 407 411 415 419 423 427 431 435 439 443 447 451 455 459 463 467 471 475 479 483 487 491 495 499 503 507 511 515 519 523 527 531 535 539 543 547 551 555 559 563 567 571 575 579 583 0
-590 1 5 9 13 17 21 25 29 33 37 41 45 49 53 57 61 65 69 73 77 81 85 89 93 97 101 105 109 113 117 121 125 129 133 137 141 145 149 153 157 161 165 169 173 177 181 185 189 193 197 201 205 209 213 217 221 225 229 233 237 241 245 249 253 257 261 265 269 273 277 281 285 289 293 297 301 305 309 313 317 321 325 329 333 337 341 345 349 353 357 361 365 369 373 377 381 385 389 393 397 401 405 409 413 417 421 425 429 433 437 441 445 449 453 457 461 465 469 473 477 481 485 489 493 497 501 505 509 513 517 521 525 529 533 537 541 545 549 553 557 561 565 569 573 577 581 585 0
-591 2 6 10 14 18 22 26 30 34 38 42 46 50 54 58 62 66 70 74 78 82 86 90 94 98 102 106 110 114 118 122 126 130 134 138 142 146 150 154 158 162 166 170 174 178 182 186 190 194 198 202 206 210 214 218 222 226 230 234 238 242 246 250 254 258 262 266 270 274 278 282 286 290 294 298 302 306 310 314 318 322 326 330 334 338 342 346 350 354 358 362 366 370 374 378 382 386 390 394 398 402 406 410 414 418 422 426 430 434 438 442 446 450 454 458 462 466 470 474 478 482 486 490 494 498 502 506 510 514 518 522 526 530 534 538 542 546 550 554 558 562 566 570 574 578 582 586 0
-592 3 7 11 15 19 23 27 31 35 39 43 47 51 55 59 63 67 71 75 79 83 87 91 95 99 103 107 111 115 119 123 127 131 135 139 143 147 151 155 159 163 167 171 175 179 183 187 191 195 199 203 207 211 215 219 223 227 231 235 239 243 247 251 255 259 263 267 271 275 279 283 287 291 295 299 303 307 311 315 319 323 327 331 335 339 343 347 351 355 359 363 367 371 375 379 383 387 391 395 399 403 407 411 415 419 423 427 431 435 439 443 447 451 455 459 463 467 471 475 479 483 487 491 495 499 503 507 511 515 519 523 527 531 535 539 543 547 551 555 559 563 567 571 575 579 583 587 0
-594 1 5 9 13 17 21 25 29 33 37 41 45 49 53 57 61 65 69 73 77 81 85 89 93 97 101 105 109 113 117 121 125 129 133 137 141 145 149 153 157 161 165 169 173 177 181 185 189 193 197 201 205 209 213 217 221 225 229 233 237 241 245 249 253 257 261 265 269 273 277 281 285 289 293 297 301 305 309 313 317 321 325 329 333 337 341 345 349 353 357 361 365 369 373 377 381 385 389 393 397 401 405 409 413 417 421 425 429 433 437 441 445 449 453 457 461 465 469 473 477 481 485 489 493 497 501 505 509 513 517 521 525 529 533 537 541 545 549 553 557 561 565 569 573 577 581 585 589 0
-595 2 6 10 14 18 22 26 30 34 38 42 46 50 54 58 62 66 70 74 78 82 86 90 94 98 102 106 110 114 118 122 126 130 134 138 142 146 150 154 158 162 166 170 174 178 182 186 190 194 198 202 206 210 214 218 222 226 230 234 238 242 246 250 254 258 262 266 270 274 278 282 286 290 294 298 302 306 310 314 318 322 326 330 334 338 342 346 350 354 358 362 366 370 374 378 382 386 390 394 398 402 406 410 414 418 422 426 430 434 438 442 446 450 454 458 462 466 470 474 478 482 486 490 494 498 502 506 510 514 518 522 526 530 534 538 542 546 550 554 558 562 566 570 574 578 582 586 590 0
-596 3 7 11 15 19 23 27 31 35 39 43 47 51 55 59 63 67 71 75 79 83 87 91 95 99 103 107 111 115 119 123 127 131 135 139 143 147 151 155 159 163 167 171 175 179 183 187 191 195 199 203 207 211 215 219 223 227 231 235 239 243 247 251 255 259 263 267 271 275 279 283 287 291 295 299 303 307 311 315 319 323 327 331 335 339 343 347 351 355 359 363 367 371 375 379 383 387 391 395 399 403 407 411 415 419 423 427 431 435 439 443 447 451 455 459 463 467 471 475 479 483 487 491 495 499 503 507 511 515 519 523 527 531 535 539 543 547 551 555 559 563 567 571 575 579 583 587 591 0
-598 1 5 9 13 17 21 25 29 33 37 41 45 49 53 57 61 65 69 73 77 81 85 89 93 97 101 105 109 113 117 121 125 129 133 137 141 145 149 153 157 161 165 169 173 177 181 185 189 193 197 201 205 209 213 217 221 225 229 233 237 241 245 249 253 257 261 265 269 273 277 281 285 289 293 297 301 305 309 313 317 321 325 329 333 337 341 345 349 353 357 361 365 369 373 377 381 385 389 393 397 401 405 409 413 417 421 425 429 433 437 441 445 449 453 457 461 465 469 473 477 481 485 489 493 497 501 505 509 513 517 521 525 529 533 537 541 545 549 553 557 561 565 569 573 577 581 585 589 593 0
-599 2 6 10 14 18 22 26 30 34 38 42 46 50 54 58 62 66 70 74 78 82 86 90 94 98 102 106 110 114 118 122 126 130 134 138 142 146 150 154 158 162 166 170 174 178 182 186 190 194 198 202 206 210 214 218 222 226 230 234 238 242 246 250 254 258 262 266 270 274 278 282 286 290 294 298 302 306 310 314 318 322 326 330 334 338 342 346 350 354 358 362 366 370 374 378 382 386 390 394 398 402 406 410 414 418 422 426 430 434 438 442 446 450 454 458 462 466 470 474 478 482 486 490 494 498 502 506 510 514 518 522 526 530 534 538 542 546 550 554 558 562 566 570 574 578 582 586 590 594 0
-600 3 7 11 15 19 23 27 31 35 39 43 47 51 55 59 63 67 71 75 79 83 87 91 95 99 103 107 111 115 119 123 127 131 135 139 143 147 151 155 159 163 167 171 175 179 183 187 191 195 199 203 207 211 215 219 223 227 231 235 239 243 247 251 255 259 263 267 271 275 279 283 287 291 295 299 303 307 311 315 319 323 327 331 335 339 343 347 351 355 359 363 367 371 375 379 383 387 391 395 399 403 407 411 415 419 423 427 431 435 439 443 447 451 455 459 463 467 471 475 479 483 487 491 495 499 503 507 511 515 519 523 527 531 535 539 543 547 551 555 559 563 567 571 575 579 583 587 591 595 0
-602 1 5 9 13 17 21 25 29 33 37 41 45 49 53 57 61 65 69 73 77 81 85 89 93 97 101 105 109 113 117 121 125 129 133 137 141 145 149 153 157 161 165 169 173 177 181 185 189 193 197 201 205 209 213 217 221 225 229 233 237 241 245 249 253 257 261 265 269 273 277 281 285 289 293 297 301 305 309 313 317 321 325 329 333 337 341 345 349 353 357 361 365 369 373 377 381 385 389 393 397 401 405 409 413 417 421 425 429 433 437 441 445 449 453 457 461 465 469 473 477 481 485 489 493 497 501 505 509 513 517 521 525 529 533 537 541 545 549 553 557 561 565 569 573 577 581 585 589 593 597 0
-603 2 6 10 14 18 22 26 30 34 38 42 46 50 54 58 62 66 70 74 78 82 86 90 94 98 102 106 110 114 118 122 126 130 134 138 142 146 150 154 158 162 166 170 174 178 182 186 190 194 198 202 206 210 214 218 222 226 230 234 238 242 246 250 254 258 262 266 270 274 278 282 286 290 294 298 302 306 310 314 318 322 326 330 334 338 342 346 350 354 358 362 366 370 374 378 382 386 390 394 398 402 406 410 414 418 422 426 430 434 438 442 446 450 454 458 462 466 470 474 478 482 486 490 494 498 502 506 510 514 518 522 526 530 534 538 542 546 550 554 558 562 566 570 574 578 582 586 590 594 598 0
-604 3 7 11 15 19 23 27 31 35 39 43 47 51 55 59 63 67 71 75 79 83 87 91 95 99 103 107 111 115 119 123 127 131 135 139 143 147 151 155 159 163 167 171 175 179 183 187 191 195 199 203 207 211 215 219 223 227 231 235 239 243 247 251 255 259 263 267 271 275 279 283 287 291 295 299 303 307 311 315 319 323 327 331 335 339 343 347 351 355 359 363 367 371 375 379 383 387 391 395 399 403 407 411 415 419 423 427 431 435 439 443 447 451 455 459 463 467 471 475 479 483 487 491 495 499 503 507 511 515 519 523 527 531 535 539 543 547 551 555 559 563 567 571 575 579 583 587 591 595 599 0
-606 1 5 9 13 17 21 25 29 33 37 41 45 49 53 57 61 65 69 73 77 81 85 89 93 97 101 105 109 113 117 121 125 129 133 137 141 145 149 153 157 161 165 169 173 177 181 185 189 193 197 201 205 209 213 217 221 225 229 233 237 241 245 249 253 257 261 265 269 273 277 281 285 289 293 297 301 305 309 313 317 321 325 329 333 337 341 345 349 353 357 361 365 369 373 377 381 385 389 393 397 401 405 409 413 417 421 425 429 433 437 441 445 449 453 457 461 465 469 473 477 481 485 489 493 497 501 505 509 513 517 521 525 529 533 537 541 545 549 553 557 561 565 569 573 577 581 585 589 593 597 601 0
-607 2 6 10 14 18 22 26 30 34 38 42 46 50 54 58 62 66 70 74 78 82 86 90 94 98 102 106 110 114 118 122 126 130 134 138 142 146 150 154 158 162 166 170 174 178 182 186 190 194 198 202 206 210 214 218 222 226 230 234 238 242 246 250 254 258 262 266 270 274 278 282 286 290 294 298 302 306 310 314 318 322 326 330 334 338 342 346 350 354 358 362 366 370 374 378 382 386 390 394 398 402 406 410 414 418 422 426 430 434 438 442 446 450 454 458 462 466 470 474 478 482 486 490 494 498 502 506 510 514 518 522 526 530 534 538 542 546 550 554 558 562 566 570 574 578 582 586 590 594 598 602 0
-608 3 7 11 15 19 23 27 31 35 39 43 47 51 55 59 63 67 71 75 79 83 87 91 95 99 103 107 111 115 119 123 127 131 135 139 143 147 151 155 159 163 167 171 175 179 183 187 191 195 199 203 207 211 215 219 223 227 231 235 239 243 247 251 255 259 263 267 271 275 279 283 287 291 295 299 303 307 311 315 319 323 327 331 335 339 343 347 351 355 359 363 367 371 375 379 383 387 391 395 399 403 407 411 415 419 423 427 431 435 439 443 447 451 455 459 463 467 471 475 479 483 487 491 495 499 503 507 511 515 519 523 527 531 535 539 543 547 551 555 559 563 567 571 575 579 583 587 591 595 599 603 0
-610 1 5 9 13 17 21 25 29 33 37 41 45 49 53 57 61 65 69 73 77 81 85 89 93 97 101 105 109 113 117 121 125 129 133 137 141 145 149 153 157 161 165 169 173 177 181 185 189 193 197 201 205 209 213 217 221 225 229 233 237 241 245 249 253 257 261 265 269 273 277 281 285 289 293 297 301 305 309 313 317 321 325 329 333 337 341 345 349 353 357 361 365 369 373 377 381 385 389 393 397 401 405 409 413 417 421 425 429 433 437 441 445 449 453 457 461 465 469 473 477 481 485 489 493 497 501 505 509 513 517 521 525 529 533 537 541 545 549 553 557 561 565 569 573 577 581 585 589 593 597 601 605 0
-611 2 6 10 14 18 22 26 30 34 38 42 46 50 54 58 62 66 70 74 78 82 86 90 94 98 102 106 110 114 118 122 126 130 134 138 142 146 150 154 158 162 166 170 174 178 182 186 190 194 198 202 206 210 214 218 222 226 230 234 238 242 246 250 254 258 262 266 270 274 278 282 286 290 294 298 302 306 310 314 318 322 326 330 334 338 342 346 350 354 358 362 366 370 374 378 382 386 390 394 398 402 406 410 414 418 422 426 430 434 438 442 446 450 454 458 462 466 470 474 478 482 486 490 494 498 502 506 510 514 518 522 526 530 534 538 542 546 550 554 558 562 566 570 574 578 582 586 590 594 598 602 606 0
-612 3 7 11 15 19 23 27 31 35 39 43 47 51 55 59 63 67 71 75 79 83 87 91 95 99 103 107 111 115 119 123 127 131 135 139 143 147 151 155 159 163 167 171 175 179 183 187 191 195 199 203 207 211 215 219 223 227 231 235 239 243 247 251 255 259 263 267 271 275 279 283 287 291 295 299 303 307 311 315 319 323 327 331 335 339 343 347 351 355 359 363 367 371 375 379 383 387 391 395 399 403 407 411 415 419 423 427 431 435 439 443 447 451 455 459 463 467 471 475 479 483 487 491 495 499 503 507 511 515 519 523 527 531 535 539 543 547 551 555 559 563 567 571 575 579 583 587 591 595 599 603 607 0
-614 1 5 9 13 17 21 25 29 33 37 41 45 49 53 57 61 65 69 73 77 81 85 89 93 97 101 105 109 113 117 121 125 129 133 137 141 145 149 153 157 161 165 169 173 177 181 185 189 193 197 201 205 209 213 217 221 225 229 233 237 241 245 249 253 257 261 265 269 273 277 281 285 289 293 297 301 305 309 313 317 321 325 329 333 337 341 345 349 353 357 361 365 369 373 377 381 385 389 393 397 401 405 409 413 417 421 425 429 433 437 441 445 449 453 457 461 465 469 473 477 481 485 489 493 497 501 505 509 513 517 521 525 529 533 537 541 545 549 553 557 561 565 569 573 577 581 585 589 593 597 601 605 609 0
-615 2 6 10 14 18 22 26 30 34 38 42 46 50 54 58 62 66 70 74 78 82 86 90 94 98 102 106 110 114 118 122 126 130 134 138 142 146 150 154 158 162 166 170 174 178 182 186 190 194 198 202 206 210 214 218 222 226 230 234 238 242 246 250 254 258 262 266 270 274 278 282 286 290 294 298 302 306 310 314 318 322 326 330 334 338 342 346 350 354 358 362 366 370 374 378 382 386 390 394 398 402 406 410 414 418 422 426 430 434 438 442 446 450 454 458 462 466 470 474 478 482 486 490 494 498 502 506 510 514 518 522 526 530 534 538 542 546 550 554 558 562 566 570 574 578 582 586 590 594 598 602 606 610 0
-616 3 7 11 15 19 23 27 31 35 39 43 47 51 55 59 63 67 71 75 79 83 87 91 95 99 103 107 111 115 119 123 127 131 135 139 143 147 151 155 159 163 167 171 175 179 183 187 191 195 199 203 207 211 215 219 223 227 231 235 239 243 247 251 255 259 263 267 271 275 279 283 287 291 295 299 303 307 311 315 319 323 327 331 335 339 343 347 351 355 359 363 367 371 375 379 383 387 391 395 399 403 407 411 415 419 423 427 431 435 439 443 447 451 455 459 463 467 471 475 479 483 487 491 495 499 503 507 511 515 519 523 527 531 535 539 543 547 551 555 559 563 567 571 575 579 583 587 591 595 599 603 607 611 0
-618 1 5 9 13 17 21 25 29 33 37 41 45 49 53 57 61 65 69 73 77 81 85 89 93 97 101 105 109 113 117 121 125 129 133 137 141 145 149 153 157 161 165 169 173 177 181 185 189 193 197 201 205 209 213 217 221 225 229 233 237 241 245 249 253 257 261 265 269 273 277 281 285 289 293 297 301 305 309 313 317 321 325 329 333 337 341 345 349 353 357 361 365 369 373 377 381 385 389 393 397 401 405 409 413 417 421 425 429 433 437 441 445 449 453 457 461 465 469 473 477 481 485 489 493 497 501 505 509 513 517 521 525 529 533 537 541 545 549 553 557 561 565 569 573 577 581 585 589 593 597 601 605 609 613 0
-619 2 6 10 14 18 22 26 30 34 38 42 46 50 54 58 62 66 70 74 78 82 86 90 94 98 102 106 110 114 118 122 126 130 134 138 142 146 150 154 158 162 166 170 174 178 182 186 190 194 198 202 206 210 214 218 222 226 230 234 238 242 246 250 254 258 262 266 270 274 278 282 286 290 294 298 302 306 310 314 318 322 326 330 334 338 342 346 350 354 358 362 366 370 374 378 382 386 390 394 398 402 406 410 414 418 422 426 430 434 438 442 446 450 454 458 462 466 470 474 478 482 486 490 494 498 502 506 510 514 518 522 526 530 534 538 542 546 550 554 558 562 566 570 574 578 582 586 590 594 598 602 606 610 614 0
-620 3 7 11 15 19 23 27 31 35 39 43 47 51 55 59 63 67 71 75 79 83 87 91 95 99 103 107 111 115 119 123 127 131 135 139 143 147 151 155 159 163 167 171 175 179 183 187 191 195 199 203 207 211 215 219 223 227 231 235 239 243 247 251 255 259 263 267 271 275 279 283 287 291 295 299 303 307 311 315 319 323 327 331 335 339 343 347 351 355 359 363 367 371 375 379 383 387 391 395 399 403 407 411 415 419 423 427 431 435 439 443 447 451 455 459 463 467 471 475 479 483 487 491 495 499 503 507 511 515 519 523 527 531 535 539 543 547 551 555 559 563 567 571 575 579 583 587 591 595 599 603 607 611 615 0
-622 1 5 9 13 17 21 25 29 33 37 41 45 49 53 57 61 65 69 73 77 81 85 89 93 97 101 105 109 113 117 121 125 129 133 137 141 145 149 153 157 161 165 169 173 177 181 185 189 193 197 201 205 209 213 217 221 225 229 233 237 241 245 249 253 257 261 265 269 273 277 281 285 289 293 297 301 305 309 313 317 321 325 329 333 337 341 345 349 353 357 361 365 369 373 377 381 385 389 393 397 401 405 409 413 417 421 425 429 433 437 441 445 449 453 457 461 465 469 473 477 481 485 489 493 497 501 505 509 513 517 521 525 529 533 537 541 545 549 553 557 561 565 569 573 577 581 585 589 593 597 601 605 609 613 617 0
-623 2 6 10 14 18 22 26 30 34 38 42 46 50 54 58 62 66 70 74 78 82 86 90 94 98 102 106 110 114 118 122 126 130 134 138 142 146 150 154 158 162 166 170 174 178 182 186 190 194 198 202 206 210 214 218 222 226 230 234 238 242 246 250 254 258 262 266 270 274 278 282 286 290 294 298 302 306 310 314 318 322 326 330 334 338 342 346 350 354 358 362 366 370 374 378 382 386 390 394 398 402 406 410 414 418 422 426 430 434 438 442 446 450 454 458 462 466 470 474 478 482 486 490 494 498 502 506 510 514 518 522 526 530 534 538 542 546 550 554 558 562 566 570 574 578 582 586 590 594 598 602 606 610 614 618 0
-624 3 7 11 15 19 23 27 31 35 39 43 47 51 55 59 63 67 71 75 79 83 87 91 95 99 103 107 111 115 119 123 127 131 135 139 143 147 151 155 159 163 167 171 175 179 183 187 191 195 199 203 207 211 215 219 223 227 231 235 239 243 247 251 255 259 263 267 271 275 279 283 287 291 295 299 303 307 311 315 319 323 327 331 335 339 343 347 351 355 359 363 367 371 375 379 383 387 391 395 399 403 407 411 415 419 423 427 431 435 439 443 447 451 455 459 463 467 471 475 479 483 487 491 495 499 503 507 511 515 519 523 527 531 535 539 543 547 551 555 559 563 567 571 575 579 583 587 591 595 599 603 607 611 615 619 0
-626 1 5 9 13 17 21 25 29 33 37 41 45 49 53 57 61 65 69 73 77 81 85 89 93 97 101 105 109 113 117 121 125 129 133 137 141 145 149 153 157 161 165 169 173 177 181 185 189 193 197 201 205 209 213 217 221 225 229 233 237 241 245 249 253 257 261 265 269 273 277 281 285 289 293 297 301 305 309 313 317 321 325 329 333 337 341 345 349 353 357 361 365 369 373 377 381 385 389 393 397 401 405 409 413 417 421 425 429 433 437 441 445 449 453 457 461 465 469 473 477 481 485 489 493 497 501 505 509 513 517 521 525 529 533 537 541 545 549 553 557 561 565 569 573 577 581 585 589 593 597 601 605 609 613 617 621 0
-627 2 6 10 14 18 22 26 30 34 38 42 46 50 54 58 62 66 70 74 78 82 86 90 94 98 102 106 110 114 118 122 126 130 134 138 142 146 150 154 158 162 166 170 174 178 182 186 190 194 198 202 206 210 214 218 222 226 230 234 238 242 246 250 254 258 262 266 270 274 278 282 286 290 294 298 302 306 310 314 318 322 326 330 334 338 342 346 350 354 358 362 366 370 374 378 382 386 390 394 398 402 406 410 414 418 422 426 430 434 438 442 446 450 454 458 462 466 470 474 478 482 486 490 494 498 502 506 510 514 518 522 526 530 534 538 542 546 550 554 558 562 566 570 574 578 582 586 590 594 598 602 606 610 614 618 622 0
-628 3 7 11 15 19 23 27 31 35 39 43 47 51 55 59 63 67 71 75 79 83 87 91 95 99 103 107 111 115 119 123 127 131 135 139 143 147 151 155 159 163 167 171 175 179 183 187 191 195 199 203 207 211 215 219 223 227 231 235 239 243 247 251 255 259 263 267 271 275 279 283 287 291 295 299 303 307 311 315 319 323 327 331 335 339 343 347 351 355 359 363 367 371 375 379 383 387 391 395 399 403 407 411 415 419 423 427 431 435 439 443 447 451 455 459 463 467 471 475 479 483 487 491 495 499 503 507 511 515 519 523 527 531 535 539 543 547 551 555 559 563 567 571 575 579 583 587 591 595 599 603 607 611 615 619 623 0
-630 1 5 9 13 17 21 25 29 33 37 41 45 49 53 57 61 65 69 73 77 81 85 89 93 97 101 105 109 113 117 121 125 129 133 137 141 145 149 153 157 161 165 169 173 177 181 185 189 193 197 201 205 209 213 217 221 225 229 233 237 241 245 249 253 257 261 265 269 273 277 281 285 289 293 297 301 305 309 313 317 321 325 329 333 337 341 345 349 353 357 361 365 369 373 377 381 385 389 393 397 401 405 409 413 417 421 425 429 433 437 441 445 449 453 457 461 465 469 473 477 481 485 489 493 497 501 505 509 513 517 521 525 529 533 537 541 545 549 553 557 561 565 569 573 577 581 585 589 593 597 601 605 609 613 617 621 625 0
-631 2 6 10 14 18 22 26 30 34 38 42 46 50 54 58 62 66 70 74 78 82 86 90 94 98 102 106 110 114 118 122 126 130 134 138 142 146 150 154 158 162 166 170 174 178 182 186 190 194 198 202 206 210 214 218 222 226 230 234 238 242 246 250 254 258 262 266 270 274 278 282 286 290 294 298 302 306 310 314 318 322 326 330 334 338 342 346 350 354 358 362 366 370 374 378 382 386 390 394 398 402 406 410 414 418 422 426 430 434 438 442 446 450 454 458 462 466 470 474 478 482 486 490 494 498 502 506 510 514 518 522 526 530 534 538 542 546 550 554 558 562 566 570 574 578 582 586 590 594 598 602 606 610 614 618 622 626 0
-632 3 7 11 15 19 23 27 31 35 39 43 47 51 55 59 63 67 71 75 79 83 87 91 95 99 103 107 111 115 119 123 127 131 135 139 143 147 151 155 159 163 167 171 175 179 183 187 191 195 199 203 207 211 215 219 223 227 231 235 239 243 247 251 255 259 263 267 271 275 279 283 287 291 295 299 303 307 311 315 319 323 327 331 335 339 343 347 351 355 359 363 367 371 375 379 383 387 391 395 399 403 407 411 415 419 423 427 431 435 439 443 447 451 455 459 463 467 471 475 479 483 487 491 495 499 503 507 511 515 519 523 527 531 535 539 543 547 551 555 559 563 567 571 575 579 583 587 591 595 599 603 607 611 615 619 623 627 0
-634 1 5 9 13 17 21 25 29 33 37 41 45 49 53 57 61 65 69 73 77 81 85 89 93 97 101 105 109 113 117 121 125 129 133 137 141 145 149 153 157 161 165 169 173 177 181 185 189 193 197 201 205 209 213 217 221 225 229 233 237 241 245 249 253 257 261 265 269 273 277 281 285 289 293 297 301 305 309 313 317 321 325 329 333 337 341 345 349 353 357 361 365 369 373 377 381 385 389 393 397 401 405 409 413 417 421 425 429 433 437 441 445 449 453 457 461 465 469 473 477 481 485 489 493 497 501 505 509 513 517 521 525 529 533 537 541 545 549 553 557 561 565 569 573 577 581 585 589 593 597 601 605 609 613 617 621 625 629 0
-635 2 6 10 14 18 22 26 30 34 38 42 46 50 54 58 62 66 70 74 78 82 86 90 94 98 102 106 110 114 118 122 126 130 134 138 142 146 150 154 158 162 166 170 174 178 182 186 190 194 198 202 206 210 214 218 222 226 230 234 238 242 246 250 254 258 262 266 270 274 278 282 286 290 294 298 302 306 310 314 318 322 326 330 334 338 342 346 350 354 358 362 366 370 374 378 382 386 390 394 398 402 406 410 414 418 422 426 430 434 438 442 446 450 454 458 462 466 470 474 478 482 486 490 494 498 502 506 510 514 518 522 526 530 534 538 542 546 550 554 558 562 566 570 574 578 582 586 590 594 598 602 606 610 614 618 622 626 630 0
-636 3 7 11 15 19 23 27 31 35 39 43 47 51 55 59 63 67 71 75 79 83 87 91 95 99 103 107 111 115 119 123 127 131 135 139 143 147 151 155 159 163 167 171 175 179 183 187 191 195 199 203 207 211 215 219 223 227 231 235 239 243 247 251 255 259 263 267 271 275 279 283 287 291 295 299 303 307 311 315 319 323 327 331 335 339 343 347 351 355 359 363 367 371 375 379 383 387 391 395 399 403 407 411 415 419 423 427 431 435 439 443 447 451 455 459 463 467 471 475 479 483 487 491 495 499 503 507 511 515 519 523 527 531 535 539 543 547 551 555 559 563 567 571 575 579 583 587 591 595 599 603 607 611 615 619 623 627 631 0
-638 1 5 9 13 17 21 25 29 33 37 41 45 49 53 57 61 65 69 73 77 81 85 89 93 97 101 105 109 113 117 121 125 129 133 137 141 145 149 153 157 161 165 169 173 177 181 185 189 193 197 201 205 209 213 217 221 225 229 233 237 241 245 249 253 257 261 265 269 273 277 281 285 289 293 297 301 305 309 313 317 321 325 329 333 337 341 345 349 353 357 361 365 369 373 377 381 385 389 393 397 401 405 409 413 417 421 425 429 433 437 441 445 449 453 457 461 465 469 473 477 481 485 489 493 497 501 505 509 513 517 521 525 529 533 537 541 545 549 553 557 561 565 569 573 577 581 585 589 593 597 601 605 609 613 617 621 625 629 633 0
-639 2 6 10 14 18 22 26 30 34 38 42 46 50 54 58 62 66 70 74 78 82 86 90 94 98 102 106 110 114 118 122 126 130 134 138 142 146 150 154 158 162 166 170 174 178 182 186 190 194 198 202 206 210 214 218 222 226 230 234 238 242 246 250 254 258 262 266 270 274 278 282 286 290 294 298 302 306 310 314 318 322 326 330 334 338 342 346 350 354 358 362 366 370 374 378 382 386 390 394 398 402 406 410 414 418 422 426 430 434 438 442 446 450 454 458 462 466 470 474 478 482 486 490 494 498 502 506 510 514 518 522 526 530 534 538 542 546 550 554 558 562 566 570 574 578 582 586 590 594 598 602 606 610 614 618 622 626 630 634 0
-640 3 7 11 15 19 23 27 31 35 39 43 47 51 55 59 63 67 71 75 79 83 87 91 95 99 103 107 111 115 119 123 127 131 135 139 143 147 151 155 159 163 167 171 175 179 183 187 191 195 199 203 207 211 215 219 223 227 231 235 239 243 247 251 255 259 263 267 271 275 279 283 287 291 295 299 303 307 311 315 319 323 327 331 335 339 343 347 351 355 359 363 367 371 375 379 383 387 391 395 399 403 407 411 415 419 423 427 431 435 439 443 447 451 455 459 463 467 471 475 479 483 487 491 495 499 503 507 511 515 519 523 527 531 535 539 543 547 551 555 559 563 567 571 575 579 583 587 591 595 599 603 607 611 615 619 623 627 631 635 0
-642 1 5 9 13 17 21 25 29 33 37 41 45 49 53 57 61 65 69 73 77 81 85 89 93 97 101 105 109 113 117 121 125 129 133 137 141 145 149 153 157 161 165 169 173 177 181 185 189 193 197 201 205 209 213 217 221 225 229 233 237 241 245 249 253 257 261 265 269 273 277 281 285 289 293 297 301 305 309 313 317 321 325 329 333 337 341 345 349 353 357 361 365 369 373 377 381 385 389 393 397 401 405 409 413 417 421 425 429 433 437 441 445 449 453 457 461 465 469 473 477 481 485 489 493 497 501 505 509 513 517 521 525 529 533 537 541 545 549 553 557 561 565 569 573 577 581 585 589 593 597 601 605 609 613 617 621 625 629 633 637 0
-643 2 6 10 14 18 22 26 30 34 38 42 46 50 54 58 62 66 70 74 78 82 86 90 94 98 102 106 110 114 118 122 126 130 134 138 142 146 150 154 158 162 166 170 174 178 182 186 190 194 198 202 206 210 214 218 222 226 230 234 238 242 246 250 254 258 262 266 270 274 278 282 286 290 294 298 302 306 310 314 318 322 326 330 334 338 342 346 350 354 358 362 366 370 374 378 382 386 390 394 398 402 406 410 414 418 422 426 430 434 438 442 446 450 454 458 462 466 470 474 478 482 486 490 494 498 502 506 510 514 518 522 526 530 534 538 542 546 550 554 558 562 566 570 574 578 582 586 590 594 598 602 606 610 614 618 622 626 630 634 638 0
-644 3 7 11 15 19 23 27 31 35 39 43 47 51 55 59 63 67 71 75 79 83 87 91 95 99 103 107 111 115 119 123 127 131 135 139 143 147 151 155 159 163 167 171 175 179 183 187 191 195 199 203 207 211 215 219 223 227 231 235 239 243 247 251 255 259 263 267 271 275 279 283 287 291 295 299 303 307 311 315 319 323 327 331 335 339 343 347 351 355 359 363 367 371 375 379 383 387 391 395 399 403 407 411 415 419 423 427 431 435 439 443 447 451 455 459 463 467 471 475 479 483 487 491 495 499 503 507 511 515 519 523 527 531 535 539 543 547 551 555 559 563 567 571 575 579 583 587 591 595 599 603 607 611 615 619 623 627 631 635 639 0
-646 1 5 9 13 17 21 25 29 33 37 41 45 49 53 57 61 65 69 73 77 81 85 89 93 97 101 105 109 113 117 121 125 129 133 137 141 145 149 153 157 161 165 169 173 177 181 185 189 193 197 201 205 209 213 217 221 225 229 233 237 241 245 249 253 257 261 265 269 273 277 281 285 289 293 297 301 305 309 313 317 321 325 329 333 337 341 345 349 353 357 361 365 369 373 377 381 385 389 393 397 401 405 409 413 417 421 425 429 433 437 441 445 449 453 457 461 465 469 473 477 481 485 489 493 497 501 505 509 513 517 521 525 529 533 537 541 545 549 553 557 561 565 569 573 577 581 585 589 593 597 601 605 609 613 617 621 625 629 633 637 641 0
-647 2 6 10 14 18 22 26 30 34 38 42 46 50 54 58 62 66 70 74 78 82 86 90 94 98 102 106 110 114 118 122 126 130 134 138 142 146 150 154 158 162 166 170 174 178 182 186 190 194 198 202 206 210 214 218 222 226 230 234 238 242 246 250 254 258 262 266 270 274 278 282 286 290 294 298 302 306 310 314 318 322 326 330 334 338 342 346 350 354 358 362 366 370 374 378 382 386 390 394 398 402 406 410 414 418 422 426 430 434 438 442 446 450 454 458 462 466 470 474 478 482 486 490 494 498 502 506 510 514 518 522 526 530 534 538 542 546 550 554 558 562 566 570 574 578 582 586 590 594 598 602 606 610 614 618 622 626 630 634 638 642 0
-648 3 7 11 15 19 23 27 31 35 39 43 47 51 55 59 63 67 71 75 79 83 87 91 95 99 103 107 111 115 119 123 127 131 135 139 143 147 151 155 159 163 167 171 175 179 183 187 191 195 199 203 207 211 215 219 223 227 231 235 239 243 247 251 255 259 263 267 271 275 279 283 287 291 295 299 303 307 311 315 319 323 327 331 335 339 343 347 351 355 359 363 367 371 375 379 383 387 391 395 399 403 407 411 415 419 423 427 431 435 439 443 447 451 455 459 463 467 471 475 479 483 487 491 495 499 503 507 511 515 519 523 527 531 535 539 543 547 551 555 559 563 567 571 575 579 583 587 591 595 599 603 607 611 615 619 623 627 631 635 639 643 0
-650 1 5 9 13 17 21 25 29 33 37 41 45 49 53 57 61 65 69 73 77 81 85 89 93 97 101 105 109 113 117 121 125 129 133 137 141 145 149 153 157 161 165 169 173 177 181 185 189 193 197 201 205 209 213 217 221 225 229 233 237 241 245 249 253 257 261 265 269 273 277 281 285 289 293 297 301 305 309 313 317 321 325 329 333 337 341 345 349 353 357 361 365 369 373 377 381 385 389 393 397 401 405 409 413 417 421 425 429 433 437 441 445 449 453 457 461 465 469 473 477 481 485 489 493 497 501 505 509 513 517 521 525 529 533 537 541 545 549 553 557 561 565 569 573 577 581 585 589 593 597 601 605 609 613 617 621 625 629 633 637 641 645 0
-651 2 6 10 14 18 22 26 30 34 38 42 46 50 54 58 62 66 70 74 78 82 86 90 94 98 102 106 110 114 118 122 126 130 134 138 142 146 150 154 158 162 166 170 174 178 182 186 190 194 198 202 206 210 214 218 222 226 230 234 238 242 246 250 254 258 262 266 270 274 278 282 286 290 294 298 302 306 310 314 318 322 326 330 334 338 342 346 350 354 358 362 366 370 374 378 382 386 390 394 398 402 406 410 414 418 422 426 430 434 438 442 446 450 454 458 462 466 470 474 478 482 486 490 494 498 502 506 510 514 518 522 526 530 534 538 542 546 550 554 558 562 566 570 574 578 582 586 590 594 598 602 606 610 614 618 622 626 630 634 638 642 646 0
-652 3 7 11 15 19 23 27 31 35 39 43 47 51 55 59 63 67 71 75 79 83 87 91 95 99 103 107 111 115 119 123 127 131 135 139 143 147 151 155 159 163 167 171 175 179 183 187 191 195 199 203 207 211 215 219 223 227 231 235 239 243 247 251 255 259 263 267 271 275 279 283 287 291 295 299 303 307 311 315 319 323 327 331 335 339 343 347 351 355 359 363 367 371 375 379 383 387 391 395 399 403 407 411 415 419 423 427 431 435 439 443 447 451 455 459 463 467 471 475 479 483 487 491 495 499 503 507 511 515 519 523 527 531 535 539 543 547 551 555 559 563 567 571 575 579 583 587 591 595 599 603 607 611 615 619 623 627 631 635 639 643 647 0
-654 1 5 9 13 17 21 25 29 33 37 41 45 49 53 57 61 65 69 73 77 81 85 89 93 97 101 105 109 113 117 121 125 129 133 137 141 145 149 153 157 161 165 169 173 177 181 185 189 193 197 201 205 209 213 217 221 225 229 233 237 241 245 249 253 257 261 265 269 273 277 281 285 289 293 297 301 305 309 313 317 321 325 329 333 337 341 345 349 353 357 361 365 369 373 377 381 385 389 393 397 401 405 409 413 417 421 425 429 433 437 441 445 449 453 457 461 465 469 473 477 481 485 489 493 497 501 505 509 513 517 521 525 529 533 537 541 545 549 553 557 561 565 569 573 577 581 585 589 593 597 601 605 609 613 617 621 625 629 633 637 641 645 649 0
-655 2 6 10 14 18 22 26 30 34 38 42 46 50 54 58 62 66 70 74 78 82 86 90 94 98 102 106 110 114 118 122 126 130 134 138 142 146 150 154 158 162 166 170 174 178 182 186 190 194 198 202 206 210 214 218 222 226 230 234 238 242 246 250 254 258 262 266 270 274 278 282 286 290 294 298 302 306 310 314 318 322 326 330 334 338 342 346 350 354 358 362 366 370 374 378 382 386 390 394 398 402 406 410 414 418 422 426 430 434 438 442 446 450 454 458 462 466 470 474 478 482 486 490 494 498 502 506 510 514 518 522 526 530 534 538 542 546 550 554 558 562 566 570 574 578 582 586 590 594 598 602 606 610 614 618 622 626 630 634 638 642 646 650 0
-656 3 7 11 15 19 23 27 31 35 39 43 47 51 55 59 63 67 71 75 79 83 87 91 95 99 103 107 111 115 119 123 127 131 135 139 143 147 151 155 159 163 167 171 175 179 183 187 191 195 199 203 207 211 215 219 223 227 231 235 239 243 247 251 255 259 263 267 271 275 279 283 287 291 295 299 303 307 311 315 319 323 327 331 335 339 343 347 351 355 359 363 367 371 375 379 383 387 391 395 399 403 407 411 415 419 423 427 431 435 439 443 447 451 455 459 463 467 471 475 479 483 487 491 495 499 503 507 511 515 519 523 527 531 535 539 543 547 551 555 559 563 567 571 575 579 583 587 591 595 599 603 607 611 615 619 623 627 631 635 639 643 647 651 0
-658 1 5 9 13 17 21 25 29 33 37 41 45 49 53 57 61 65 69 73 77 81 85 89 93 97 101 105 109 113 117 121 125 129 133 137 141 145 149 153 157 161 165 169 173 177 181 185 189 193 197 201 205 209 213 217 221 225 229 233 237 241 245 249 253 257 261 265 269 273 277 281 285 289 293 297 301 305 309 313 317 321 325 329 333 337 341 345 349 353 357 361 365 369 373 377 381 385 389 393 397 401 405 409 413 417 421 425 429 433 437 441 445 449 453 457 461 465 469 473 477 481 485 489 493 497 501 505 509 513 517 521 525 529 533 537 541 545 549 553 557 561 565 569 573 577 581 585 589 593 597 601 605 609 613 617 621 625 629 633 637 641 645 649 653 0
-659 2 6 10 14 18 22 26 30 34 38 42 46 50 54 58 62 66 70 74 78 82 86 90 94 98 102 106 110 114 118 122 126 130 134 138 142 146 150 154 158 162 166 170 174 178 182 186 190 194 198 202 206 210 214 218 222 226 230 234 238 242 246 250 254 258 262 266 270 274 278 282 286 290 294 298 302 306 310 314 318 322 326 330 334 338 342 346 350 354 358 362 366 370 374 378 382 386 390 394 398 402 406 410 414 418 422 426 430 434 438 442 446 450 454 458 462 466 470 474 478 482 486 490 494 498 502 506 510 514 518 522 526 530 534 538 542 546 550 554 558 562 566 570 574 578 582 586 590 594 598 602 606 610 614 618 622 626 630 634 638 642 646 650 654 0
-660 3 7 11 15 19 23 27 31 35 39 43 47 51 55 59 63 67 71 75 79 83 87 91 95 99 103 107 111 115 119 123 127 131 135 139 143 147 151 155 159 163 167 171 175 179 183 187 191 195 199 203 207 211 215 219 223 227 231 235 239 243 247 251 255 259 263 267 271 275 279 283 287 291 295 299 303 307 311 315 319 323 327 331 335 339 343 347 351 355 359 363 367 371 375 379 383 387 391 395 399 403 407 411 415 419 423 427 431 435 439 443 447 451 455 459 463 467 471 475 479 483 487 491 495 499 503 507 511 515 519 523 527 531 535 539 543 547 551 555 559 563 567 571 575 579 583 587 591 595 599 603 607 611 615 619 623 627 631 635 639 643 647 651 655 0
-662 1 5 9 13 17 21 25 29 33 37 41 45 49 53 57 61 65 69 73 77 81 85 89 93 97 101 105 109 113 117 121 125 129 133 137 141 145 149 153 157 161 165 169 173 177 181 185 189 193 197 201 205 209 213 217 221 225 229 233 237 241 245 249 253 257 261 265 269 273 277 281 285 289 293 297 301 305 309 313 317 321 325 329 333 337 341 345 349 353 357 361 365 369 373 377 381 385 389 393 397 401 405 409 413 417 421 425 429 433 437 441 445 449 453 457 461 465 469 473 477 481 485 489 493 497 501 505 509 513 517 521 525 529 533 537 541 545 549 553 557 561 565 569 573 577 581 585 589 593 597 601 605 609 613 617 621 625 629 633 637 641 645 649 653 657 0
-663 2 6 10 14 18 22 26 30 34 38 42 46 50 54 58 62 66 70 74 78 82 86 90 94 98 102 106 110 114 118 122 126 130 134 138 142 146 150 154 158 162 166 170 174 178 182 186 190 194 198 202 206 210 214 218 222 226 230 234 238 242 246 250 254 258 262 266 270 274 278 282 286 290 294 298 302 306 310 314 318 322 326 330 334 338 342 346 350 354 358 362 366 370 374 378 382 386 390 394 398 402 406 410 414 418 422 426 430 434 438 442 446 450 454 458 462 466 470 474 478 482 486 490 494 498 502 506 510 514 518 522 526 530 534 538 542 546 550 554 558 562 566 570 574 578 582 586 590 594 598 602 606 610 614 618 622 626 630 634 638 642 646 650 654 658 0
-664 3 7 11 15 19 23 27 31 35 39 43 47 51 55 59 63 67 71 75 79 83 87 91 95 99 103 107 111 115 119 123 127 131 135 139 143 147 151 155 159 163 167 171 175 179 183 187 191 195 199 203 207 211 215 219 223 227 231 235 239 243 247 251 255 259 263 267 271 275 279 283 287 291 295 299 303 307 311 315 319 323 327 331 335 339 343 347 351 355 359 363 367 371 375 379 383 387 391 395 399 403 407 411 415 419 423 427 431 435 439 443 447 451 455 459 463 467 471 475 479 483 487 491 495 499 503 507 511 515 519 523 527 531 535 539 543 547 551 555 559 563 567 571 575 579 583 587 591 595 599 603 607 611 615 619 623 627 631 635 639 643 647 651 655 659 0
-666 1 5 9 13 17 21 25 29 33 37 41 45 49 53 57 61 65 69 73 77 81 85 89 93 97 101 105 109 113 117 121 125 129 133 137 141 145 149 153 157 161 165 169 173 177 181 185 189 193 197 201 205 209 213 217 221 225 229 233 237 241 245 249 253 257 261 265 269 273 277 281 285 289 293 297 301 305 309 313 317 321 325 329 333 337 341 345 349 353 357 361 365 369 373 377 381 385 389 393 397 401 405 409 413 417 421 425 429 433 437 441 445 449 453 457 461 465 469 473 477 481 485 489 493 497 501 505 509 513 517 521 525 529 533 537 541 545 549 553 557 561 565 569 573 577 581 585 589 593 597 601 605 609 613 617 621 625 629 633 637 641 645 649 653 657 661 0
-667 2 6 10 14 18 22 26 30 34 38 42 46 50 54 58 62 66 70 74 78 82 86 90 94 98 102 106 110 114 118 122 126 130 134 138 142 146 150 154 158 162 166 170 174 178 182 186 190 194 198 202 206 210 214 218 222 226 230 234 238 242 246 250 254 258 262 266 270 274 278 282 286 290 294 298 302 306 310 314 318 322 326 330 334 338 342 346 350 354 358 362 366 370 374 378 382 386 390 394 398 402 406 410 414 418 422 426 430 434 438 442 446 450 454 458 462 466 470 474 478 482 486 490 494 498 502 506 510 514 518 522 526 530 534 538 542 546 550 554 558 562 566 570 574 578 582 586 590 594 598 602 606 610 614 618 622 626 630 634 638 642 646 650 654 658 662 0
-668 3 7 11 15 19 23 27 31 35 39 43 47 51 55 59 63 67 71 75 79 83 87 91 95 99 103 107 111 115 119 123 127 131 135 139 143 147 151 155 159 163 167 171 175 179 183 187 191 195 199 203 207 211 215 219 223 227 231 235 239 243 247 251 255 259 263 267 271 275 279 283 287 291 295 299 303 307 311 315 319 323 327 331 335 339 343 347 351 355 359 363 367 371 375 379 383 387 391 395 399 403 407 411 415 419 423 427 431 435 439 443 447 451 455 459 463 467 471 475 479 483 487 491 495 499 503 507 511 515 519 523 527 531 535 539 543 547 551 555 559 563 567 571 575 579 583 587 591 595 599 603 607 611 615 619 623 627 631 635 639 643 647 651 655 659 663 0
-670 1 5 9 13 17 21 25 29 33 37 41 45 49 53 57 61 65 69 73 77 81 85 89 93 97 101 105 109 113 117 121 125 129 133 137 141 145 149 153 157 161 165 169 173 177 181 185 189 193 197 201 205 209 213 217 221 225 229 233 237 241 245 249 253 257 261 265 269 273 277 281 285 289 293 297 301 305 309 313 317 321 325 329 333 337 341 345 349 353 357 361 365 369 373 377 381 385 389 393 397 401 405 409 413 417 421 425 429 433 437 441 445 449 453 457 461 465 469 473 477 481 485 489 493 497 501 505 509 513 517 521 525 529 533 537 541 545 549 553 557 561 565 569 573 577 581 585 589 593 597 601 605 609 613 617 621 625 629 633 637 641 645 649 653 657 661 665 0
-671 2 6 10 14 18 22 26 30 34 38 42 46 50 54 58 62 66 70 74 78 82 86 90 94 98 102 106 110 114 118 122 126 130 134 138 142 146 150 154 158 162 166 170 174 178 182 186 190 194 198 202 206 210 214 218 222 226 230 234 238 242 246 250 254 258 262 266 270 274 278 282 286 290 294 298 302 306 310 314 318 322 326 330 334 338 342 346 350 354 358 362 366 370 374 378 382 386 390 394 398 402 406 410 414 418 422 426 430 434 438 442 446 450 454 458 462 466 470 474 478 482 486 490 494 498 502 506 510 514 518 522 526 530 534 538 542 546 550 554 558 562 566 570 574 578 582 586 590 594 598 602 606 610 614 618 622 626 630 634 638 642 646 650 654 658 662 666 0
-672 3 7 11 15 19 23 27 31 35 39 43 47 51 55 59 63 67 71 75 79 83 87 91 95 99 103 107 111 115 119 123 127 131 135 139 143 147 151 155 159 163 167 171 175 179 183 187 191 195 199 203 207 211 215 219 223 227 231 235 239 243 247 251 255 259 263 267 271 275 279 283 287 291 295 299 303 307 311 315 319 323 327 331 335 339 343 347 351 355 359 363 367 371 375 379 383 387 391 395 399 403 407 411 415 419 423 427 431 435 439 443 447 451 455 459 463 467 471 475 479 483 487 491 495 499 503 507 511 515 519 523 527 531 535 539 543 547 551 555 559 563 567 571 575 579 583 587 591 595 599 603 607 611 615 619 623 627 631 635 639 643 647 651 655 659 663 667 0
-674 1 5 9 13 17 21 25 29 33 37 41 45 49 53 57 61 65 69 73 77 81 85 89 93 97 101 105 109 113 117 121 125 129 133 137 141 145 149 153 157 161 165 169 173 177 181 185 189 193 197 201 205 209 213 217 221 225 229 233 237 241 245 249 253 257 261 265 269 273 277 281 285 289 293 297 301 305 309 313 317 321 325 329 333 337 341 345 349 353 357 361 365 369 373 377 381 385 389 393 397 401 405 409 413 417 421 425 429 433 437 441 445 449 453 457 461 465 469 473 477 481 485 489 493 497 501 505 509 513 517 521 525 529 533 537 541 545 549 553 557 561 565 569 573 577 581 585 589 593 597 601 605 609 613 617 621 625 629 633 637 641 645 649 653 657 661 665 669 0
-675 2 6 10 14 18 22 26 30 34 38 42 46 50 54 58 62 66 70 74 78 82 86 90 94 98 102 106 110 114 118 122 126 130 134 138 142 146 150 154 158 162 166 170 174 178 182 186 190 194 198 202 206 210 214 218 222 226 230 234 238 242 246 250 254 258 262 266 270 274 278 282 286 290 294 298 302 306 310 314 318 322 326 330 334 338 342 346 350 354 358 362 366 370 374 378 382 386 390 394 398 402 406 410 414 418 422 426 430 434 438 442 446 450 454 458 462 466 470 474 478 482 486 490 494 498 502 506 510 514 518 522 526 530 534 538 542 546 550 554 558 562 566 570 574 578 582 586 590 594 598 602 606 610 614 618 622 626 630 634 638 642 646 650 654 658 662 666 670 0
-676 3 7 11 15 19 23 27 31 35 39 43 47 51 55 59 63 67 71 75 79 83 87 91 95 99 103 107 111 115 119 123 127 131 135 139 143 147 151 155 159 163 167 171 175 179 183 187 191 195 199 203 207 211 215 219 223 227 231 235 239 243 247 251 255 259 263 267 271 275 279 283 287 291 295 299 303 307 311 315 319 323 327 331 335 339 343 347 351 355 359 363 367 371 375 379 383 387 391 395 399 403 407 411 415 419 423 427 431 435 439 443 447 451 455 459 463 467 471 475 479 483 487 491 495 499 503 507 511 515 519 523 527 531 535 539 543 547 551 555 559 563 567 571 575 579 583 587 591 595 599 603 607 611 615 619 623 627 631 635 639 643 647 651 655 659 663 667 671 0
-678 1 5 9 13 17 21 25 29 33 37 41 45 49 53 57 61 65 69 73 77 81 85 89 93 97 101 105 109 113 117 121 125 129 133 137 141 145 149 153 157 161 165 169 173 177 181 185 189 193 197 201 205 209 213 217 221 225 229 233 237 241 245 249 253 257 261 265 269 273 277 281 285 289 293 297 301 305 309 313 317 321 325 329 333 337 341 345 349 353 357 361 365 369 373 377 381 385 389 393 397 401 405 409 413 417 421 425 429 433 437 441 445 449 453 457 461 465 469 473 477 481 485 489 493 497 501 505 509 513 517 521 525 529 533 537 541 545 549 553 557 561 565 569 573 577 581 585 589 593 597 601 605 609 613 617 621 625 629 633 637 641 645 649 653 657 661 665 669 673 0
-679 2 6 10 14 18 22 26 30 34 38 42 46 50 54 58 62 66 70 74 78 82 86 90 94 98 102 106 110 114 118 122 126 130 134 138 142 146 150 154 158 162 166 170 174 178 182 186 190 194 198 202 206 210 214 218 222 226 230 234 238 242 246 250 254 258 262 266 270 274 278 282 286 290 294 298 302 306 310 314 318 322 326 330 334 338 342 346 350 354 358 362 366 370 374 378 382 386 390 394 398 402 406 410 414 418 422 426 430 434 438 442 446 450 454 458 462 466 470 474 478 482 486 490 494 498 502 506 510 514 518 522 526 530 534 538 542 546 550 554 558 562 566 570 574 578 582 586 590 594 598 602 606 610 614 618 622 626 630 634 638 642 646 650 654 658 662 666 670 674 0
-680 3 7 11 15 19 23 27 31 35 39 43 47 51 55 59 63 67 71 75 79 83 87 91 95 99 103 107 111 115 119 123 127 131 135 139 143 147 151 155 159 163 167 171 175 179 183 187 191 195 199 203 207 211 215 219 223 227 231 235 239 243 247 251 255 259 263 267 271 275 279 283 287 291 295 299 303 307 311 315 319 323 327 331 335 339 343 347 351 355 359 363 367 371 375 379 383 387 391 395 399 403 407 411 415 419 423 427 431 435 439 443 447 451 455 459 463 467 471 475 479 483 487 491 495 499 503 507 511 515 519 523 527 531 535 539 543 547 551 555 559 563 567 571 575 579 583 587 591 595 599 603 607 611 615 619 623 627 631 635 639 643 647 651 655 659 663 667 671 675 0
-682 1 5 9 13 17 21 25 29 33 37 41 45 49 53 57 61 65 69 73 77 81 85 89 93 97 101 105 109 113 117 121 125 129 133 137 141 145 149 153 157 161 165 169 173 177 181 185 189 193 197 201 205 209 213 217 221 225 229 233 237 241 245 249 253 257 261 265 269 273 277 281 285 289 293 297 301 305 309 313 317 321 325 329 333 337 341 345 349 353 357 361 365 369 373 377 381 385 389 393 397 401 405 409 413 417 421 425 429 433 437 441 445 449 453 457 461 465 469 473 477 481 485 489 493 497 501 505 509 513 517 521 525 529 533 537 541 545 549 553 557 561 565 569 573 577 581 585 589 593 597 601 605 609 613 617 621 625 629 633 637 641 645 649 653 657 661 665 669 673 677 0
-683 2 6 10 14 18 22 26 30 34 38 42 46 50 54 58 62 66 70 74 78 82 86 90 94 98 102 106 110 114 118 122 126 130 134 138 142 146 150 154 158 162 166 170 174 178 182 186 190 194 198 202 206 210 214 218 222 226 230 234 238 242 246 250 254 258 262 266 270 274 278 282 286 290 294 298 302 306 310 314 318 322 326 330 334 338 342 346 350 354 358 362 366 370 374 378 382 386 390 394 398 402 406 410 414 418 422 426 430 434 438 442 446 450 454 458 462 466 470 474 478 482 486 490 494 498 502 506 510 514 518 522 526 530 534 538 542 546 550 554 558 562 566 570 574 578 582 586 590 594 598 602 606 610 614 618 622 626 630 634 638 642 646 650 654 658 662 666 670 674 678 0
-684 3 7 11 15 19 23 27 31 35 39 43 47 51 55 59 63 67 71 75 79 83 87 91 95 99 103 107 111 115 119 123 127 131 135 139 143 147 151 155 159 163 167 171 175 179 183 187 191 195 199 203 207 211 215 219 223 227 231 235 239 243 247 251 255 259 263 267 271 275 279 283 287 291 295 299 303 307 311 315 319 323 327 331 335 339 343 347 351 355 359 363 367 371 375 379 383 387 391 395 399 403 407 411 415 419 423 427 431 435 439 443 447 451 455 459 463 467 471 475 479 483 487 491 495 499 503 507 511 515 519 523 527 531 535 539 543 547 551 555 559 563 567 571 575 579 583 587 591 595 599 603 607 611 615 619 623 627 631 635 639 643 647 651 655 659 663 667 671 675 679 0
-686 1 5 9 13 17 21 25 29 33 37 41 45 49 53 57 61 65 69 73 77 81 85 89 93 97 101 105 109 113 117 121 125 129 133 137 141 145 149 153 157 161 165 169 173 177 181 185 189 193 197 201 205 209 213 217 221 225 229 233 237 241 245 249 253 257 261 265 269 273 277 281 285 289 293 297 301 305 309 313 317 321 325 329 333 337 341 345 349 353 357 361 365 369 373 377 381 385 389 393 397 401 405 409 413 417 421 425 429 433 437 441 445 449 453 457 461 465 469 473 477 481 485 489 493 497 501 505 509 513 517 521 525 529 533 537 541 545 549 553 557 561 565 569 573 577 581 585 589 593 597 601 605 609 613 617 621 625 629 633 637 641 645 649 653 657 661 665 669 673 677 681 0
-687 2 6 10 14 18 22 26 30 34 38 42 46 50 54 58 62 66 70 74 78 82 86 90 94 98 102 106 110 114 118 122 126 130 134 138 142 146 150 154 158 162 166 170 174 178 182 186 190 194 198 202 206 210 214 218 222 226 230 234 238 242 246 250 254 258 262 266 270 274 278 282 286 290 294 298 302 306 310 314 318 322 326 330 334 338 342 346 350 354 358 362 366 370 374 378 382 386 390 394 398 402 406 410 414 418 422 426 430 434 438 442 446 450 454 458 462 466 470 474 478 482 486 490 494 498 502 506 510 514 518 522 526 530 534 538 542 546 550 554 558 562 566 570 574 578 582 586 590 594 598 602 606 610 614 618 622 626 630 634 638 642 646 650 654 658 662 666 670 674 678 682 0
-688 3 7 11 15 19 23 27 31 35 39 43 47 51 55 59 63 67 71 75 79 83 87 91 95 99 103 107 111 115 119 123 127 131 135 139 143 147 151 155 159 163 167 171 175 179 183 187 191 195 199 203 207 211 215 219 223 227 231 235 239 243 247 251 255 259 263 267 271 275 279 283 287 291 295 299 303 307 311 315 319 323 327 331 335 339 343 347 351 355 359 363 367 371 375 379 383 387 391 395 399 403 407 411 415 419 423 427 431 435 439 443 447 451 455 459 463 467 471 475 479 483 487 491 495 499 503 507 511 515 519 523 527 531 535 539 543 547 551 555 559 563 567 571 575 579 583 587 591 595 599 603 607 611 615 619 623 627 631 635 639 643 647 651 655 659 663 667 671 675 679 683 0
-690 1 5 9 13 17 21 25 29 33 37 41 45 49 53 57 61 65 69 73 77 81 85 89 93 97 101 105 109 113 117 121 125 129 133 137 141 145 149 153 157 161 165 169 173 177 181 185 189 193 197 201 205 209 213 217 221 225 229 233 237 241 245 249 253 257 261 265 269 273 277 281 285 289 293 297 301 305 309 313 317 321 325 329 333 337 341 345 349 353 357 361 365 369 373 377 381 385 389 393 397 401 405 409 413 417 421 425 429 433 437 441 445 449 453 457 461 465 469 473 477 481 485 489 493 497 501 505 509 513 517 521 525 529 533 537 541 545 549 553 557 561 565 569 573 577 581 585 589 593 597 601 605 609 613 617 621 625 629 633 637 641 645 649 653 657 661 665 669 673 677 681 685 0
-691 2 6 10 14 18 22 26 30 34 38 42 46 50 54 58 62 66 70 74 78 82 86 90 94 98 102 106 110 114 118 122 126 130 134 138 142 146 150 154 158 162 166 170 174 178 182 186 190 194 198 202 206 210 214 218 222 226 230 234 238 242 246 250 254 258 262 266 270 274 278 282 286 290 294 298 302 306 310 314 318 322 326 330 334 338 342 346 350 354 358 362 366 370 374 378 382 386 390 394 398 402 406 410 414 418 422 426 430 434 438 442 446 450 454 458 462 466 470 474 478 482 486 490 494 498 502 506 510 514 518 522 526 530 534 538 542 546 550 554 558 562 566 570 574 578 582 586 590 594 598 602 606 610 614 618 622 626 630 634 638 642 646 650 654 658 662 666 670 674 678 682 686 0
-692 3 7 11 15 19 23 27 31 35 39 43 47 51 55 59 63 67 71 75 79 83 87 91 95 99 103 107 111 115 119 123 127 131 135 139 143 147 151 155 159 163 167 171 175 179 183 187 191 195 199 203 207 211 215 219 223 227 231 235 239 243 247 251 255 259 263 267 271 275 279 283 287 291 295 299 303 307 311 315 319 323 327 331 335 339 343 347 351 355 359 363 367 371 375 379 383 387 391 395 399 403 407 411 415 419 423 427 431 435 439 443 447 451 455 459 463 467 471 475 479 483 487 491 495 499 503 507 511 515 519 523 527 531 535 539 543 547 551 555 559 563 567 571 575 579 583 587 591 595 599 603 607 611 615 619 623 627 631 635 639 643 647 651 655 659 663 667 671 675 679 683 687 0
-694 1 5 9 13 17 21 25 29 33 37 41 45 49 53 57 61 65 69 73 77 81 85 89 93 97 101 105 109 113 117 121 125 129 133 137 141 145 149 153 157 161 165 169 173 177 181 185 189 193 197 201 205 209 213 217 221 225 229 233 237 241 245 249 253 257 261 265 269 273 277 281 285 289 293 297 301 305 309 313 317 321 325 329 333 337 341 345 349 353 357 361 365 369 373 377 381 385 389 393 397 401 405 409 413 417 421 425 429 433 437 441 445 449 453 457 461 465 469 473 477 481 485 489 493 497 501 505 509 513 517 521 525 529 533 537 541 545 549 553 557 561 565 569 573 577 581 585 589 593 597 601 605 609 613 617 621 625 629 633 637 641 645 649 653 657 661 665 669 673 677 681 685 689 0
-695 2 6 10 14 18 22 26 30 34 38 42 46 50 54 58 62 66 70 74 78 82 86 90 94 98 102 106 110 114 118 122 126 130 134 138 142 146 150 154 158 162 166 170 174 178 182 186 190 194 198 202 206 210 214 218 222 226 230 234 238 242 246 250 254 258 262 266 270 274 278 282 286 290 294 298 302 306 310 314 318 322 326 330 334 338 342 346 350 354 358 362 366 370 374 378 382 386 390 394 398 402 406 410 414 418 422 426 430 434 438 442 446 450 454 458 462 466 470 474 478 482 486 490 494 498 502 506 510 514 518 522 526 530 534 538 542 546 550 554 558 562 566 570 574 578 582 586 590 594 598 602 606 610 614 618 622 626 630 634 638 642 646 650 654 658 662 666 670 674 678 682 686 690 0
-696 3 7 11 15 19 23 27 31 35 39 43 47 51 55 59 63 67 71 75 79 83 87 91 95 99 103 107 111 115 119 123 127 131 135 139 143 147 151 155 159 163 167 171 175 179 183 187 191 195 199 203 207 211 215 219 223 227 231 235 239 243 247 251 255 259 263 267 271 275 279 283 287 291 295 299 303 307 311 315 319 323 327 331 335 339 343 347 351 355 359 363 367 371 375 379 383 387 391 395 399 403 407 411 415 419 423 427 431 435 439 443 447 451 455 459 463 467 471 475 479 483 487 491 495 499 503 507 511 515 519 523 527 531 535 539 543 547 551 555 559 563 567 571 575 579 583 587 591 595 599 603 607 611 615 619 623 627 631 635 639 643 647 651 655 659 663 667 671 675 679 683 687 691 0
-698 1 5 9 13 17 21 25 29 33 37 41 45 49 53 57 61 65 69 73 77 81 85 89 93 97 101 105 109 113 117 121 125 129 133 137 141 145 149 153 157 161 165 169 173 177 181 185 189 193 197 201 205 209 213 217 221 225 229 233 237 241 245 249 253 257 261 265 269 273 277 281 285 289 293 297 301 305 309 313 317 321 325 329 333 337 341 345 349 353 357 361 365 369 373 377 381 385 389 393 397 401 405 409 413 417 421 425 429 433 437 441 445 449 453 457 461 465 469 473 477 481 485 489 493 497 501 505 509 513 517 521 525 529 533 537 541 545 549 553 557 561 565 569 573 577 581 585 589 593 597 601 605 609 613 617 621 625 629 633 637 641 645 649 653 657 661 665 669 673 677 681 685 689 693 0
-699 2 6 10 14 18 22 26 30 34 38 42 46 50 54 58 62 66 70 74 78 82 86 90 94 98 102 106 110 114 118 122 126 130 134 138 142 146 150 154 158 162 166 170 174 178 182 186 190 194 198 202 206 210 214 218 222 226 230 234 238 242 246 250 254 258 262 266 270 274 278 282 286 290 294 298 302 306 310 314 318 322 326 330 334 338 342 346 350 354 358 362 366 370 374 378 382 386 390 394 398 402 406 410 414 418 422 426 430 434 438 442 446 450 454 458 462 466 470 474 478 482 486 490 494 498 502 506 510 514 518 522 526 530 534 538 542 546 550 554 558 562 566 570 574 578 582 586 590 594 598 602 606 610 614 618 622 626 630 634 638 642 646 650 654 658 662 666 670 674 678 682 686 690 694 0
-700 3 7 11 15 19 23 27 31 35 39 43 47 51 55 59 63 67 71 75 79 83 87 91 95 99 103 107 111 115 119 123 127 131 135 139 143 147 151 155 159 163 167 171 175 179 183 187 191 195 199 203 207 211 215 219 223 227 231 235 239 243 247 251 255 259 263 267 271 275 279 283 287 291 295 299 303 307 311 315 319 323 327 331 335 339 343 347 351 355 359 363 367 371 375 379 383 387 391 395 399 403 407 411 415 419 423 427 431 435 439 443 447 451 455 459 463 467 471 475 479 483 487 491 495 499 503 507 511 515 519 523 527 531 535 539 543 547 551 555 559 563 567 571 575 579 583 587 591 595 599 603 607 611 615 619 623 627 631 635 639 643 647 651 655 659 663 667 671 675 679 683 687 691 695 0
-702 1 5 9 13 17 21 25 29 33 37 41 45 49 53 57 61 65 69 73 77 81 85 89 93 97 101 105 109 113 117 121 125 129 133 137 141 145 149 153 157 161 165 169 173 177 181 185 189 193 197 201 205 209 213 217 221 225 229 233 237 241 245 249 253 257 261 265 269 273 277 281 285 289 293 297 301 305 309 313 317 321 325 329 333 337 341 345 349 353 357 361 365 369 373 377 381 385 389 393 397 401 405 409 413 417 421 425 429 433 437 441 445 449 453 457 461 465 469 473 477 481 485 489 493 497 501 505 509 513 517 521 525 529 533 537 541 545 549 553 557 561 565 569 573 577 581 585 589 593 597 601 605 609 613 617 621 625 629 633 637 641 645 649 653 657 661 665 669 673 677 681 685 689 693 697 0
-703 2 6 10 14 18 22 26 30 34 38 42 46 50 54 58 62 66 70 74 78 82 86 90 94 98 102 106 110 114 118 122 126 130 134 138 142 146 150 154 158 162 166 170 174 178 182 186 190 194 198 202 206 210 214 218 222 226 230 234 238 242 246 250 254 258 262 266 270 274 278 282 286 290 294 298 302 306 310 314 318 322 326 330 334 338 342 346 350 354 358 362 366 370 374 378 382 386 390 394 398 402 406 410 414 418 422 426 430 434 438 442 446 450 454 458 462 466 470 474 478 482 486 490 494 498 502 506 510 514 518 522 526 530 534 538 542 546 550 554 558 562 566 570 574 578 582 586 590 594 598 602 606 610 614 618 622 626 630 634 638 642 646 650 654 658 662 666 670 674 678 682 686 690 694 698 0
-704 3 7 11 15 19 23 27 31 35 39 43 47 51 55 59 63 67 71 75 79 83 87 91 95 99 103 107 111 115 119 123 127 131 135 139 143 147 151 155 159 163 167 171 175 179 183 187 191 195 199 203 207 211 215 219 223 227 231 235 239 243 247 251 255 259 263 267 271 275 279 283 287 291 295 299 303 307 311 315 319 323 327 331 335 339 343 347 351 355 359 363 367 371 375 379 383 387 391 395 399 403 407 411 415 419 423 427 431 435 439 443 447 451 455 459 463 467 471 475 479 483 487 491 495 499 503 507 511 515 519 523 527 531 535 539 543 547 551 555 559 563 567 571 575 579 583 587 591 595 599 603 607 611 615 619 623 627 631 635 639 643 647 651 655 659 663 667 671 675 679 683 687 691 695 699 0
-706 1 5 9 13 17 21 25 29 33 37 41 45 49 53 57 61 65 69 73 77 81 85 89 93 97 101 105 109 113 117 121 125 129 133 137 141 145 149 153 157 161 165 169 173 177 181 185 189 193 197 201 205 209 213 217 221 225 229 233 237 241 245 249 253 257 261 265 269 273 277 281 285 289 293 297 301 305 309 313 317 321 325 329 333 337 341 345 349 353 357 361 365 369 373 377 381 385 389 393 397 401 405 409 413 417 421 425 429 433 437 441 445 449 453 457 461 465 469 473 477 481 485 489 493 497 501 505 509 513 517 521 525 529 533 537 541 545 549 553 557 561 565 569 573 577 581 585 589 593 597 601 605 609 613 617 621 625 629 633 637 641 645 649 653 657 661 665 669 673 677 681 685 689 693 697 701 0
-707 2 6 10 14 18 22 26 30 34 38 42 46 50 54 58 62 66 70 74 78 82 86 90 94 98 102 106 110 114 118 122 126 130 134 138 142 146 150 154 158 162 166 170 174 178 182 186 190 194 198 202 206 210 214 218 222 226 230 234 238 242 246 250 254 258 262 266 270 274 278 282 286 290 294 298 302 306 310 314 318 322 326 330 334 338 342 346 350 354 358 362 366 370 374 378 382 386 390 394 398 402 406 410 414 418 422 426 430 434 438 442 446 450 454 458 462 466 470 474 478 482 486 490 494 498 502 506 510 514 518 522 526 530 534 538 542 546 550 554 558 562 566 570 574 578 582 586 590 594 598 602 606 610 614 618 622 626 630 634 638 642 646 650 654 658 662 666 670 674 678 682 686 690 694 698 702 0
-708 3 7 11 15 19 23 27 31 35 39 43 47 51 55 59 63 67 71 75 79 83 87 91 95 99 103 107 111 115 119 123 127 131 135 139 143 147 151 155 159 163 167 171 175 179 183 187 191 195 199 203 207 211 215 219 223 227 231 235 239 243 247 251 255 259 263 267 271 275 279 283 287 291 295 299 303 307 311 315 319 323 327 331 335 339 343 347 351 355 359 363 367 371 375 379 383 387 391 395 399 403 407 411 415 419 423 427 431 435 439 443 447 451 455 459 463 467 471 475 479 483 487 491 495 499 503 507 511 515 519 523 527 531 535 539 543 547 551 555 559 563 567 571 575 579 583 587 591 595 599 603 607 611 615 619 623 627 631 635 639 643 647 651 655 659 663 667 671 675 679 683 687 691 695 699 703 0
-710 1 5 9 13 17 21 25 29 33 37 41 45 49 53 57 61 65 69 73 77 81 85 89 93 97 101 105 109 113 117 121 125 129 133 137 141 145 149 153 157 161 165 169 173 177 181 185 189 193 197 201 205 209 213 217 221 225 229 233 237 241 245 249 253 257 261 265 269 273 277 281 285 289 293 297 301 305 309 313 317 321 325 329 333 337 341 345 349 353 357 361 365 369 373 377 381 385 389 393 397 401 405 409 413 417 421 425 429 433 437 441 445 449 453 457 461 465 469 473 477 481 485 489 493 497 501 505 509 513 517 521 525 529 533 537 541 545 549 553 557 561 565 569 573 577 581 585 589 593 597 601 605 609 613 617 621 625 629 633 637 641 645 649 653 657 661 665 669 673 677 681 685 689 693 697 701 705 0
-711 2 6 10 14 18 22 26 30 34 38 42 46 50 54 58 62 66 70 74 78 82 86 90 94 98 102 106 110 114 118 122 126 130 134 138 142 146 150 154 158 162 166 170 174 178 182 186 190 194 198 202 206 210 214 218 222 226 230 234 238 242 246 250 254 258 262 266 270 274 278 282 286 290 294 298 302 306 310 314 318 322 326 330 334 338 342 346 350 354 358 362 366 370 374 378 382 386 390 394 398 402 406 410 414 418 422 426 430 434 438 442 446 450 454 458 462 466 470 474 478 482 486 490 494 498 502 506 510 514 518 522 526 530 534 538 542 546 550 554 558 562 566 570 574 578 582 586 590 594 598 602 606 610 614 618 622 626 630 634 638 642 646 650 654 658 662 666 670 674 678 682 686 690 694 698 702 706 0
-712 3 7 11 15 19 23 27 31 35 39 43 47 51 55 59 63 67 71 75 79 83 87 91 95 99 103 107 111 115 119 123 127 131 135 139 143 147 151 155 159 163 167 171 175 179 183 187 191 195 199 203 207 211 215 219 223 227 231 235 239 243 247 251 255 259 263 267 271 275 279 283 287 291 295 299 303 307 311 315 319 323 327 331 335 339 343 347 351 355 359 363 367 371 375 379 383 387 391 395 399 403 407 411 415 419 423 427 431 435 439 443 447 451 455 459 463 467 471 475 479 483 487 491 495 499 503 507 511 515 519 523 527 531 535 539 543 547 551 555 559 563 567 571 575 579 583 587 591 595 599 603 607 611 615 619 623 627 631 635 639 643 647 651 655 659 663 667 671 675 679 683 687 691 695 699 703 707 0
-714 1 5 9 13 17 21 25 29 33 37 41 45 49 53 57 61 65 69 73 77 81 85 89 93 97 101 105 109 113 117 121 125 129 133 137 141 145 149 153 157 161 165 169 173 177 181 185 189 193 197 201 205 209 213 217 221 225 229 233 237 241 245 249 253 257 261 265 269 273 277 281 285 289 293 297 301 305 309 313 317 321 325 329 333 337 341 345 349 353 357 361 365 369 373 377 381 385 389 393 397 401 405 409 413 417 421 425 429 433 437 441 445 449 453 457 461 465 469 473 477 481 485 489 493 497 501 505 509 513 517 521 525 529 533 537 541 545 549 553 557 561 565 569 573 577 581 585 589 593 597 601 605 609 613 617 621 625 629 633 637 641 645 649 653 657 661 665 669 673 677 681 685 689 693 697 701 705 709 0
-715 2 6 10 14 18 22 26 30 34 38 42 46 50 54 58 62 66 70 74 78 82 86 90 94 98 102 106 110 114 118 122 126 130 134 138 142 146 150 154 158 162 166 170 174 178 182 186 190 194 198 202 206 210 214 218 222 226 230 234 238 242 246 250 254 258 262 266 270 274 278 282 286 290 294 298 302 306 310 314 318 322 326 330 334 338 342 346 350 354 358 362 366 370 374 378 382 386 390 394 398 402 406 410 414 418 422 426 430 434 438 442 446 450 454 458 462 466 470 474 478 482 486 490 494 498 502 506 510 514 518 522 526 530 534 538 542 546 550 554 558 562 566 570 574 578 582 586 590 594 598 602 606 610 614 618 622 626 630 634 638 642 646 650 654 658 662 666 670 674 678 682 686 690 694 698 702 706 710 0
-716 3 7 11 15 19 23 27 31 35 39 43 47 51 55 59 63 67 71 75 79 83 87 91 95 99 103 107 111 115 119 123 127 131 135 139 143 147 151 155 159 163 167 171 175 179 183 187 191 195 199 203 207 211 215 219 223 227 231 235 239 243 247 251 255 259 263 267 271 275 279 283 287 291 295 299 303 307 311 315 319 323 327 331 335 339 343 347 351 355 359 363 367 371 375 379 383 387 391 395 399 403 407 411 415 419 423 427 431 435 439 443 447 451 455 459 463 467 471 475 479 483 487 491 495 499 503 507 511 515 519 523 527 531 535 539 543 547 551 555 559 563 567 571 575 579 583 587 591 595 599 603 607 611 615 619 623 627 631 635 639 643 647 651 655 659 663 667 671 675 679 683 687 691 695 699 703 707 711 0
-718 1 5 9 13 17 21 25 29 33 37 41 45 49 53 57 61 65 69 73 77 81 85 89 93 97 101 105 109 113 117 121 125 129 133 137 141 145 149 153 157 161 165 169 173 177 181 185 189 193 197 201 205 209 213 217 221 225 229 233 237 241 245 249 253 257 261 265 269 273 277 281 285 289 293 297 301 305 309 313 317 321 325 329 333 337 341 345 349 353 357 361 365 369 373 377 381 385 389 393 397 401 405 409 413 417 421 425 429 433 437 441 445 449 453 457 461 465 469 473 477 481 485 489 493 497 501 505 509 513 517 521 525 529 533 537 541 545 549 553 557 561 565 569 573 577 581 585 589 593 597 601 605 609 613 617 621 625 629 633 637 641 645 649 653 657 661 665 669 673 677 681 685 689 693 697 701 705 709 713 0
-719 2 6 10 14 18 22 26 30 34 38 42 46 50 54 58 62 66 70 74 78 82 86 90 94 98 102 106 110 114 118 122 126 130 134 138 142 146 150 154 158 162 166 170 174 178 182 186 190 194 198 202 206 210 214 218 222 226 230 234 238 242 246 250 254 258 262 266 270 274 278 282 286 290 294 298 302 306 310 314 318 322 326 330 334 338 342 346 350 354 358 362 366 370 374 378 382 386 390 394 398 402 406 410 414 418 422 426 430 434 438 442 446 450 454 458 462 466 470 474 478 482 486 490 494 498 502 506 510 514 518 522 526 530 534 538 542 546 550 554 558 562 566 570 574 578 582 586 590 594 598 602 606 610 614 618 622 626 630 634 638 642 646 650 654 658 662 666 670 674 678 682 686 690 694 698 702 706 710 714 0
-720 3 7 11 15 19 23 27 31 35 39 43 47 51 55 59 63 67 71 75 79 83 87 91 95 99 103 107 111 115 119 123 127 131 135 139 143 147 151 155 159 163 167 171 175 179 183 187 191 195 199 203 207 211 215 219 223 227 231 235 239 243 247 251 255 259 263 267 271 275 279 283 287 291 295 299 303 307 311 315 319 323 327 331 335 339 343 347 351 355 359 363 367 371 375 379 383 387 391 395 399 403 407 411 415 419 423 427 431 435 439 443 447 451 455 459 463 467 471 475 479 483 487 491 495 499 503 507 511 515 519 523 527 531 535 539 543 547 551 555 559 563 567 571 575 579 583 587 591 595 599 603 607 611 615 619 623 627 631 635 639 643 647 651 655 659 663 667 671 675 679 683 687 691 695 699 703 707 711 715 0
-722 1 5 9 13 17 21 25 29 33 37 41 45 49 53 57 61 65 69 73 77 81 85 89 93 97 101 105 109 113 117 121 125 129 133 137 141 145 149 153 157 161 165 169 173 177 181 185 189 193 197 201 205 209 213 217 221 225 229 233 237 241 245 249 253 257 261 265 269 273 277 281 285 289 293 297 301 305 309 313 317 321 325 329 333 337 341 345 349 353 357 361 365 369 373 377 381 385 389 393 397 401 405 409 413 417 421 425 429 433 437 441 445 449 453 457 461 465 469 473 477 481 485 489 493 497 501 505 509 513 517 521 525 529 533 537 541 545 549 553 557 561 565 569 573 577 581 585 589 593 597 601 605 609 613 617 621 625 629 633 637 641 645 649 653 657 661 665 669 673 677 681 685 689 693 697 701 705 709 713 717 0
-723 2 6 10 14 18 22 26 30 34 38 42 46 50 54 58 62 66 70 74 78 82 86 90 94 98 102 106 110 114 118 122 126 130 134 138 142 146 150 154 158 162 166 170 174 178 182 186 190 194 198 202 206 210 214 218 222 226 230 234 238 242 246 250 254 258 262 266 270 274 278 282 286 290 294 298 302 306 310 314 318 322 326 330 334 338 342 346 350 354 358 362 366 370 374 378 382 386 390 394 398 402 406 410 414 418 422 426 430 434 438 442 446 450 454 458 462 466 470 474 478 482 486 490 494 498 502 506 510 514 518 522 526 530 534 538 542 546 550 554 558 562 566 570 574 578 582 586 590 594 598 602 606 610 614 618 622 626 630 634 638 642 646 650 654 658 662 666 670 674 678 682 686 690 694 698 702 706 710 714 718 0
-724 3 7 11 15 19 23 27 31 35 39 43 47 51 55 59 63 67 71 75 79 83 87 91 95 99 103 107 111 115 119 123 127 131 135 139 143 147 151 155 159 163 167 171 175 179 183 187 191 195 199 203 207 211 215 219 223 227 231 235 239 243 247 251 255 259 263 267 271 275 279 283 287 291 295 299 303 307 311 315 319 323 327 331 335 339 343 347 351 355 359 363 367 371 375 379 383 387 391 395 399 403 407 411 415 419 423 427 431 435 439 443 447 451 455 459 463 467 471 475 479 483 487 491 495 499 503 507 511 515 519 523 527 531 535 539 543 547 551 555 559 563 567 571 575 579 583 587 591 595 599 603 607 611 615 619 623 627 631 635 639 643 647 651 655 659 663 667 671 675 679 683 687 691 695 699 703 707 711 715 719 0
-726 1 5 9 13 17 21 25 29 33 37 41 45 49 53 57 61 65 69 73 77 81 85 89 93 97 101 105 109 113 117 121 125 129 133 137 141 145 149 153 157 161 165 169 173 177 181 185 189 193 197 201 205 209 213 217 221 225 229 233 237 241 245 249 253 257 261 265 269 273 277 281 285 289 293 297 301 305 309 313 317 321 325 329 333 337 341 345 349 353 357 361 365 369 373 377 381 385 389 393 397 401 405 409 413 417 421 425 429 433 437 441 445 449 453 457 461 465 469 473 477 481 485 489 493 497 501 505 509 513 517 521 525 529 533 537 541 545 549 553 557 561 565 569 573 577 581 585 589 593 597 601 605 609 613 617 621 625 629 633 637 641 645 649 653 657 661 665 669 673 677 681 685 689 693 697 701 705 709 713 717 721 0
-727 2 6 10 14 18 22 26 30 34 38 42 46 50 54 58 62 66 70 74 78 82 86 90 94 98 102 106 110 114 118 122 126 130 134 138 142 146 150 154 158 162 166 170 174 178 182 186 190 194 198 202 206 210 214 218 222 226 230 234 238 242 246 250 254 258 262 266 270 274 278 282 286 290 294 298 302 306 310 314 318 322 326 330 334 338 342 346 350 354 358 362 366 370 374 378 382 386 390 394 398 402 406 410 414 418 422 426 430 434 438 442 446 450 454 458 462 466 470 474 478 482 486 490 494 498 502 506 510 514 518 522 526 530 534 538 542 546 550 554 558 562 566 570 574 578 582 586 590 594 598 602 606 610 614 618 622 626 630 634 638 642 646 650 654 658 662 666 670 674 678 682 686 690 694 698 702 706 710 714 718 722 0
-728 3 7 11 15 19 23 27 31 35 39 43 47 51 55 59 63 67 71 75 79 83 87 91 95 99 103 107 111 115 119 123 127 131 135 139 143 147 151 155 159 163 167 171 175 179 183 187 191 195 199 203 207 211 215 219 223 227 231 235 239 243 247 251 255 259 263 267 271 275 279 283 287 291 295 299 303 307 311 315 319 323 327 331 335 339 343 347 351 355 359 363 367 371 375 379 383 387 391 395 399 403 407 411 415 419 423 427 431 435 439 443 447 451 455 459 463 467 471 475 479 483 487 491 495 499 503 507 511 515 519 523 527 531 535 539 543 547 551 555 559 563 567 571 575 579 583 587 591 595 599 603 607 611 615 619 623 627 631 635 639 643 647 651 655 659 663 667 671 675 679 683 687 691 695 699 703 707 711 715 719 723 0
-730 1 5 9 13 17 21 25 29 33 37 41 45 49 53 57 61 65 69 73 77 81 85 89 93 97 101 105 109 113 117 121 125 129 133 137 141 145 149 153 157 161 165 169 173 177 181 185 189 193 197 201 205 209 213 217 221 225 229 233 237 241 245 249 253 257 261 265 269 273 277 281 285 289 293 297 301 305 309 313 317 321 325 329 333 337 341 345 349 353 357 361 365 369 373 377 381 385 389 393 397 401 405 409 413 417 421 425 429 433 437 441 445 449 453 457 461 465 469 473 477 481 485 489 493 497 501 505 509 513 517 521 525 529 533 537 541 545 549 553 557 561 565 569 573 577 581 585 589 593 597 601 605 609 613 617 621 625 629 633 637 641 645 649 653 657 661 665 669 673 677 681 685 689 693 697 701 705 709 713 717 721 725 0
-731 2 6 10 14 18 22 26 30 34 38 42 46 50 54 58 62 66 70 74 78 82 86 90 94 98 102 106 110 114 118 122 126 130 134 138 142 146 150 154 158 162 166 170 174 178 182 186 190 194 198 202 206 210 214 218 222 226 230 234 238 242 246 250 254 258 262 266 270 274 278 282 286 290 294 298 302 306 310 314 318 322 326 330 334 338 342 346 350 354 358 362 366 370 374 378 382 386 390 394 398 402 406 410 414 418 422 426 430 434 438 442 446 450 454 458 462 466 470 474 478 482 486 490 494 498 502 506 510 514 518 522 526 530 534 538 542 546 550 554 558 562 566 570 574 578 582 586 590 594 598 602 606 610 614 618 622 626 630 634 638 642 646 650 654 658 662 666 670 674 678 682 686 690 694 698 702 706 710 714 718 722 726 0
-732 3 7 11 15 19 23 27 31 35 39 43 47 51 55 59 63 67 71 75 79 83 87 91 95 99 103 107 111 115 119 123 127 131 135 139 143 147 151 155 159 163 167 171 175 179 183 187 191 195 199 203 207 211 215 219 223 227 231 235 239 243 247 251 255 259 263 267 271 275 279 283 287 291 295 299 303 307 311 315 319 323 327 331 335 339 343 347 351 355 359 363 367 371 375 379 383 387 391 395 399 403 407 411 415 419 423 427 431 435 439 443 447 451 455 459 463 467 471 475 479 483 487 491 495 499 503 507 511 515 519 523 527 531 535 539 543 547 551 555 559 563 567 571 575 579 583 587 591 595 599 603 607 611 615 619 623 627 631 635 639 643 647 651 655 659 663 667 671 675 679 683 687 691 695 699 703 707 711 715 719 723 727 0
-734 1 5 9 13 17 21 25 29 33 37 41 45 49 53 57 61 65 69 73 77 81 85 89 93 97 101 105 109 113 117 121 125 129 133 137 141 145 149 153 157 161 165 169 173 177 181 185 189 193 197 201 205 209 213 217 221 225 229 233 237 241 245 249 253 257 261 265 269 273 277 281 285 289 293 297 301 305 309 313 317 321 325 329 333 337 341 345 349 353 357 361 365 369 373 377 381 385 389 393 397 401 405 409 413 417 421 425 429 433 437 441 445 449 453 457 461 465 469 473 477 481 485 489 493 497 501 505 509 513 517 521 525 529 533 537 541 545 549 553 557 561 565 569 573 577 581 585 589 593 597 601 605 609 613 617 621 625 629 633 637 641 645 649 653 657 661 665 669 673 677 681 685 689 693 697 701 705 709 713 717 721 725 729 0
-735 2 6 10 14 18 22 26 30 34 38 42 46 50 54 58 62 66 70 74 78 82 86 90 94 98 102 106 110 114 118 122 126 130 134 138 142 146 150 154 158 162 166 170 174 178 182 186 190 194 198 202 206 210 214 218 222 226 230 234 238 242 246 250 254 258 262 266 270 274 278 282 286 290 294 298 302 306 310 314 318 322 326 330 334 338 342 346 350 354 358 362 366 370 374 378 382 386 390 394 398 402 406 410 414 418 422 426 430 434 438 442 446 450 454 458 462 466 470 474 478 482 486 490 494 498 502 506 510 514 518 522 526 530 534 538 542 546 550 554 558 562 566 570 574 578 582 586 590 594 598 602 606 610 614 618 622 626 630 634 638 642 646 650 654 658 662 666 670 674 678 682 686 690 694 698 702 706 710 714 718 722 726 730 0
-736 3 7 11 15 19 23 27 31 35 39 43 47 51 55 59 63 67 71 75 79 83 87 91 95 99 103 107 111 115 119 123 127 131 135 139 143 147 151 155 159 163 167 171 175 179 183 187 191 195 199 203 207 211 215 219 223 227 231 235 239 243 247 251 255 259 263 267 271 275 279 283 287 291 295 299 303 307 311 315 319 323 327 331 335 339 343 347 351 355 359 363 367 371 375 379 383 387 391 395 399 403 407 411 415 419 423 427 431 435 439 443 447 451 455 459 463 467 471 475 479 483 487 491 495 499 503 507 511 515 519 523 527 531 535 539 543 547 551 555 559 563 567 571 575 579 583 587 591 595 599 603 607 611 615 619 623 627 631 635 639 643 647 651 655 659 663 667 671 675 679 683 687 691 695 699 703 707 711 715 719 723 727 731 0
-738 1 5 9 13 17 21 25 29 33 37 41 45 49 53 57 61 65 69 73 77 81 85 89 93 97 101 105 109 113 117 121 125 129 133 137 141 145 149 153 157 161 165 169 173 177 181 185 189 193 197 201 205 209 213 217 221 225 229 233 237 241 245 249 253 257 261 265 269 273 277 281 285 289 293 297 301 305 309 313 317 321 325 329 333 337 341 345 349 353 357 361 365 369 373 377 381 385 389 393 397 401 405 409 413 417 421 425 429 433 437 441 445 449 453 457 461 465 469 473 477 481 485 489 493 497 501 505 509 513 517 521 525 529 533 537 541 545 549 553 557 561 565 569 573 577 581 585 589 593 597 601 605 609 613 617 621 625 629 633 637 641 645 649 653 657 661 665 669 673 677 681 685 689 693 697 701 705 709 713 717 721 725 729 733 0
-739 2 6 10 14 18 22 26 30 34 38 42 46 50 54 58 62 66 70 74 78 82 86 90 94 98 102 106 110 114 118 122 126 130 134 138 142 146 150 154 158 162 166 170 174 178 182 186 190 194 198 202 206 210 214 218 222 226 230 234 238 242 246 250 254 258 262 266 270 274 278 282 286 290 294 298 302 306 310 314 318 322 326 330 334 338 342 346 350 354 358 362 366 370 374 378 382 386 390 394 398 402 406 410 414 418 422 426 430 434 438 442 446 450 454 458 462 466 470 474 478 482 486 490 494 498 502 506 510 514 518 522 526 530 534 538 542 546 550 554 558 562 566 570 574 578 582 586 590 594 598 602 606 610 614 618 622 626 630 634 638 642 646 650 654 658 662 666 670 674 678 682 686 690 694 698 702 706 710 714 718 722 726 730 734 0
-740 3 7 11 15 19 23 27 31 35 39 43 47 51 55 59 63 67 71 75 79 83 87 91 95 99 103 107 111 115 119 123 127 131 135 139 143 147 151 155 159 163 167 171 175 179 183 187 191 195 199 203 207 211 215 219 223 227 231 235 239 243 247 251 255 259 263 267 271 275 279 283 287 291 295 299 303 307 311 315 319 323 327 331 335 339 343 347 351 355 359 363 367 371 375 379 383 387 391 395 399 403 407 411 415 419 423 427 431 435 439 443 447 451 455 459 463 467 471 475 479 483 487 491 495 499 503 507 511 515 519 523 527 531 535 539 543 547 551 555 559 563 567 571 575 579 583 587 591 595 599 603 607 611 615 619 623 627 631 635 639 643 647 651 655 659 663 667 671 675 679 683 687 691 695 699 703 707 711 715 719 723 727 731 735 0
-742 1 5 9 13 17 21 25 29 33 37 41 45 49 53 57 61 65 69 73 77 81 85 89 93 97 101 105 109 113 117 121 125 129 133 137 141 145 149 153 157 161 165 169 173 177 181 185 189 193 197 201 205 209 213 217 221 225 229 233 237 241 245 249 253 257 261 265 269 273 277 281 285 289 293 297 301 305 309 313 317 321 325 329 333 337 341 345 349 353 357 361 365 369 373 377 381 385 389 393 397 401 405 409 413 417 421 425 429 433 437 441 445 449 453 457 461 465 469 473 477 481 485 489 493 497 501 505 509 513 517 521 525 529 533 537 541 545 549 553 557 561 565 569 573 577 581 585 589 593 597 601 605 609 613 617 621 625 629 633 637 641 645 649 653 657 661 665 669 673 677 681 685 689 693 697 701 705 709 713 717 721 725 729 733 737 0
-743 2 6 10 14 18 22 26 30 34 38 42 46 50 54 58 62 66 70 74 78 82 86 90 94 98 102 106 110 114 118 122 126 130 134 138 142 146 150 154 158 162 166 170 174 178 182 186 190 194 198 202 206 210 214 218 222 226 230 234 238 242 246 250 254 258 262 266 270 274 278 282 286 290 294 298 302 306 310 314 318 322 326 330 334 338 342 346 350 354 358 362 366 370 374 378 382 386 390 394 398 402 406 410 414 418 422 426 430 434 438 442 446 450 454 458 462 466 470 474 478 482 486 490 494 498 502 506 510 514 518 522 526 530 534 538 542 546 550 554 558 562 566 570 574 578 582 586 590 594 598 602 606 610 614 618 622 626 630 634 638 642 646 650 654 658 662 666 670 674 678 682 686 690 694 698 702 706 710 714 718 722 726 730 734 738 0
-744 3 7 11 15 19 23 27 31 35 39 43 47 51 55 59 63 67 71 75 79 83 87 91 95 99 103 107 111 115 119 123 127 131 135 139 143 147 151 155 159 163 167 171 175 179 183 187 191 195 199 203 207 211 215 219 223 227 231 235 239 243 247 251 255 259 263 267 271 275 279 283 287 291 295 299 303 307 311 315 319 323 327 331 335 339 343 347 351 355 359 363 367 371 375 379 383 387 391 395 399 403 407 411 415 419 423 427 431 435 439 443 447 451 455 459 463 467 471 475 479 483 487 491 495 499 503 507 511 515 519 523 527 531 535 539 543 547 551 555 559 563 567 571 575 579 583 587 591 595 599 603 607 611 615 619 623 627 631 635 639 643 647 651 655 659 663 667 671 675 679 683 687 691 695 699 703 707 711 715 719 723 727 731 735 739 0
-746 1 5 9 13 17 21 25 29 33 37 41 45 49 53 57 61 65 69 73 77 81 85 89 93 97 101 105 109 113 117 121 125 129 133 137 141 145 149 153 157 161 165 169 173 177 181 185 189 193 197 201 205 209 213 217 221 225 229 233 237 241 245 249 253 257 261 265 269 273 277 281 285 289 293 297 301 305 309 313 317 321 325 329 333 337 341 345 349 353 357 361 365 369 373 377 381 385 389 393 397 401 405 409 413 417 421 425 429 433 437 441 445 449 453 457 461 465 469 473 477 481 485 489 493 497 501 505 509 513 517 521 525 529 533 537 541 545 549 553 557 561 565 569 573 577 581 585 589 593 597 601 605 609 613 617 621 625 629 633 637 641 645 649 653 657 661 665 669 673 677 681 685 689 693 697 701 705 709 713 717 721 725 729 733 737 741 0
-747 2 6 10 14 18 22 26 30 34 38 42 46 50 54 58 62 66 70 74 78 82 86 90 94 98 102 106 110 114 118 122 126 130 134 138 142 146 150 154 158 162 166 170 174 178 182 186 190 194 198 202 206 210 214 218 222 226 230 234 238 242 246 250 254 258 262 266 270 274 278 282 286 290 294 298 302 306 310 314 318 322 326 330 334 338 342 346 350 354 358 362 366 370 374 378 382 386 390 394 398 402 406 410 414 418 422 426 430 434 438 442 446 450 454 458 462 466 470 474 478 482 486 490 494 498 502 506 510 514 518 522 526 530 534 538 542 546 550 554 558 562 566 570 574 578 582 586 590 594 598 602 606 610 614 618 622 626 630 634 638 642 646 650 654 658 662 666 670 674 678 682 686 690 694 698 702 706 710 714 718 722 726 730 734 738 742 0
-748 3 7 11 15 19 23 27 31 35 39 43 47 51 55 59 63 67 71 75 79 83 87 91 95 99 103 107 111 115 119 123 127 131 135 139 143 147 151 155 159 163 167 171 175 179 183 187 191 195 199 203 207 211 215 219 223 227 231 235 239 243 247 251 255 259 263 267 271 275 279 283 287 291 295 299 303 307 311 315 319 323 327 331 335 339 343 347 351 355 359 363 367 371 375 379 383 387 391 395 399 403 407 411 415 419 423 427 431 435 439 443 447 451 455 459 463 467 471 475 479 483 487 491 495 499 503 507 511 515 519 523 527 531 535 539 543 547 551 555 559 563 567 571 575 579 583 587 591 595 599 603 607 611 615 619 623 627 631 635 639 643 647 651 655 659 663 667 671 675 679 683 687 691 695 699 703 707 711 715 719 723 727 731 735 739 743 0
-750 1 5 9 13 17 21 25 29 33 37 41 45 49 53 57 61 65 69 73 77 81 85 89 93 97 101 105 109 113 117 121 125 129 133 137 141 145 149 153 157 161 165 169 173 177 181 185 189 193 197 201 205 209 213 217 221 225 229 233 237 241 245 249 253 257 261 265 269 273 277 281 285 289 293 297 301 305 309 313 317 321 325 329 333 337 341 345 349 353 357 361 365 369 373 377 381 385 389 393 397 401 405 409 413 417 421 425 429 433 437 441 445 449 453 457 461 465 469 473 477 481 485 489 493 497 501 505 509 513 517 521 525 529 533 537 541 545 549 553 557 561 565 569 573 577 581 585 589 593 597 601 605 609 613 617 621 625 629 633 637 641 645 649 653 657 661 665 669 673 677 681 685 689 693 697 701 705 709 713 717 721 725 729 733 737 741 745 0
-751 2 6 10 14 18 22 26 30 34 38 42 46 50 54 58 62 66 70 74 78 82 86 90 94 98 102 106 110 114 118 122 126 130 134 138 142 146 150 154 158 162 166 170 174 178 182 186 190 194 198 202 206 210 214 218 222 226 230 234 238 242 246 250 254 258 262 266 270 274 278 282 286 290 294 298 302 306 310 314 318 322 326 330 334 338 342 346 350 354 358 362 366 370 374 378 382 386 390 394 398 402 406 410 414 418 422 426 430 434 438 442 446 450 454 458 462 466 470 474 478 482 486 490 494 498 502 506 510 514 518 522 526 530 534 538 542 546 550 554 558 562 566 570 574 578 582 586 590 594 598 602 606 610 614 618 622 626 630 634 638 642 646 650 654 658 662 666 670 674 678 682 686 690 694 698 702 706 710 714 718 722 726 730 734 738 742 746 0
-752 3 7 11 15 19 23 27 31 35 39 43 47 51 55 59 63 67 71 75 79 83 87 91 95 99 103 107 111 115 119 123 127 131 135 139 143 147 151 155 159 163 167 171 175 179 183 187 191 195 199 203 207 211 215 219 223 227 231 235 239 243 247 251 255 259 263 267 271 275 279 283 287 291 295 299 303 307 311 315 319 323 327 331 335 339 343 347 351 355 359 363 367 371 375 379 383 387 391 395 399 403 407 411 415 419 423 427 431 435 439 443 447 451 455 459 463 467 471 475 479 483 487 491 495 499 503 507 511 515 519 523 527 531 535 539 543 547 551 555 559 563 567 571 575 579 583 587 591 595 599 603 607 611 615 619 623 627 631 635 639 643 647 651 655 659 663 667 671 675 679 683 687 691 695 699 703 707 711 715 719 723 727 731 735 739 743 747 0
-754 1 5 9 13 17 21 25 29 33 37 41 45 49 53 57 61 65 69 73 77 81 85 89 93 97 101 105 109 113 117 121 125 129 133 137 141 145 149 153 157 161 165 169 173 177 181 185 189 193 197 201 205 209 213 217 221 225 229 233 237 241 245 249 253 257 261 265 269 273 277 281 285 289 293 297 301 305 309 313 317 321 325 329 333 337 341 345 349 353 357 361 365 369 373 377 381 385 389 393 397 401 405 409 413 417 421 425 429 433 437 441 445 449 453 457 461 465 469 473 477 481 485 489 493 497 501 505 509 513 517 521 525 529 533 537 541 545 549 553 557 561 565 569 573 577 581 585 589 593 597 601 605 609 613 617 621 625 629 633 637 641 645 649 653 657 661 665 669 673 677 681 685 689 693 697 701 705 709 713 717 721 725 729 733 737 741 745 749 0
-755 2 6 10 14 18 22 26 30 34 38 42 46 50 54 58 62 66 70 74 78 82 86 90 94 98 102 106 110 114 118 122 126 130 134 138 142 146 150 154 158 162 166 170 174 178 182 186 190 194 198 202 206 210 214 218 222 226 230 234 238 242 246 250 254 258 262 266 270 274 278 282 286 290 294 298 302 306 310 314 318 322 326 330 334 338 342 346 350 354 358 362 366 370 374 378 382 386 390 394 398 402 406 410 414 418 422 426 430 434 438 442 446 450 454 458 462 466 470 474 478 482 486 490 494 498 502 506 510 514 518 522 526 530 534 538 542 546 550 554 558 562 566 570 574 578 582 586 590 594 598 602 606 610 614 618 622 626 630 634 638 642 646 650 654 658 662 666 670 674 678 682 686 690 694 698 702 706 710 714 718 722 726 730 734 738 742 746 750 0
-756 3 7 11 15 19 23 27 31 35 39 43 47 51 55 59 63 67 71 75 79 83 87 91 95 99 103 107 111 115 119 123 127 131 135 139 143 147 151 155 159 163 167 171 175 179 183 187 191 195 199 203 207 211 215 219 223 227 231 235 239 243 247 251 255 259 263 267 271 275 279 283 287 291 295 299 303 307 311 315 319 323 327 331 335 339 343 347 351 355 359 363 367 371 375 379 383 387 391 395 399 403 407 411 415 419 423 427 431 435 439 443 447 451 455 459 463 467 471 475 479 483 487 491 495 499 503 507 511 515 519 523 527 531 535 539 543 547 551 555 559 563 567 571 575 579 583 587 591 595 599 603 607 611 615 619 623 627 631 635 639 643 647 651 655 659 663 667 671 675 679 683 687 691 695 699 703 707 711 715 719 723 727 731 735 739 743 747 751 0
-758 1 5 9 13 17 21 25 29 33 37 41 45 49 53 57 61 65 69 73 77 81 85 89 93 97 101 105 109 113 117 121 125 129 133 137 141 145 149 153 157 161 165 169 173 177 181 185 189 193 197 201 205 209 213 217 221 225 229 233 237 241 245 249 253 257 261 265 269 273 277 281 285 289 293 297 301 305 309 313 317 321 325 329 333 337 341 345 349 353 357 361 365 369 373 377 381 385 389 393 397 401 405 409 413 417 421 425 429 433 437 441 445 449 453 457 461 465 469 473 477 481 485 489 493 497 501 505 509 513 517 521 525 529 533 537 541 545 549 553 557 561 565 569 573 577 581 585 589 593 597 601 605 609 613 617 621 625 629 633 637 641 645 649 653 657 661 665 669 673 677 681 685 689 693 697 701 705 709 713 717 721 725 729 733 737 741 745 749 753 0
-759 2 6 10 14 18 22 26 30 34 38 42 46 50 54 58 62 66 70 74 78 82 86 90 94 98 102 106 110 114 118 122 126 130 134 138 142 146 150 154 158 162 166 170 174 178 182 186 190 194 198 202 206 210 214 218 222 226 230 234 238 242 246 250 254 258 262 266 270 274 278 282 286 290 294 298 302 306 310 314 318 322 326 330 334 338 342 346 350 354 358 362 366 370 374 378 382 386 390 394 398 402 406 410 414 418 422 426 430 434 438 442 446 450 454 458 462 466 470 474 478 482 486 490 494 498 502 506 510 514 518 522 526 530 534 538 542 546 550 554 558 562 566 570 574 578 582 586 590 594 598 602 606 610 614 618 622 626 630 634 638 642 646 650 654 658 662 666 670 674 678 682 686 690 694 698 702 706 710 714 718 722 726 730 734 738 742 746 750 754 0
-760 3 7 11 15 19 23 27 31 35 39 43 47 51 55 59 63 67 71 75 79 83 87 91 95 99 103 107 111 115 119 123 127 131 135 139 143 147 151 155 159 163 167 171 175 179 183 187 191 195 199 203 207 211 215 219 223 227 231 235 239 243 247 251 255 259 263 267 271 275 279 283 287 291 295 299 303 307 311 315 319 323 327 331 335 339 343 347 351 355 359 363 367 371 375 379 383 387 391 395 399 403 407 411 415 419 423 427 431 435 439 443 447 451 455 459 463 467 471 475 479 483 487 491 495 499 503 507 511 515 519 523 527 531 535 539 543 547 551 555 559 563 567 571 575 579 583 587 591 595 599 603 607 611 615 619 623 627 631 635 639 643 647 651 655 659 663 667 671 675 679 683 687 691 695 699 703 707 711 715 719 723 727 731 735 739 743 747 751 755 0
-762 1 5 9 13 17 21 25 29 33 37 41 45 49 53 57 61 65 69 73 77 81 85 89 93 97 101 105 109 113 117 121 125 129 133 137 141 145 149 153 157 161 165 169 173 177 181 185 189 193 197 201 205 209 213 217 221 225 229 233 237 241 245 249 253 257 261 265 269 273 277 281 285 289 293 297 301 305 309 313 317 321 325 329 333 337 341 345 349 353 357 361 365 369 373 377 381 385 389 393 397 401 405 409 413 417 421 425 429 433 437 441 445 449 453 457 461 465 469 473 477 481 485 489 493 497 501 505 509 513 517 521 525 529 533 537 541 545 549 553 557 561 565 569 573 577 581 585 589 593 597 601 605 609 613 617 621 625 629 633 637 641 645 649 653 657 661 665 669 673 677 681 685 689 693 697 701 705 709 713 717 721 725 729 733 737 741 745 749 753 757 0
-763 2 6 10 14 18 22 26 30 34 38 42 46 50 54 58 62 66 70 74 78 82 86 90 94 98 102 106 110 114 118 122 126 130 134 138 142 146 150 154 158 162 166 170 174 178 182 186 190 194 198 202 206 210 214 218 222 226 230 234 238 242 246 250 254 258 262 266 270 274 278 282 286 290 294 298 302 306 310 314 318 322 326 330 334 338 342 346 350 354 358 362 366 370 374 378 382 386 390 394 398 402 406 410 414 418 422 426 430 434 438 442 446 450 454 458 462 466 470 474 478 482 486 490 494 498 502 506 510 514 518 522 526 530 534 538 542 546 550 554 558 562 566 570 574 578 582 586 590 594 598 602 606 610 614 618 622 626 630 634 638 642 646 650 654 658 662 666 670 674 678 682 686 690 694 698 702 706 710 714 718 722 726 730 734 738 742 746 750 754 758 0
-764 3 7 11 15 19 23 27 31 35 39 43 47 51 55 59 63 67 71 75 79 83 87 91 95 99 103 107 111 115 119 123 127 131 135 139 143 147 151 155 159 163 167 171 175 179 183 187 191 195 199 203 207 211 215 219 223 227 231 235 239 243 247 251 255 259 263 267 271 275 279 283 287 291 295 299 303 307 311 315 319 323 327 331 335 339 343 347 351 355 359 363 367 371 375 379 383 387 391 395 399 403 407 411 415 419 423 427 431 435 439 443 447 451 455 459 463 467 471 475 479 483 487 491 495 499 503 507 511 515 519 523 527 531 535 539 543 547 551 555 559 563 567 571 575 579 583 587 591 595 599 603 607 611 615 619 623 627 631 635 639 643 647 651 655 659 663 667 671 675 679 683 687 691 695 699 703 707 711 715 719 723 727 731 735 739 743 747 751 755 759 0
-766 1 5 9 13 17 21 25 29 33 37 41 45 49 53 57 61 65 69 73 77 81 85 89 93 97 101 105 109 113 117 121 125 129 133 137 141 145 149 153 157 161 165 169 173 177 181 185 189 193 197 201 205 209 213 217 221 225 229 233 237 241 245 249 253 257 261 265 269 273 277 281 285 289 293 297 301 305 309 313 317 321 325 329 333 337 341 345 349 353 357 361 365 369 373 377 381 385 389 393 397 401 405 409 413 417 421 425 429 433 437 441 445 449 453 457 461 465 469 473 477 481 485 489 493 497 501 505 509 513 517 521 525 529 533 537 541 545 549 553 557 561 565 569 573 577 581 585 589 593 597 601 605 609 613 617 621 625 629 633 637 641 645 649 653 657 661 665 669 673 677 681 685 689 693 697 701 705 709 713 717 721 725 729 733 737 741 745 749 753 757 761 0
-767 2 6 10 14 18 22 26 30 34 38 42 46 50 54 58 62 66 70 74 78 82 86 90 94 98 102 106 110 114 118 122 126 130 134 138 142 146 150 154 158 162 166 170 174 178 182 186 190 194 198 202 206 210 214 218 222 226 230 234 238 242 246 250 254 258 262 266 270 274 278 282 286 290 294 298 302 306 310 314 318 322 326 330 334 338 342 346 350 354 358 362 366 370 374 378 382 386 390 394 398 402 406 410 414 418 422 426 430 434 438 442 446 450 454 458 462 466 470 474 478 482 486 490 494 498 502 506 510 514 518 522 526 530 534 538 542 546 550 554 558 562 566 570 574 578 582 586 590 594 598 602 606 610 614 618 622 626 630 634 638 642 646 650 654 658 662 666 670 674 678 682 686 690 694 698 702 706 710 714 718 722 726 730 734 738 742 746 750 754 758 762 0
-768 3 7 11 15 19 23 27 31 35 39 43 47 51 55 59 63 67 71 75 79 83 87 91 95 99 103 107 111 115 119 123 127 131 135 139 143 147 151 155 159 163 167 171 175 179 183 187 191 195 199 203 207 211 215 219 223 227 231 235 239 243 247 251 255 259 263 267 271 275 279 283 287 291 295 299 303 307 311 315 319 323 327 331 335 339 343 347 351 355 359 363 367 371 375 379 383 387 391 395 399 403 407 411 415 419 423 427 431 435 439 443 447 451 455 459 463 467 471 475 479 483 487 491 495 499 503 507 511 515 519 523 527 531 535 539 543 547 551 555 559 563 567 571 575 579 583 587 591 595 599 603 607 611 615 619 623 627 631 635 639 643 647 651 655 659 663 667 671 675 679 683 687 691 695 699 703 707 711 715 719 723 727 731 735 739 743 747 751 755 759 763 0
-770 1 5 9 13 17 21 25 29 33 37 41 45 49 53 57 61 65 69 73 77 81 85 89 93 97 101 105 109 113 117 121 125 129 133 137 141 145 149 153 157 161 165 169 173 177 181 185 189 193 197 201 205 209 213 217 221 225 229 233 237 241 245 249 253 257 261 265 269 273 277 281 285 289 293 297 301 305 309 313 317 321 325 329 333 337 341 345 349 353 357 361 365 369 373 377 381 385 389 393 397 401 405 409 413 417 421 425 429 433 437 441 445 449 453 457 461 465 469 473 477 481 485 489 493 497 501 505 509 513 517 521 525 529 533 537 541 545 549 553 557 561 565 569 573 577 581 585 589 593 597 601 605 609 613 617 621 625 629 633 637 641 645 649 653 657 661 665 669 673 677 681 685 689 693 697 701 705 709 713 717 721 725 729 733 737 741 745 749 753 757 761 765 0
-771 2 6 10 14 18 22 26 30 34 38 42 46 50 54 58 62 66 70 74 78 82 86 90 94 98 102 106 110 114 118 122 126 130 134 138 142 146 150 154 158 162 166 170 174 178 182 186 190 194 198 202 206 210 214 218 222 226 230 234 238 242 246 250 254 258 262 266 270 274 278 282 286 290 294 298 302 306 310 314 318 322 326 330 334 338 342 346 350 354 358 362 366 370 374 378 382 386 390 394 398 402 406 410 414 418 422 426 430 434 438 442 446 450 454 458 462 466 470 474 478 482 486 490 494 498 502 506 510 514 518 522 526 530 534 538 542 546 550 554 558 562 566 570 574 578 582 586 590 594 598 602 606 610 614 618 622 626 630 634 638 642 646 650 654 658 662 666 670 674 678 682 686 690 694 698 702 706 710 714 718 722 726 730 734 738 742 746 750 754 758 762 766 0
-772 3 7 11 15 19 23 27 31 35 39 43 47 51 55 59 63 67 71 75 79 83 87 91 95 99 103 107 111 115 119 123 127 131 135 139 143 147 151 155 159 163 167 171 175 179 183 187 191 195 199 203 207 211 215 219 223 227 231 235 239 243 247 251 255 259 263 267 271 275 279 283 287 291 295 299 303 307 311 315 319 323 327 331 335 339 343 347 351 355 359 363 367 371 375 379 383 387 391 395 399 403 407 411 415 419 423 427 431 435 439 443 447 451 455 459 463 467 471 475 479 483 487 491 495 499 503 507 511 515 519 523 527 531 535 539 543 547 551 555 559 563 567 571 575 579 583 587 591 595 599 603 607 611 615 619 623 627 631 635 639 643 647 651 655 659 663 667 671 675 679 683 687 691 695 699 703 707 711 715 719 723 727 731 735 739 743 747 751 755 759 763 767 0
-774 1 5 9 13 17 21 25 29 33 37 41 45 49 53 57 61 65 69 73 77 81 85 89 93 97 101 105 109 113 117 121 125 129 133 137 141 145 149 153 157 161 165 169 173 177 181 185 189 193 197 201 205 209 213 217 221 225 229 233 237 241 245 249 253 257 261 265 269 273 277 281 285 289 293 297 301 305 309 313 317 321 325 329 333 337 341 345 349 353 357 361 365 369 373 377 381 385 389 393 397 401 405 409 413 417 421 425 429 433 437 441 445 449 453 457 461 465 469 473 477 481 485 489 493 497 501 505 509 513 517 521 525 529 533 537 541 545 549 553 557 561 565 569 573 577 581 585 589 593 597 601 605 609 613 617 621 625 629 633 637 641 645 649 653 657 661 665 669 673 677 681 685 689 693 697 701 705 709 713 717 721 725 729 733 737 741 745 749 753 757 761 765 769 0
-775 2 6 10 14 18 22 26 30 34 38 42 46 50 54 58 62 66 70 74 78 82 86 90 94 98 102 106 110 114 118 122 126 130 134 138 142 146 150 154 158 162 166 170 174 178 182 186 190 194 198 202 206 210 214 218 222 226 230 234 238 242 246 250 254 258 262 266 270 274 278 282 286 290 294 298 302 306 310 314 318 322 326 330 334 338 342 346 350 354 358 362 366 370 374 378 382 386 390 394 398 402 406 410 414 418 422 426 430 434 438 442 446 450 454 458 462 466 470 474 478 482 486 490 494 498 502 506 510 514 518 522 526 530 534 538 542 546 550 554 558 562 566 570 574 578 582 586 590 594 598 602 606 610 614 618 622 626 630 634 638 642 646 650 654 658 662 666 670 674 678 682 686 690 694 698 702 706 710 714 718 722 726 730 734 738 742 746 750 754 758 762 766 770 0
-776 3 7 11 15 19 23 27 31 35 39 43 47 51 55 59 63 67 71 75 79 83 87 91 95 99 103 107 111 115 119 123 127 131 135 139 143 147 151 155 159 163 167 171 175 179 183 187 191 195 199 203 207 211 215 219 223 227 231 235 239 243 247 251 255 259 263 267 271 275 279 283 287 291 295 299 303 307 311 315 319 323 327 331 335 339 343 347 351 355 359 363 367 371 375 379 383 387 391 395 399 403 407 411 415 419 423 427 431 435 439 443 447 451 455 459 463 467 471 475 479 483 487 491 495 499 503 507 511 515 519 523 527 531 535 539 543 547 551 555 559 563 567 571 575 579 583 587 591 595 599 603 607 611 615 619 623 627 631 635 639 643 647 651 655 659 663 667 671 675 679 683 687 691 695 699 703 707 711 715 719 723 727 731 735 739 743 747 751 755 759 763 767 771 0
-778 1 5 9 13 17 21 25 29 33 37 41 45 49 53 57 61 65 69 73 77 81 85 89 93 97 101 105 109 113 117 121 125 129 133 137 141 145 149 153 157 161 165 169 173 177 181 185 189 193 197 201 205 209 213 217 221 225 229 233 237 241 245 249 253 257 261 265 269 273 277 281 285 289 293 297 301 305 309 313 317 321 325 329 333 337 341 345 349 353 357 361 365 369 373 377 381 385 389 393 397 401 405 409 413 417 421 425 429 433 437 441 445 449 453 457 461 465 469 473 477 481 485 489 493 497 501 505 509 513 517 521 525 529 533 537 541 545 549 553 557 561 565 569 573 577 581 585 589 593 597 601 605 609 613 617 621 625 629 633 637 641 645 649 653 657 661 665 669 673 677 681 685 689 693 697 701 705 709 713 717 721 725 729 733 737 741 745 749 753 757 761 765 769 773 0
-779 2 6 10 14 18 22 26 30 34 38 42 46 50 54 58 62 66 70 74 78 82 86 90 94 98 102 106 110 114 118 122 126 130 134 138 142 146 150 154 158 162 166 170 174 178 182 186 190 194 198 202 206 210 214 218 222 226 230 234 238 242 246 250 254 258 262 266 270 274 278 282 286 290 294 298 302 306 310 314 318 322 326 330 334 338 342 346 350 354 358 362 366 370 374 378 382 386 390 394 398 402 406 410 414 418 422 426 430 434 438 442 446 450 454 458 462 466 470 474 478 482 486 490 494 498 502 506 510 514 518 522 526 530 534 538 542 546 550 554 558 562 566 570 574 578 582 586 590 594 598 602 606 610 614 618 622 626 630 634 638 642 646 650 654 658 662 666 670 674 678 682 686 690 694 698 702 706 710 714 718 722 726 730 734 738 742 746 750 754 758 762 766 770 774 0
-780 3 7 11 15 19 23 27 31 35 39 43 47 51 55 59 63 67 71 75 79 83 87 91 95 99 103 107 111 115 119 123 127 131 135 139 143 147 151 155 159 163 167 171 175 179 183 187 191 195 199 203 207 211 215 219 223 227 231 235 239 243 247 251 255 259 263 267 271 275 279 283 287 291 295 299 303 307 311 315 319 323 327 331 335 339 343 347 351 355 359 363 367 371 375 379 383 387 391 395 399 403 407 411 415 419 423 427 431 435 439 443 447 451 455 459 463 467 471 475 479 483 487 491 495 499 503 507 511 515 519 523 527 531 535 539 543 547 551 555 559 563 567 571 575 579 583 587 591 595 599 603 607 611 615 619 623 627 631 635 639 643 647 651 655 659 663 667 671 675 679 683 687 691 695 699 703 707 711 715 719 723 727 731 735 739 743 747 751 755 759 763 767 771 775 0
-782 1 5 9 13 17 21 25 29 33 37 41 45 49 53 57 61 65 69 73 77 81 85 89 93 97 101 105 109 113 117 121 125 129 133 137 141 145 149 153 157 161 165 169 173 177 181 185 189 193 197 201 205 209 213 217 221 225 229 233 237 241 245 249 253 257 261 265 269 273 277 281 285 289 293 297 301 305 309 313 317 321 325 329 333 337 341 345 349 353 357 361 365 369 373 377 381 385 389 393 397 401 405 409 413 417 421 425 429 433 437 441 445 449 453 457 461 465 469 473 477 481 485 489 493 497 501 505 509 513 517 521 525 529 533 537 541 545 549 553 557 561 565 569 573 577 581 585 589 593 597 601 605 609 613 617 621 625 629 633 637 641 645 649 653 657 661 665 669 673 677 681 685 689 693 697 701 705 709 713 717 721 725 729 733 737 741 745 749 753 757 761 765 769 773 777 0
-783 2 6 10 14 18 22 26 30 34 38 42 46 50 54 58 62 66 70 74 78 82 86 90 94 98 102 106 110 114 118 122 126 130 134 138 142 146 150 154 158 162 166 170 174 178 182 186 190 194 198 202 206 210 214 218 222 226 230 234 238 242 246 250 254 258 262 266 270 274 278 282 286 290 294 298 302 306 310 314 318 322 326 330 334 338 342 346 350 354 358 362 366 370 374 378 382 386 390 394 398 402 406 410 414 418 422 426 430 434 438 442 446 450 454 458 462 466 470 474 478 482 486 490 494 498 502 506 510 514 518 522 526 530 534 538 542 546 550 554 558 562 566 570 574 578 582 586 590 594 598 602 606 610 614 618 622 626 630 634 638 642 646 650 654 658 662 666 670 674 678 682 686 690 694 698 702 706 710 714 718 722 726 730 734 738 742 746 750 754 758 762 766 770 774 778 0
-784 3 7 11 15 19 23 27 31 35 39 43 47 51 55 59 63 67 71 75 79 83 87 91 95 99 103 107 111 115 119 123 127 131 135 139 143 147 151 155 159 163 167 171 175 179 183 187 191 195 199 203 207 211 215 219 223 227 231 235 239 243 247 251 255 259 263 267 271 275 279 283 287 291 295 299 303 307 311 315 319 323 327 331 335 339 343 347 351 355 359 363 367 371 375 379 383 387 391 395 399 403 407 411 415 419 423 427 431 435 439 443 447 451 455 459 463 467 471 475 479 483 487 491 495 499 503 507 511 515 519 523 527 531 535 539 543 547 551 555 559 563 567 571 575 579 583 587 591 595 599 603 607 611 615 619 623 627 631 635 639 643 647 651 655 659 663 667 671 675 679 683 687 691 695 699 703 707 711 715 719 723 727 731 735 739 743 747 751 755 759 763 767 771 775 779 0
-786 1 5 9 13 17 21 25 29 33 37 41 45 49 53 57 61 65 69 73 77 81 85 89 93 97 101 105 109 113 117 121 125 129 133 137 141 145 149 153 157 161 165 169 173 177 181 185 189 193 197 201 205 209 213 217 221 225 229 233 237 241 245 249 253 257 261 265 269 273 277 281 285 289 293 297 301 305 309 313 317 321 325 329 333 337 341 345 349 353 357 361 365 369 373 377 381 385 389 393 397 401 405 409 413 417 421 425 429 433 437 441 445 449 453 457 461 465 469 473 477 481 485 489 493 497 501 505 509 513 517 521 525 529 533 537 541 545 549 553 557 561 565 569 573 577 581 585 589 593 597 601 605 609 613 617 621 625 629 633 637 641 645 649 653 657 661 665 669 673 677 681 685 689 693 697 701 705 709 713 717 721 725 729 733 737 741 745 749 753 757 761 765 769 773 777 781 0
-787 2 6 10 14 18 22 26 30 34 38 42 46 50 54 58 62 66 70 74 78 82 86 90 94 98 102 106 110 114 118 122 126 130 134 138 142 146 150 154 158 162 166 170 174 178 182 186 190 194 198 202 206 210 214 218 222 226 230 234 238 242 246 250 254 258 262 266 270 274 278 282 286 290 294 298 302 306 310 314 318 322 326 330 334 338 342 346 350 354 358 362 366 370 374 378 382 386 390 394 398 402 406 410 414 418 422 426 430 434 438 442 446 450 454 458 462 466 470 474 478 482 486 490 494 498 502 506 510 514 518 522 526 530 534 538 542 546 550 554 558 562 566 570 574 578 582 586 590 594 598 602 606 610 614 618 622 626 630 634 638 642 646 650 654 658 662 666 670 674 678 682 686 690 694 698 702 706 710 714 718 722 726 730 734 738 742 746 750 754 758 762 766 770 774 778 782 0
-788 3 7 11 15 19 23 27 31 35 39 43 47 51 55 59 63 67 71 75 79 83 87 91 95 99 103 107 111 115 119 123 127 131 135 139 143 147 151 155 159 163 167 171 175 179 183 187 191 195 199 203 207 211 215 219 223 227 231 235 239 243 247 251 255 259 263 267 271 275 279 283 287 291 295 299 303 307 311 315 319 323 327 331 335 339 343 347 351 355 359 363 367 371 375 379 383 387 391 395 399 403 407 411 415 419 423 427 431 435 439 443 447 451 455 459 463 467 471 475 479 483 487 491 495 499 503 507 511 515 519 523 527 531 535 539 543 547 551 555 559 563 567 571 575 579 583 587 591 595 599 603 607 611 615 619 623 627 631 635 639 643 647 651 655 659 663 667 671 675 679 683 687 691 695 699 703 707 711 715 719 723 727 731 735 739 743 747 751 755 759 763 767 771 775 779 783 0
-790 1 5 9 13 17 21 25 29 33 37 41 45 49 53 57 61 65 69 73 77 81 85 89 93 97 101 105 109 113 117 121 125 129 133 137 141 145 149 153 157 161 165 169 173 177 181 185 189 193 197 201 205 209 213 217 221 225 229 233 237 241 245 249 253 257 261 265 269 273 277 281 285 289 293 297 301 305 309 313 317 321 325 329 333 337 341 345 349 353 357 361 365 369 373 377 381 385 389 393 397 401 405 409 413 417 421 425 429 433 437 441 445 449 453 457 461 465 469 473 477 481 485 489 493 497 501 505 509 513 517 521 525 529 533 537 541 545 549 553 557 561 565 569 573 577 581 585 589 593 597 601 605 609 613 617 621 625 629 633 637 641 645 649 653 657 661 665 669 673 677 681 685 689 693 697 701 705 709 713 717 721 725 729 733 737 741 745 749 753 757 761 765 769 773 777 781 785 0
-791 2 6 10 14 18 22 26 30 34 38 42 46 50 54 58 62 66 70 74 78 82 86 90 94 98 102 106 110 114 118 122 126 130 134 138 142 146 150 154 158 162 166 170 174 178 182 186 190 194 198 202 206 210 214 218 222 226 230 234 238 242 246 250 254 258 262 266 270 274 278 282 286 290 294 298 302 306 310 314 318 322 326 330 334 338 342 346 350 354 358 362 366 370 374 378 382 386 390 394 398 402 406 410 414 418 422 426 430 434 438 442 446 450 454 458 462 466 470 474 478 482 486 490 494 498 502 506 510 514 518 522 526 530 534 538 542 546 550 554 558 562 566 570 574 578 582 586 590 594 598 602 606 610 614 618 622 626 630 634 638 642 646 650 654 658 662 666 670 674 678 682 686 690 694 698 702 706 710 714 718 722 726 730 734 738 742 746 750 754 758 762 766 770 774 778 782 786 0
-792 3 7 11 15 19 23 27 31 35 39 43 47 51 55 59 63 67 71 75 79 83 87 91 95 99 103 107 111 115 119 123 127 131 135 139 143 147 151 155 159 163 167 171 175 179 183 187 191 195 199 203 207 211 215 219 223 227 231 235 239 243 247 251 255 259 263 267 271 275 279 283 287 291 295 299 303 307 311 315 319 323 327 331 335 339 343 347 351 355 359 363 367 371 375 379 383 387 391 395 399 403 407 411 415 419 423 427 431 435 439 443 447 451 455 459 463 467 471 475 479 483 487 491 495 499 503 507 511 515 519 523 527 531 535 539 543 547 551 555 559 563 567 571 575 579 583 587 591 595 599 603 607 611 615 619 623 627 631 635 639 643 647 651 655 659 663 667 671 675 679 683 687 691 695 699 703 707 711 715 719 723 727 731 735 739 743 747 751 755 759 763 767 771 775 779 783 787 0
-794 1 5 9 13 17 21 25 29 33 37 41 45 49 53 57 61 65 69 73 77 81 85 89 93 97 101 105 109 113 117 121 125 129 133 137 141 145 149 153 157 161 165 169 173 177 181 185 189 193 197 201 205 209 213 217 221 225 229 233 237 241 245 249 253 257 261 265 269 273 277 281 285 289 293 297 301 305 309 313 317 321 325 329 333 337 341 345 349 353 357 361 365 369 373 377 381 385 389 393 397 401 405 409 413 417 421 425 429 433 437 441 445 449 453 457 461 465 469 473 477 481 485 489 493 497 501 505 509 513 517 521 525 529 533 537 541 545 549 553 557 561 565 569 573 577 581 585 589 593 597 601 605 609 613 617 621 625 629 633 637 641 645 649 653 657 661 665 669 673 677 681 685 689 693 697 701 705 709 713 717 721 725 729 733 737 741 745 749 753 757 761 765 769 773 777 781 785 789 0
-795 2 6 10 14 18 22 26 30 34 38 42 46 50 54 58 62 66 70 74 78 82 86 90 94 98 102 106 110 114 118 122 126 130 134 138 142 146 150 154 158 162 166 170 174 178 182 186 190 194 198 202 206 210 214 218 222 226 230 234 238 242 246 250 254 258 262 266 270 274 278 282 286 290 294 298 302 306 310 314 318 322 326 330 334 338 342 346 350 354 358 362 366 370 374 378 382 386 390 394 398 402 406 410 414 418 422 426 430 434 438 442 446 450 454 458 462 466 470 474 478 482 486 490 494 498 502 506 510 514 518 522 526 530 534 538 542 546 550 554 558 562 566 570 574 578 582 586 590 594 598 602 606 610 614 618 622 626 630 634 638 642 646 650 654 658 662 666 670 674 678 682 686 690 694 698 702 706 710 714 718 722 726 730 734 738 742 746 750 754 758 762 766 770 774 778 782 786 790 0
-796 3 7 11 15 19 23 27 31 35 39 43 47 51 55 59 63 67 71 75 79 83 87 91 95 99 103 107 111 115 119 123 127 131 135 139 143 147 151 155 159 163 167 171 175 179 183 187 191 195 199 203 207 211 215 219 223 227 231 235 239 243 247 251 255 259 263 267 271 275 279 283 287 291 295 299 303 307 311 315 319 323 327 331 335 339 343 347 351 355 359 363 367 371 375 379 383 387 391 395 399 403 407 411 415 419 423 427 431 435 439 443 447 451 455 459 463 467 471 475 479 483 487 491 495 499 503 507 511 515 519 523 527 531 535 539 543 547 551 555 559 563 567 571 575 579 583 587 591 595 599 603 607 611 615 619 623 627 631 635 639 643 647 651 655 659 663 667 671 675 679 683 687 691 695 699 703 707 711 715 719 723 727 731 735 739 743 747 751 755 759 763 767 771 775 779 783 787 791 0
-798 1 5 9 13 17 21 25 29 33 37 41 45 49 53 57 61 65 69 73 77 81 85 89 93 97 101 105 109 113 117 121 125 129 133 137 141 145 149 153 157 161 165 169 173 177 181 185 189 193 197 201 205 209 213 217 221 225 229 233 237 241 245 249 253 257 261 265 269 273 277 281 285 289 293 297 301 305 309 313 317 321 325 329 333 337 341 345 349 353 357 361 365 369 373 377 381 385 389 393 397 401 405 409 413 417 421 425 429 433 437 441 445 449 453 457 461 465 469 473 477 481 485 489 493 497 501 505 509 513 517 521 525 529 533 537 541 545 549 553 557 561 565 569 573 577 581 585 589 593 597 601 605 609 613 617 621 625 629 633 637 641 645 649 653 657 661 665 669 673 677 681 685 689 693 697 701 705 709 713 717 721 725 729 733 737 741 745 749 753 757 761 765 769 773 777 781 785 789 793 0
-799 2 6 10 14 18 22 26 30 34 38 42 46 50 54 58 62 66 70 74 78 82 86 90 94 98 102 106 110 114 118 122 126 130 134 138 142 146 150 154 158 162 166 170 174 178 182 186 190 194 198 202 206 210 214 218 222 226 230 234 238 242 246 250 254 258 262 266 270 274 278 282 286 290 294 298 302 306 310 314 318 322 326 330 334 338 342 346 350 354 358 362 366 370 374 378 382 386 390 394 398 402 406 410 414 418 422 426 430 434 438 442 446 450 454 458 462 466 470 474 478 482 486 490 494 498 502 506 510 514 518 522 526 530 534 538 542 546 550 554 558 562 566 570 574 578 582 586 590 594 598 602 606 610 614 618 622 626 630 634 638 642 646 650 654 658 662 666 670 674 678 682 686 690 694 698 702 706 710 714 718 722 726 730 734 738 742 746 750 754 758 762 766 770 774 778 782 786 790 794 0
-800 3 7 11 15 19 23 27 31 35 39 43 47 51 55 59 63 67 71 75 79 83 87 91 95 99 103 107 111 115 119 123 127 131 135 139 143 147 151 155 159 163 167 171 175 179 183 187 191 195 199 203 207 211 215 219 223 227 231 235 239 243 247 251 255 259 263 267 271 275 279 283 287 291 295 299 303 307 311 315 319 323 327 331 335 339 343 347 351 355 359 363 367 371 375 379 383 387 391 395 399 403 407 411 415 419 423 427 431 435 439 443 447 451 455 459 463 467 471 475 479 483 487 491 495 499 503 507 511 515 519 523 527 531 535 539 543 547 551 555 559 563 567 571 575 579 583 587 591 595 599 603 607 611 615 619 623 627 631 635 639 643 647 651 655 659 663 667 671 675 679 683 687 691 695 699 703 707 711 715 719 723 727 731 735 739 743 747 751 755 759 763 767 771 775 779 783 787 791 795 0
-802 1 5 9 13 17 21 25 29 33 37 41 45 49 53 57 61 65 69 73 77 81 85 89 93 97 101 105 109 113 117 121 125 129 133 137 141 145 149 153 157 161 165 169 173 177 181 185 189 193 197 201 205 209 213 217 221 225 229 233 237 241 245 249 253 257 261 265 269 273 277 281 285 289 293 297 301 305 309 313 317 321 325 329 333 337 341 345 349 353 357 361 365 369 373 377 381 385 389 393 397 401 405 409 413 417 421 425 429 433 437 441 445 449 453 457 461 465 469 473 477 481 485 489 493 497 501 505 509 513 517 521 525 529 533 537 541 545 549 553 557 561 565 569 573 577 581 585 589 593 597 601 605 609 613 617 621 625 629 633 637 641 645 649 653 657 661 665 669 673 677 681 685 689 693 697 701 705 709 713 717 721 725 729 733 737 741 745 749 753 757 761 765 769 773 777 781 785 789 793 797 0
-803 2 6 10 14 18 22 26 30 34 38 42 46 50 54 58 62 66 70 74 78 82 86 90 94 98 102 106 110 114 118 122 126 130 134 138 142 146 150 154 158 162 166 170 174 178 182 186 190 194 198 202 206 210 214 218 222 226 230 234 238 242 246 250 254 258 262 266 270 274 278 282 286 290 294 298 302 306 310 314 318 322 326 330 334 338 342 346 350 354 358 362 366 370 374 378 382 386 390 394 398 402 406 410 414 418 422 426 430 434 438 442 446 450 454 458 462 466 470 474 478 482 486 490 494 498 502 506 510 514 518 522 526 530 534 538 542 546 550 554 558 562 566 570 574 578 582 586 590 594 598 602 606 610 614 618 622 626 630 634 638 642 646 650 654 658 662 666 670 674 678 682 686 690 694 698 702 706 710 714 718 722 726 730 734 738 742 746 750 754 758 762 766 770 774 778 782 786 790 794 798 0
-804 3 7 11 15 19 23 27 31 35 39 43 47 51 55 59 63 67 71 75 79 83 87 91 95 99 103 107 111 115 119 123 127 131 135 139 143 147 151 155 159 163 167 171 175 179 183 187 191 195 199 203 207 211 215 219 223 227 231 235 239 243 247 251 255 259 263 267 271 275 279 283 287 291 295 299 303 307 311 315 319 323 327 331 335 339 343 347 351 355 359 363 367 371 375 379 383 387 391 395 399 403 407 411 415 419 423 427 431 435 439 443 447 451 455 459 463 467 471 475 479 483 487 491 495 499 503 507 511 515 519 523 527 531 535 539 543 547 551 555 559 563 567 571 575 579 583 587 591 595 599 603 607 611 615 619 623 627 631 635 639 643 647 651 655 659 663 667 671 675 679 683 687 691 695 699 703 707 711 715 719 723 727 731 735 739 743 747 751 755 759 763 767 771 775 779 783 787 791 795 799 0
-806 1 5 9 13 17 21 25 29 33 37 41 45 49 53 57 61 65 69 73 77 81 85 89 93 97 101 105 109 113 117 121 125 129 133 137 141 145 149 153 157 161 165 169 173 177 181 185 189 193 197 201 205 209 213 217 221 225 229 233 237 241 245 249 253 257 261 265 269 273 277 281 285 289 293 297 301 305 309 313 317 321 325 329 333 337 341 345 349 353 357 361 365 369 373 377 381 385 389 393 397 401 405 409 413 417 421 425 429 433 437 441 445 449 453 457 461 465 469 473 477 481 485 489 493 497 501 505 509 513 517 521 525 529 533 537 541 545 549 553 557 561 565 569 573 577 581 585 589 593 597 601 605 609 613 617 621 625 629 633 637 641 645 649 653 657 661 665 669 673 677 681 685 689 693 697 701 705 709 713 717 721 725 729 733 737 741 745 749 753 757 761 765 769 773 777 781 785 789 793 797 801 0
-807 2 6 10 14 18 22 26 30 34 38 42 46 50 54 58 62 66 70 74 78 82 86 90 94 98 102 106 110 114 118 122 126 130 134 138 142 146 150 154 158 162 166 170 174 178 182 186 190 194 198 202 206 210 214 218 222 226 230 234 238 242 246 250 254 258 262 266 270 274 278 282 286 290 294 298 302 306 310 314 318 322 326 330 334 338 342 346 350 354 358 362 366 370 374 378 382 386 390 394 398 402 406 410 414 418 422 426 430 434 438 442 446 450 454 458 462 466 470 474 478 482 486 490 494 498 502 506 510 514 518 522 526 530 534 538 542 546 550 554 558 562 566 570 574 578 582 586 590 594 598 602 606 610 614 618 622 626 630 634 638 642 646 650 654 658 662 666 670 674 678 682 686 690 694 698 702 706 710 714 718 722 726 730 734 738 742 746 750 754 758 762 766 770 774 778 782 786 790 794 798 802 0
-808 3 7 11 15 19 23 27 31 35 39 43 47 51 55 59 63 67 71 75 79 83 87 91 95 99 103 107 111 115 119 123 127 131 135 139 143 147 151 155 159 163 167 171 175 179 183 187 191 195 199 203 207 211 215 219 223 227 231 235 239 243 247 251 255 259 263 267 271 275 279 283 287 291 295 299 303 307 311 315 319 323 327 331 335 339 343 347 351 355 359 363 367 371 375 379 383 387 391 395 399 403 407 411 415 419 423 427 431 435 439 443 447 451 455 459 463 467 471 475 479 483 487 491 495 499 503 507 511 515 519 523 527 531 535 539 543 547 551 555 559 563 567 571 575 579 583 587 591 595 599 603 607 611 615 619 623 627 631 635 639 643 647 651 655 659 663 667 671 675 679 683 687 691 695 699 703 707 711 715 719 723 727 731 735 739 743 747 751 755 759 763 767 771 775 779 783 787 791 795 799 803 0
-810 1 5 9 13 17 21 25 29 33 37 41 45 49 53 57 61 65 69 73 77 81 85 89 93 97 101 105 109 113 117 121 125 129 133 137 141 145 149 153 157 161 165 169 173 177 181 185 189 193 197 201 205 209 213 217 221 225 229 233 237 241 245 249 253 257 261 265 269 273 277 281 285 289 293 297 301 305 309 313 317 321 325 329 333 337 341 345 349 353 357 361 365 369 373 377 381 385 389 393 397 401 405 409 413 417 421 425 429 433 437 441 445 449 453 457 461 465 469 473 477 481 485 489 493 497 501 505 509 513 517 521 525 529 533 537 541 545 549 553 557 561 565 569 573 577 581 585 589 593 597 601 605 609 613 617 621 625 629 633 637 641 645 649 653 657 661 665 669 673 677 681 685 689 693 697 701 705 709 713 717 721 725 729 733 737 741 745 749 753 757 761 765 769 773 777 781 785 789 793 797 801 805 0
-811 2 6 10 14 18 22 26 30 34 38 42 46 50 54 58 62 66 70 74 78 82 86 90 94 98 102 106 110 114 118 122 126 130 134 138 142 146 150 154 158 162 166 170 174 178 182 186 190 194 198 202 206 210 214 218 222 226 230 234 238 242 246 250 254 258 262 266 270 274 278 282 286 290 294 298 302 306 310 314 318 322 326 330 334 338 342 346 350 354 358 362 366 370 374 378 382 386 390 394 398 402 406 410 414 418 422 426 430 434 438 442 446 450 454 458 462 466 470 474 478 482 486 490 494 498 502 506 510 514 518 522 526 530 534 538 542 546 550 554 558 562 566 570 574 578 582 586 590 594 598 602 606 610 614 618 622 626 630 634 638 642 646 650 654 658 662 666 670 674 678 682 686 690 694 698 702 706 710 714 718 722 726 730 734 738 742 746 750 754 758 762 766 770 774 778 782 786 790 794 798 802 806 0
-812 3 7 11 15 19 23 27 31 35 39 43 47 51 55 59 63 67 71 75 79 83 87 91 95 99 103 107 111 115 119 123 127 131 135 139 143 147 151 155 159 163 167 171 175 179 183 187 191 195 199 203 207 211 215 219 223 227 231 235 239 243 247 251 255 259 263 267 271 275 279 283 287 291 295 299 303 307 311 315 319 323 327 331 335 339 343 347 351 355 359 363 367 371 375 379 383 387 391 395 399 403 407 411 415 419 423 427 431 435 439 443 447 451 455 459 463 467 471 475 479 483 487 491 495 499 503 507 511 515 519 523 527 531 535 539 543 547 551 555 559 563 567 571 575 579 583 587 591 595 599 603 607 611 615 619 623 627 631 635 639 643 647 651 655 659 663 667 671 675 679 683 687 691 695 699 703 707 711 715 719 723 727 731 735 739 743 747 751 755 759 763 767 771 775 779 783 787 791 795 799 803 807 0
-814 1 5 9 13 17 21 25 29 33 37 41 45 49 53 57 61 65 69 73 77 81 85 89 93 97 101 105 109 113 117 121 125 129 133 137 141 145 149 153 157 161 165 169 173 177 181 185 189 193 197 201 205 209 213 217 221 225 229 233 237 241 245 249 253 257 261 265 269 273 277 281 285 289 293 297 301 305 309 313 317 321 325 329 333 337 341 345 349 353 357 361 365 369 373 377 381 385 389 393 397 401 405 409 413 417 421 425 429 433 437 441 445 449 453 457 461 465 469 473 477 481 485 489 493 497 501 505 509 513 517 521 525 529 533 537 541 545 549 553 557 561 565 569 573 577 581 585 589 593 597 601 605 609 613 617 621 625 629 633 637 641 645 649 653 657 661 665 669 673 677 681 685 689 693 697 701 705 709 713 717 721 725 729 733 737 741 745 749 753 757 761 765 769 773 777 781 785 789 793 797 801 805 809 0
-815 2 6 10 14 18 22 26 30 34 38 42 46 50 54 58 62 66 70 74 78 82 86 90 94 98 102 106 110 114 118 122 126 130 134 138 142 146 150 154 158 162 166 170 174 178 182 186 190 194 198 202 206 210 214 218 222 226 230 234 238 242 246 250 254 258 262 266 270 274 278 282 286 290 294 298 302 306 310 314 318 322 326 330 334 338 342 346 350 354 358 362 366 370 374 378 382 386 390 394 398 402 406 410 414 418 422 426 430 434 438 442 446 450 454 458 462 466 470 474 478 482 486 490 494 498 502 506 510 514 518 522 526 530 534 538 542 546 550 554 558 562 566 570 574 578 582 586 590 594 598 602 606 610 614 618 622 626 630 634 638 642 646 650 654 658 662 666 670 674 678 682 686 690 694 698 702 706 710 714 718 722 726 730 734 738 742 746 750 754 758 762 766 770 774 778 782 786 790 794 798 802 806 810 0
-816 3 7 11 15 19 23 27 31 35 39 43 47 51 55 59 63 67 71 75 79 83 87 91 95 99 103 107 111 115 119 123 127 131 135 139 143 147 151 155 159 163 167 171 175 179 183 187 191 195 199 203 207 211 215 219 223 227 231 235 239 243 247 251 255 259 263 267 271 275 279 283 287 291 295 299 303 307 311 315 319 323 327 331 335 339 343 347 351 355 359 363 367 371 375 379 383 387 391 395 399 403 407 411 415 419 423 427 431 435 439 443 447 451 455 459 463 467 471 475 479 483 487 491 495 499 503 507 511 515 519 523 527 531 535 539 543 547 551 555 559 563 567 571 575 579 583 587 591 595 599 603 607 611 615 619 623 627 631 635 639 643 647 651 655 659 663 667 671 675 679 683 687 691 695 699 703 707 711 715 719 723 727 731 735 739 743 747 751 755 759 763 767 771 775 779 783 787 791 795 799 803 807 811 0
-818 1 5 9 13 17 21 25 29 33 37 41 45 49 53 57 61 65 69 73 77 81 85 89 93 97 101 105 109 113 117 121 125 129 133 137 141 145 149 153 157 161 165 169 173 177 181 185 189 193 197 201 205 209 213 217 221 225 229 233 237 241 245 249 253 257 261 265 269 273 277 281 285 289 293 297 301 305 309 313 317 321 325 329 333 337 341 345 349 353 357 361 365 369 373 377 381 385 389 393 397 401 405 409 413 417 421 425 429 433 437 441 445 449 453 457 461 465 469 473 477 481 485 489 493 497 501 505 509 513 517 521 525 529 533 537 541 545 549 553 557 561 565 569 573 577 581 585 589 593 597 601 605 609 613 617 621 625 629 633 637 641 645 649 653 657 661 665 669 673 677 681 685 689 693 697 701 705 709 713 717 721 725 729 733 737 741 745 749 753 757 761 765 769 773 777 781 785 789 793 797 801 805 809 813 0
-819 2 6 10 14 18 22 26 30 34 38 42 46 50 54 58 62 66 70 74 78 82 86 90 94 98 102 106 110 114 118 122 126 130 134 138 142 146 150 154 158 162 166 170 174 178 182 186 190 194 198 202 206 210 214 218 222 226 230 234 238 242 246 250 254 258 262 266 270 274 278 282 286 290 294 298 302 306 310 314 318 322 326 330 334 338 342 346 350 354 358 362 366 370 374 378 382 386 390 394 398 402 406 410 414 418 422 426 430 434 438 442 446 450 454 458 462 466 470 474 478 482 486 490 494 498 502 506 510 514 518 522 526 530 534 538 542 546 550 554 558 562 566 570 574 578 582 586 590 594 598 602 606 610 614 618 622 626 630 634 638 642 646 650 654 658 662 666 670 674 678 682 686 690 694 698 702 706 710 714 718 722 726 730 734 738 742 746 750 754 758 762 766 770 774 778 782 786 790 794 798 802 806 810 814 0
-820 3 7 11 15 19 23 27 31 35 39 43 47 51 55 59 63 67 71 75 79 83 87 91 95 99 103 107 111 115 119 123 127 131 135 139 143 147 151 155 159 163 167 171 175 179 183 187 191 195 199 203 207 211 215 219 223 227 231 235 239 243 247 251 255 259 263 267 271 275 279 283 287 291 295 299 303 307 311 315 319 323 327 331 335 339 343 347 351 355 359 363 367 371 375 379 383 387 391 395 399 403 407 411 415 419 423 427 431 435 439 443 447 451 455 459 463 467 471 475 479 483 487 491 495 499 503 507 511 515 519 523 527 531 535 539 543 547 551 555 559 563 567 571 575 579 583 587 591 595 599 603 607 611 615 619 623 627 631 635 639 643 647 651 655 659 663 667 671 675 679 683 687 691 695 699 703 707 711 715 719 723 727 731 735 739 743 747 751 755 759 763 767 771 775 779 783 787 791 795 799 803 807 811 815 0
-822 1 5 9 13 17 21 25 29 33 37 41 45 49 53 57 61 65 69 73 77 81 85 89 93 97 101 105 109 113 117 121 125 129 133 137 141 145 149 153 157 161 165 169 173 177 181 185 189 193 197 201 205 209 213 217 221 225 229 233 237 241 245 249 253 257 261 265 269 273 277 281 285 289 293 297 301 305 309 313 317 321 325 329 333 337 341 345 349 353 357 361 365 369 373 377 381 385 389 393 397 401 405 409 413 417 421 425 429 433 437 441 445 449 453 457 461 465 469 473 477 481 485 489 493 497 501 505 509 513 517 521 525 529 533 537 541 545 549 553 557 561 565 569 573 577 581 585 589 593 597 601 605 609 613 617 621 625 629 633 637 641 645 649 653 657 661 665 669 673 677 681 685 689 693 697 701 705 709 713 717 721 725 729 733 737 741 745 749 753 757 761 765 769 773 777 781 785 789 793 797 801 805 809 813 817 0
-823 2 6 10 14 18 22 26 30 34 38 42 46 50 54 58 62 66 70 74 78 82 86 90 94 98 102 106 110 114 118 122 126 130 134 138 142 146 150 154 158 162 166 170 174 178 182 186 190 194 198 202 206 210 214 218 222 226 230 234 238 242 246 250 254 258 262 266 270 274 278 282 286 290 294 298 302 306 310 314 318 322 326 330 334 338 342 346 350 354 358 362 366 370 374 378 382 386 390 394 398 402 406 410 414 418 422 426 430 434 438 442 446 450 454 458 462 466 470 474 478 482 486 490 494 498 502 506 510 514 518 522 526 530 534 538 542 546 550 554 558 562 566 570 574 578 582 586 590 594 598 602 606 610 614 618 622 626 630 634 638 642 646 650 654 658 662 666 670 674 678 682 686 690 694 698 702 706 710 714 718 722 726 730 734 738 742 746 750 754 758 762 766 770 774 778 782 786 790 794 798 802 806 810 814 818 0
-824 3 7 11 15 19 23 27 31 35 39 43 47 51 55 59 63 67 71 75 79 83 87 91 95 99 103 107 111 115 119 123 127 131 135 139 143 147 151 155 159 163 167 171 175 179 183 187 191 195 199 203 207 211 215 219 223 227 231 235 239 243 247 251 255 259 263 267 271 275 279 283 287 291 295 299 303 307 311 315 319 323 327 331 335 339 343 347 351 355 359 363 367 371 375 379 383 387 391 395 399 403 407 411 415 419 423 427 431 435 439 443 447 451 455 459 463 467 471 475 479 483 487 491 495 499 503 507 511 515 519 523 527 531 535 539 543 547 551 555 559 563 567 571 575 579 583 587 591 595 599 603 607 611 615 619 623 627 631 635 639 643 647 651 655 659 663 667 671 675 679 683 687 691 695 699 703 707 711 715 719 723 727 731 735 739 743 747 751 755 759 763 767 771 775 779 783 787 791 795 799 803 807 811 815 819 0
-826 1 5 9 13 17 21 25 29 33 37 41 45 49 53 57 61 65 69 73 77 81 85 89 93 97 101 105 109 113 117 121 125 129 133 137 141 145 149 153 157 161 165 169 173 177 181 185 189 193 197 201 205 209 213 217 221 225 229 233 237 241 245 249 253 257 261 265 269 273 277 281 285 289 293 297 301 305 309 313 317 321 325 329 333 337 341 345 349 353 357 361 365 369 373 377 381 385 389 393 397 401 405 409 413 417 421 425 429 433 437 441 445 449 453 457 461 465 469 473 477 481 485 489 493 497 501 505 509 513 517 521 525 529 533 537 541 545 549 553 557 561 565 569 573 577 581 585 589 593 597 601 605 609 613 617 621 625 629 633 637 641 645 649 653 657 661 665 669 673 677 681 685 689 693 697 701 705 709 713 717 721 725 729 733 737 741 745 749 753 757 761 765 769 773 777 781 785 789 793 797 801 805 809 813 817 821 0
-827 2 6 10 14 18 22 26 30 34 38 42 46 50 54 58 62 66 70 74 78 82 86 90 94 98 102 106 110 114 118 122 126 130 134 138 142 146 150 154 158 162 166 170 174 178 182 186 190 194 198 202 206 210 214 218 222 226 230 234 238 242 246 250 254 258 262 266 270 274 278 282 286 290 294 298 302 306 310 314 318 322 326 330 334 338 342 346 350 354 358 362 366 370 374 378 382 386 390 394 398 402 406 410 414 418 422 426 430 434 438 442 446 450 454 458 462 466 470 474 478 482 486 490 494 498 502 506 510 514 518 522 526 530 534 538 542 546 550 554 558 562 566 570 574 578 582 586 590 594 598 602 606 610 614 618 622 626 630 634 638 642 646 650 654 658 662 666 670 674 678 682 686 690 694 698 702 706 710 714 718 722 726 730 734 738 742 746 750 754 758 762 766 770 774 778 782 786 790 794 798 802 806 810 814 818 822 0
-828 3 7 11 15 19 23 27 31 35 39 43 47 51 55 59 63 67 71 75 79 83 87 91 95 99 103 107 111 115 119 123 127 131 135 139 143 147 151 155 159 163 167 171 175 179 183 187 191 195 199 203 207 211 215 219 223 227 231 235 239 243 247 251 255 259 263 267 271 275 279 283 287 291 295 299 303 307 311 315 319 323 327 331 335 339 343 347 351 355 359 363 367 371 375 379 383 387 391 395 399 403 407 411 415 419 423 427 431 435 439 443 447 451 455 459 463 467 471 475 479 483 487 491 495 499 503 507 511 515 519 523 527 531 535 539 543 547 551 555 559 563 567 571 575 579 583 587 591 595 599 603 607 611 615 619 623 627 631 635 639 643 647 651 655 659 663 667 671 675 679 683 687 691 695 699 703 707 711 715 719 723 727 731 735 739 743 747 751 755 759 763 767 771 775 779 783 787 791 795 799 803 807 811 815 819 823 0
-830 1 5 9 13 17 21 25 29 33 37 41 45 49 53 57 61 65 69 73 77 81 85 89 93 97 101 105 109 113 117 121 125 129 133 137 141 145 149 153 157 161 165 169 173 177 181 185 189 193 197 201 205 209 213 217 221 225 229 233 237 241 245 249 253 257 261 265 269 273 277 281 285 289 293 297 301 305 309 313 317 321 325 329 333 337 341 345 349 353 357 361 365 369 373 377 381 385 389 393 397 401 405 409 413 417 421 425 429 433 437 441 445 449 453 457 461 465 469 473 477 481 485 489 493 497 501 505 509 513 517 521 525 529 533 537 541 545 549 553 557 561 565 569 573 577 581 585 589 593 597 601 605 609 613 617 621 625 629 633 637 641 645 649 653 657 661 665 669 673 677 681 685 689 693 697 701 705 709 713 717 721 725 729 733 737 741 745 749 753 757 761 765 769 773 777 781 785 789 793 797 801 805 809 813 817 821 825 0
-831 2 6 10 14 18 22 26 30 34 38 42 46 50 54 58 62 66 70 74 78 82 86 90 94 98 102 106 110 114 118 122 126 130 134 138 142 146 150 154 158 162 166 170 174 178 182 186 190 194 198 202 206 210 214 218 222 226 230 234 238 242 246 250 254 258 262 266 270 274 278 282 286 290 294 298 302 306 310 314 318 322 326 330 334 338 342 346 350 354 358 362 366 370 374 378 382 386 390 394 398 402 406 410 414 418 422 426 430 434 438 442 446 450 454 458 462 466 470 474 478 482 486 490 494 498 502 506 510 514 518 522 526 530 534 538 542 546 550 554 558 562 566 570 574 578 582 586 590 594 598 602 606 610 614 618 622 626 630 634 638 642 646 650 654 658 662 666 670 674 678 682 686 690 694 698 702 706 710 714 718 722 726 730 734 738 742 746 750 754 758 762 766 770 774 778 782 786 790 794 798 802 806 810 814 818 822 826 0
-832 3 7 11 15 19 23 27 31 35 39 43 47 51 55 59 63 67 71 75 79 83 87 91 95 99 103 107 111 115 119 123 127 131 135 139 143 147 151 155 159 163 167 171 175 179 183 187 191 195 199 203 207 211 215 219 223 227 231 235 239 243 247 251 255 259 263 267 271 275 279 283 287 291 295 299 303 307 311 315 319 323 327 331 335 339 343 347 351 355 359 363 367 371 375 379 383 387 391 395 399 403 407 411 415 419 423 427 431 435 439 443 447 451 455 459 463 467 471 475 479 483 487 491 495 499 503 507 511 515 519 523 527 531 535 539 543 547 551 555 559 563 567 571 575 579 583 587 591 595 599 603 607 611 615 619 623 627 631 635 639 643 647 651 655 659 663 667 671 675 679 683 687 691 695 699 703 707 711 715 719 723 727 731 735 739 743 747 751 755 759 763 767 771 775 779 783 787 791 795 799 803 807 811 815 819 823 827 0
-834 1 5 9 13 17 21 25 29 33 37 41 45 49 53 57 61 65 69 73 77 81 85 89 93 97 101 105 109 113 117 121 125 129 133 137 141 145 149 153 157 161 165 169 173 177 181 185 189 193 197 201 205 209 213 217 221 225 229 233 237 241 245 249 253 257 261 265 269 273 277 281 285 289 293 297 301 305 309 313 317 321 325 329 333 337 341 345 349 353 357 361 365 369 373 377 381 385 389 393 397 401 405 409 413 417 421 425 429 433 437 441 445 449 453 457 461 465 469 473 477 481 485 489 493 497 501 505 509 513 517 521 525 529 533 537 541 545 549 553 557 561 565 569 573 577 581 585 589 593 597 601 605 609 613 617 621 625 629 633 637 641 645 649 653 657 661 665 669 673 677 681 685 689 693 697 701 705 709 713 717 721 725 729 733 737 741 745 749 753 757 761 765 769 773 777 781 785 789 793 797 801 805 809 813 817 821 825 829 0
-835 2 6 10 14 18 22 26 30 34 38 42 46 50 54 58 62 66 70 74 78 82 86 90 94 98 102 106 110 114 118 122 126 130 134 138 142 146 150 154 158 162 166 170 174 178 182 186 190 194 198 202 206 210 214 218 222 226 230 234 238 242 246 250 254 258 262 266 270 274 278 282 286 290 294 298 302 306 310 314 318 322 326 330 334 338 342 346 350 354 358 362 366 370 374 378 382 386 390 394 398 402 406 410 414 418 422 426 430 434 438 442 446 450 454 458 462 466 470 474 478 482 486 490 494 498 502 506 510 514 518 522 526 530 534 538 542 546 550 554 558 562 566 570 574 578 582 586 590 594 598 602 606 610 614 618 622 626 630 634 638 642 646 650 654 658 662 666 670 674 678 682 686 690 694 698 702 706 710 714 718 722 726 730 734 738 742 746 750 754 758 762 766 770 774 778 782 786 790 794 798 802 806 810 814 818 822 826 830 0
-836 3 7 11 15 19 23 27 31 35 39 43 47 51 55 59 63 67 71 75 79 83 87 91 95 99 103 107 111 115 119 123 127 131 135 139 143 147 151 155 159 163 167 171 175 179 183 187 191 195 199 203 207 211 215 219 223 227 231 235 239 243 247 251 255 259 263 267 271 275 279 283 287 291 295 299 303 307 311 315 319 323 327 331 335 339 343 347 351 355 359 363 367 371 375 379 383 387 391 395 399 403 407 411 415 419 423 427 431 435 439 443 447 451 455 459 463 467 471 475 479 483 487 491 495 499 503 507 511 515 519 523 527 531 535 539 543 547 551 555 559 563 567 571 575 579 583 587 591 595 599 603 607 611 615 619 623 627 631 635 639 643 647 651 655 659 663 667 671 675 679 683 687 691 695 699 703 707 711 715 719 723 727 731 735 739 743 747 751 755 759 763 767 771 775 779 783 787 791 795 799 803 807 811 815 819 823 827 831 0
-838 1 5 9 13 17 21 25 29 33 37 41 45 49 53 57 61 65 69 73 77 81 85 89 93 97 101 105 109 113 117 121 125 129 133 137 141 145 149 153 157 161 165 169 173 177 181 185 189 193 197 201 205 209 213 217 221 225 229 233 237 241 245 249 253 257 261 265 269 273 277 281 285 289 293 297 301 305 309 313 317 321 325 329 333 337 341 345 349 353 357 361 365 369 373 377 381 385 389 393 397 401 405 409 413 417 421 425 429 433 437 441 445 449 453 457 461 465 469 473 477 481 485 489 493 497 501 505 509 513 517 521 525 529 533 537 541 545 549 553 557 561 565 569 573 577 581 585 589 593 597 601 605 609 613 617 621 625 629 633 637 641 645 649 653 657 661 665 669 673 677 681 685 689 693 697 701 705 709 713 717 721 725 729 733 737 741 745 749 753 757 761 765 769 773 777 781 785 789 793 797 801 805 809 813 817 821 825 829 833 0
-839 2 6 10 14 18 22 26 30 34 38 42 46 50 54 58 62 66 70 74 78 82 86 90 94 98 102 106 110 114 118 122 126 130 134 138 142 146 150 154 158 162 166 170 174 178 182 186 190 194 198 202 206 210 214 218 222 226 230 234 238 242 246 250 254 258 262 266 270 274 278 282 286 290 294 298 302 306 310 314 318 322 326 330 334 338 342 346 350 354 358 362 366 370 374 378 382 386 390 394 398 402 406 410 414 418 422 426 430 434 438 442 446 450 454 458 462 466 470 474 478 482 486 490 494 498 502 506 510 514 518 522 526 530 534 538 542 546 550 554 558 562 566 570 574 578 582 586 590 594 598 602 606 610 614 618 622 626 630 634 638 642 646 650 654 658 662 666 670 674 678 682 686 690 694 698 702 706 710 714 718 722 726 730 734 738 742 746 750 754 758 762 766 770 774 778 782 786 790 794 798 802 806 810 814 818 822 826 830 834 0
-840 3 7 11 15 19 23 27 31 35 39 43 47 51 55 59 63 67 71 75 79 83 87 91 95 99 103 107 111 115 119 123 127 131 135 139 143 147 151 155 159 163 167 171 175 179 183 187 191 195 199 203 207 211 215 219 223 227 231 235 239 243 247 251 255 259 263 267 271 275 279 283 287 291 295 299 303 307 311 315 319 323 327 331 335 339 343 347 351 355 359 363 367 371 375 379 383 387 391 395 399 403 407 411 415 419 423 427 431 435 439 443 447 451 455 459 463 467 471 475 479 483 487 491 495 499 503 507 511 515 519 523 527 531 535 539 543 547 551 555 559 563 567 571 575 579 583 587 591 595 599 603 607 611 615 619 623 627 631 635 639 643 647 651 655 659 663 667 671 675 679 683 687 691 695 699 703 707 711 715 719 723 727 731 735 739 743 747 751 755 759 763 767 771 775 779 783 787 791 795 799 803 807 811 815 819 823 827 831 835 0
-842 1 5 9 13 17 21 25 29 33 37 41 45 49 53 57 61 65 69 73 77 81 85 89 93 97 101 105 109 113 117 121 125 129 133 137 141 145 149 153 157 161 165 169 173 177 181 185 189 193 197 201 205 209 213 217 221 225 229 233 237 241 245 249 253 257 261 265 269 273 277 281 285 289 293 297 301 305 309 313 317 321 325 329 333 337 341 345 349 353 357 361 365 369 373 377 381 385 389 393 397 401 405 409 413 417 421 425 429 433 437 441 445 449 453 457 461 465 469 473 477 481 485 489 493 497 501 505 509 513 517 521 525 529 533 537 541 545 549 553 557 561 565 569 573 577 581 585 589 593 597 601 605 609 613 617 621 625 629 633 637 641 645 649 653 657 661 665 669 673 677 681 685 689 693 697 701 705 709 713 717 721 725 729 733 737 741 745 749 753 757 761 765 769 773 777 781 785 789 793 797 801 805 809 813 817 821 825 829 833 837 0
-843 2 6 10 14 18 22 26 30 34 38 42 46 50 54 58 62 66 70 74 78 82 86 90 94 98 102 106 110 114 118 122 126 130 134 138 142 146 150 154 158 162 166 170 174 178 182 186 190 194 198 202 206 210 214 218 222 226 230 234 238 242 246 250 254 258 262 266 270 274 278 282 286 290 294 298 302 306 310 314 318 322 326 330 334 338 342 346 350 354 358 362 366 370 374 378 382 386 390 394 398 402 406 410 414 418 422 426 430 434 438 442 446 450 454 458 462 466 470 474 478 482 486 490 494 498 502 506 510 514 518 522 526 530 534 538 542 546 550 554 558 562 566 570 574 578 582 586 590 594 598 602 606 610 614 618 622 626 630 634 638 642 646 650 654 658 662 666 670 674 678 682 686 690 694 698 702 706 710 714 718 722 726 730 734 738 742 746 750 754 758 762 766 770 774 778 782 786 790 794 798 802 806 810 814 818 822 826 830 834 838 0
-844 3 7 11 15 19 23 27 31 35 39 43 47 51 55 59 63 67 71 75 79 83 87 91 95 99 103 107 111 115 119 123 127 131 135 139 143 147 151 155 159 163 167 171 175 179 183 187 191 195 199 203 207 211 215 219 223 227 231 235 239 243 247 251 255 259 263 267 271 275 279 283 287 291 295 299 303 307 311 315 319 323 327 331 335 339 343 347 351 355 359 363 367 371 375 379 383 387 391 395 399 403 407 411 415 419 423 427 431 435 439 443 447 451 455 459 463 467 471 475 479 483 487 491 495 499 503 507 511 515 519 523 527 531 535 539 543 547 551 555 559 563 567 571 575 579 583 587 591 595 599 603 607 611 615 619 623 627 631 635 639 643 647 651 655 659 663 667 671 675 679 683 687 691 695 699 703 707 711 715 719 723 727 731 735 739 743 747 751 755 759 763 767 771 775 779 783 787 791 795 799 803 807 811 815 819 823 827 831 835 839 0
-846 1 5 9 13 17 21 25 29 33 37 41 45 49 53 57 61 65 69 73 77 81 85 89 93 97 101 105 109 113 117 121 125 129 133 137 141 145 149 153 157 161 165 169 173 177 181 185 189 193 197 201 205 209 213 217 221 225 229 233 237 241 245 249 253 257 261 265 269 273 277 281 285 289 293 297 301 305 309 313 317 321 325 329 333 337 341 345 349 353 357 361 365 369 373 377 381 385 389 393 397 401 405 409 413 417 421 425 429 433 437 441 445 449 453 457 461 465 469 473 477 481 485 489 493 497 501 505 509 513 517 521 525 529 533 537 541 545 549 553 557 561 565 569 573 577 581 585 589 593 597 601 605 609 613 617 621 625 629 633 637 641 645 649 653 657 661 665 669 673 677 681 685 689 693 697 701 705 709 713 717 721 725 729 733 737 741 745 749 753 757 761 765 769 773 777 781 785 789 793 797 801 805 809 813 817 821 825 829 833 837 841 0
-847 2 6 10 14 18 22 26 30 34 38 42 46 50 54 58 62 66 70 74 78 82 86 90 94 98 102 106 110 114 118 122 126 130 134 138 142 146 150 154 158 162 166 170 174 178 182 186 190 194 198 202 206 210 214 218 222 226 230 234 238 242 246 250 254 258 262 266 270 274 278 282 286 290 294 298 302 306 310 314 318 322 326 330 334 338 342 346 350 354 358 362 366 370 374 378 382 386 390 394 398 402 406 410 414 418 422 426 430 434 438 442 446 450 454 458 462 466 470 474 478 482 486 490 494 498 502 506 510 514 518 522 526 530 534 538 542 546 550 554 558 562 566 570 574 578 582 586 590 594 598 602 606 610 614 618 622 626 630 634 638 642 646 650 654 658 662 666 670 674 678 682 686 690 694 698 702 706 710 714 718 722 726 730 734 738 742 746 750 754 758 762 766 770 774 778 782 786 790 794 798 802 806 810 814 818 822 826 830 834 838 842 0
-848 3 7 11 15 19 23 27 31 35 39 43 47 51 55 59 63 67 71 75 79 83 87 91 95 99 103 107 111 115 119 123 127 131 135 139 143 147 151 155 159 163 167 171 175 179 183 187 191 195 199 203 207 211 215 219 223 227 231 235 239 243 247 251 255 259 263 267 271 275 279 283 287 291 295 299 303 307 311 315 319 323 327 331 335 339 343 347 351 355 359 363 367 371 375 379 383 387 391 395 399 403 407 411 415 419 423 427 431 435 439 443 447 451 455 459 463 467 471 475 479 483 487 491 495 499 503 507 511 515 519 523 527 531 535 539 543 547 551 555 559 563 567 571 575 579 583 587 591 595 599 603 607 611 615 619 623 627 631 635 639 643 647 651 655 659 663 667 671 675 679 683 687 691 695 699 703 707 711 715 719 723 727 731 735 739 743 747 751 755 759 763 767 771 775 779 783 787 791 795 799 803 807 811 815 819 823 827 831 835 839 843 0
-850 1 5 9 13 17 21 25 29 33 37 41 45 49 53 57 61 65 69 73 77 81 85 89 93 97 101 105 109 113 117 121 125 129 133 137 141 145 149 153 157 161 165 169 173 177 181 185 189 193 197 201 205 209 213 217 221 225 229 233 237 241 245 249 253 257 261 265 269 273 277 281 285 289 293 297 301 305 309 313 317 321 325 329 333 337 341 345 349 353 357 361 365 369 373 377 381 385 389 393 397 401 405 409 413 417 421 425 429 433 437 441 445 449 453 457 461 465 469 473 477 481 485 489 493 497 501 505 509 513 517 521 525 529 533 537 541 545 549 553 557 561 565 569 573 577 581 585 589 593 597 601 605 609 613 617 621 625 629 633 637 641 645 649 653 657 661 665 669 673 677 681 685 689 693 697 701 705 709 713 717 721 725 729 733 737 741 745 749 753 757 761 765 769 773 777 781 785 789 793 797 801 805 809 813 817 821 825 829 833 837 841 845 0
-851 2 6 10 14 18 22 26 30 34 38 42 46 50 54 58 62 66 70 74 78 82 86 90 94 98 102 106 110 114 118 122 126 130 134 138 142 146 150 154 158 162 166 170 174 178 182 186 190 194 198 202 206 210 214 218 222 226 230 234 238 242 246 250 254 258 262 266 270 274 278 282 286 290 294 298 302 306 310 314 318 322 326 330 334 338 342 346 350 354 358 362 366 370 374 378 382 386 390 394 398 402 406 410 414 418 422 426 430 434 438 442 446 450 454 458 462 466 470 474 478 482 486 490 494 498 502 506 510 514 518 522 526 530 534 538 542 546 550 554 558 562 566 570 574 578 582 586 590 594 598 602 606 610 614 618 622 626 630 634 638 642 646 650 654 658 662 666 670 674 678 682 686 690 694 698 702 706 710 714 718 722 726 730 734 738 742 746 750 754 758 762 766 770 774 778 782 786 790 794 798 802 806 810 814 818 822 826 830 834 838 842 846 0
-852 3 7 11 15 19 23 27 31 35 39 43 47 51 55 59 63 67 71 75 79 83 87 91 95 99 103 107 111 115 119 123 127 131 135 139 143 147 151 155 159 163 167 171 175 179 183 187 191 195 199 203 207 211 215 219 223 227 231 235 239 243 247 251 255 259 263 267 271 275 279 283 287 291 295 299 303 307 311 315 319 323 327 331 335 339 343 347 351 355 359 363 367 371 375 379 383 387 391 395 399 403 407 411 415 419 423 427 431 435 439 443 447 451 455 459 463 467 471 475 479 483 487 491 495 499 503 507 511 515 519 523 527 531 535 539 543 547 551 555 559 563 567 571 575 579 583 587 591 595 599 603 607 611 615 619 623 627 631 635 639 643 647 651 655 659 663 667 671 675 679 683 687 691 695 699 703 707 711 715 719 723 727 731 735 739 743 747 751 755 759 763 767 771 775 779 783 787 791 795 799 803 807 811 815 819 823 827 831 835 839 843 847 0
-854 1 5 9 13 17 21 25 29 33 37 41 45 49 53 57 61 65 69 73 77 81 85 89 93 97 101 105 109 113 117 121 125 129 133 137 141 145 149 153 157 161 165 169 173 177 181 185 189 193 197 201 205 209 213 217 221 225 229 233 237 241 245 249 253 257 261 265 269 273 277 281 285 289 293 297 301 305 309 313 317 321 325 329 333 337 341 345 349 353 357 361 365 369 373 377 381 385 389 393 397 401 405 409 413 417 421 425 429 433 437 441 445 449 453 457 461 465 469 473 477 481 485 489 493 497 501 505 509 513 517 521 525 529 533 537 541 545 549 553 557 561 565 569 573 577 581 585 589 593 597 601 605 609 613 617 621 625 629 633 637 641 645 649 653 657 661 665 669 673 677 681 685 689 693 697 701 705 709 713 717 721 725 729 733 737 741 745 749 753 757 761 765 769 773 777 781 785 789 793 797 801 805 809 813 817 821 825 829 833 837 841 845 849 0
-855 2 6 10 14 18 22 26 30 34 38 42 46 50 54 58 62 66 70 74 78 82 86 90 94 98 102 106 110 114 118 122 126 130 134 138 142 146 150 154 158 162 166 170 174 178 182 186 190 194 198 202 206 210 214 218 222 226 230 234 238 242 246 250 254 258 262 266 270 274 278 282 286 290 294 298 302 306 310 314 318 322 326 330 334 338 342 346 350 354 358 362 366 370 374 378 382 386 390 394 398 402 406 410 414 418 422 426 430 434 438 442 446 450 454 458 462 466 470 474 478 482 486 490 494 498 502 506 510 514 518 522 526 530 534 538 542 546 550 554 558 562 566 570 574 578 582 586 590 594 598 602 606 610 614 618 622 626 630 634 638 642 646 650 654 658 662 666 670 674 678 682 686 690 694 698 702 706 710 714 718 722 726 730 734 738 742 746 750 754 758 762 766 770 774 778 782 786 790 794 798 802 806 810 814 818 822 826 830 834 838 842 846 850 0
-856 3 7 11 15 19 23 27 31 35 39 43 47 51 55 59 63 67 71 75 79 83 87 91 95 99 103 107 111 115 119 123 127 131 135 139 143 147 151 155 159 163 167 171 175 179 183 187 191 195 199 203 207 211 215 219 223 227 231 235 239 243 247 251 255 259 263 267 271 275 279 283 287 291 295 299 303 307 311 315 319 323 327 331 335 339 343 347 351 355 359 363 367 371 375 379 383 387 391 395 399 403 407 411 415 419 423 427 431 435 439 443 447 451 455 459 463 467 471 475 479 483 487 491 495 499 503 507 511 515 519 523 527 531 535 539 543 547 551 555 559 563 567 571 575 579 583 587 591 595 599 603 607 611 615 619 623 627 631 635 639 643 647 651 655 659 663 667 671 675 679 683 687 691 695 699 703 707 711 715 719 723 727 731 735 739 743 747 751 755 759 763 767 771 775 779 783 787 791 795 799 803 807 811 815 819 823 827 831 835 839 843 847 851 0
-858 1 5 9 13 17 21 25 29 33 37 41 45 49 53 57 61 65 69 73 77 81 85 89 93 97 101 105 109 113 117 121 125 129 133 137 141 145 149 153 157 161 165 169 173 177 181 185 189 193 197 201 205 209 213 217 221 225 229 233 237 241 245 249 253 257 261 265 269 273 277 281 285 289 293 297 301 305 309 313 317 321 325 329 333 337 341 345 349 353 357 361 365 369 373 377 381 385 389 393 397 401 405 409 413 417 421 425 429 433 437 441 445 449 453 457 461 465 469 473 477 481 485 489 493 497 501 505 509 513 517 521 525 529 533 537 541 545 549 553 557 561 565 569 573 577 581 585 589 593 597 601 605 609 613 617 621 625 629 633 637 641 645 649 653 657 661 665 669 673 677 681 685 689 693 697 701 705 709 713 717 721 725 729 733 737 741 745 749 753 757 761 765 769 773 777 781 785 789 793 797 801 805 809 813 817 821 825 829 833 837 841 845 849 853 0
-859 2 6 10 14 18 22 26 30 34 38 42 46 50 54 58 62 66 70 74 78 82 86 90 94 98 102 106 110 114 118 122 126 130 134 138 142 146 150 154 158 162 166 170 174 178 182 186 190 194 198 202 206 210 214 218 222 226 230 234 238 242 246 250 254 258 262 266 270 274 278 282 286 290 294 298 302 306 310 314 318 322 326 330 334 338 342 346 350 354 358 362 366 370 374 378 382 386 390 394 398 402 406 410 414 418 422 426 430 434 438 442 446 450 454 458 462 466 470 474 478 482 486 490 494 498 502 506 510 514 518 522 526 530 534 538 542 546 550 554 558 562 566 570 574 578 582 586 590 594 598 602 606 610 614 618 622 626 630 634 638 642 646 650 654 658 662 666 670 674 678 682 686 690 694 698 702 706 710 714 718 722 726 730 734 738 742 746 750 754 758 762 766 770 774 778 782 786 790 794 798 802 806 810 814 818 822 826 830 834 838 842 846 850 854 0
-860 3 7 11 15 19 23 27 31 35 39 43 47 51 55 59 63 67 71 75 79 83 87 91 95 99 103 107 111 115 119 123 127 131 135 139 143 147 151 155 159 163 167 171 175 179 183 187 191 195 199 203 207 211 215 219 223 227 231 235 239 243 247 251 255 259 263 267 271 275 279 283 287 291 295 299 303 307 311 315 319 323 327 331 335 339 343 347 351 355 359 363 367 371 375 379 383 387 391 395 399 403 407 411 415 419 423 427 431 435 439 443 447 451 455 459 463 467 471 475 479 483 487 491 495 499 503 507 511 515 519 523 527 531 535 539 543 547 551 555 559 563 567 571 575 579 583 587 591 595 599 603 607 611 615 619 623 627 631 635 639 643 647 651 655 659 663 667 671 675 679 683 687 691 695 699 703 707 711 715 719 723 727 731 735 739 743 747 751 755 759 763 767 771 775 779 783 787 791 795 799 803 807 811 815 819 823 827 831 835 839 843 847 851 855 0
-862 1 5 9 13 17 21 25 29 33 37 41 45 49 53 57 61 65 69 73 77 81 85 89 93 97 101 105 109 113 117 121 125 129 133 137 141 145 149 153 157 161 165 169 173 177 181 185 189 193 197 201 205 209 213 217 221 225 229 233 237 241 245 249 253 257 261 265 269 273 277 281 285 289 293 297 301 305 309 313 317 321 325 329 333 337 341 345 349 353 357 361 365 369 373 377 381 385 389 393 397 401 405 409 413 417 421 425 429 433 437 441 445 449 453 457 461 465 469 473 477 481 485 489 493 497 501 505 509 513 517 521 525 529 533 537 541 545 549 553 557 561 565 569 573 577 581 585 589 593 597 601 605 609 613 617 621 625 629 633 637 641 645 649 653 657 661 665 669 673 677 681 685 689 693 697 701 705 709 713 717 721 725 729 733 737 741 745 749 753 757 761 765 769 773 777 781 785 789 793 797 801 805 809 813 817 821 825 829 833 837 841 845 849 853 857 0
-863 2 6 10 14 18 22 26 30 34 38 42 46 50 54 58 62 66 70 74 78 82 86 90 94 98 102 106 110 114 118 122 126 130 134 138 142 146 150 154 158 162 166 170 174 178 182 186 190 194 198 202 206 210 214 218 222 226 230 234 238 242 246 250 254 258 262 266 270 274 278 282 286 290 294 298 302 306 310 314 318 322 326 330 334 338 342 346 350 354 358 362 366 370 374 378 382 386 390 394 398 402 406 410 414 418 422 426 430 434 438 442 446 450 454 458 462 466 470 474 478 482 486 490 494 498 502 506 510 514 518 522 526 530 534 538 542 546 550 554 558 562 566 570 574 578 582 586 590 594 598 602 606 610 614 618 622 626 630 634 638 642 646 650 654 658 662 666 670 674 678 682 686 690 694 698 702 706 710 714 718 722 726 730 734 738 742 746 750 754 758 762 766 770 774 778 782 786 790 794 798 802 806 810 814 818 822 826 830 834 838 842 846 850 854 858 0
-864 3 7 11 15 19 23 27 31 35 39 43 47 51 55 59 63 67 71 75 79 83 87 91 95 99 103 107 111 115 119 123 127 131 135 139 143 147 151 155 159 163 167 171 175 179 183 187 191 195 199 203 207 211 215 219 223 227 231 235 239 243 247 251 255 259 263 267 271 275 279 283 287 291 295 299 303 307 311 315 319 323 327 331 335 339 343 347 351 355 359 363 367 371 375 379 383 387 391 395 399 403 407 411 415 419 423 427 431 435 439 443 447 451 455 459 463 467 471 475 479 483 487 491 495 499 503 507 511 515 519 523 527 531 535 539 543 547 551 555 559 563 567 571 575 579 583 587 591 595 599 603 607 611 615 619 623 627 631 635 639 643 647 651 655 659 663 667 671 675 679 683 687 691 695 699 703 707 711 715 719 723 727 731 735 739 743 747 751 755 759 763 767 771 775 779 783 787 791 795 799 803 807 811 815 819 823 827 831 835 839 843 847 851 855 859 0
-866 1 5 9 13 17 21 25 29 33 37 41 45 49 53 57 61 65 69 73 77 81 85 89 93 97 101 105 109 113 117 121 125 129 133 137 141 145 149 153 157 161 165 169 173 177 181 185 189 193 197 201 205 209 213 217 221 225 229 233 237 241 245 249 253 257 261 265 269 273 277 281 285 289 293 297 301 305 309 313 317 321 325 329 333 337 341 345 349 353 357 361 365 369 373 377 381 385 389 393 397 401 405 409 413 417 421 425 429 433 437 441 445 449 453 457 461 465 469 473 477 481 485 489 493 497 501 505 509 513 517 521 525 529 533 537 541 545 549 553 557 561 565 569 573 577 581 585 589 593 597 601 605 609 613 617 621 625 629 633 637 641 645 649 653 657 661 665 669 673 677 681 685 689 693 697 701 705 709 713 717 721 725 729 733 737 741 745 749 753 757 761 765 769 773 777 781 785 789 793 797 801 805 809 813 817 821 825 829 833 837 841 845 849 853 857 861 0
-867 2 6 10 14 18 22 26 30 34 38 42 46 50 54 58 62 66 70 74 78 82 86 90 94 98 102 106 110 114 118 122 126 130 134 138 142 146 150 154 158 162 166 170 174 178 182 186 190 194 198 202 206 210 214 218 222 226 230 234 238 242 246 250 254 258 262 266 270 274 278 282 286 290 294 298 302 306 310 314 318 322 326 330 334 338 342 346 350 354 358 362 366 370 374 378 382 386 390 394 398 402 406 410 414 418 422 426 430 434 438 442 446 450 454 458 462 466 470 474 478 482 486 490 494 498 502 506 510 514 518 522 526 530 534 538 542 546 550 554 558 562 566 570 574 578 582 586 590 594 598 602 606 610 614 618 622 626 630 634 638 642 646 650 654 658 662 666 670 674 678 682 686 690 694 698 702 706 710 714 718 722 726 730 734 738 742 746 750 754 758 762 766 770 774 778 782 786 790 794 798 802 806 810 814 818 822 826 830 834 838 842 846 850 854 858 862 0
-868 3 7 11 15 19 23 27 31 35 39 43 47 51 55 59 63 67 71 75 79 83 87 91 95 99 103 107 111 115 119 123 127 131 135 139 143 147 151 155 159 163 167 171 175 179 183 187 191 195 199 203 207 211 215 219 223 227 231 235 239 243 247 251 255 259 263 267 271 275 279 283 287 291 295 299 303 307 311 315 319 323 327 331 335 339 343 347 351 355 359 363 367 371 375 379 383 387 391 395 399 403 407 411 415 419 423 427 431 435 439 443 447 451 455 459 463 467 471 475 479 483 487 491 495 499 503 507 511 515 519 523 527 531 535 539 543 547 551 555 559 563 567 571 575 579 583 587 591 595 599 603 607 611 615 619 623 627 631 635 639 643 647 651 655 659 663 667 671 675 679 683 687 691 695 699 703 707 711 715 719 723 727 731 735 739 743 747 751 755 759 763 767 771 775 779 783 787 791 795 799 803 807 811 815 819 823 827 831 835 839 843 847 851 855 859 863 0
-870 1 5 9 13 17 21 25 29 33 37 41 45 49 53 57 61 65 69 73 77 81 85 89 93 97 101 105 109 113 117 121 125 129 133 137 141 145 149 153 157 161 165 169 173 177 181 185 189 193 197 201 205 209 213 217 221 225 229 233 237 241 245 249 253 257 261 265 269 273 277 281 285 289 293 297 301 305 309 313 317 321 325 329 333 337 341 345 349 353 357 361 365 369 373 377 381 385 389 393 397 401 405 409 413 417 421 425 429 433 437 441 445 449 453 457 461 465 469 473 477 481 485 489 493 497 501 505 509 513 517 521 525 529 533 537 541 545 549 553 557 561 565 569 573 577 581 585 589 593 597 601 605 609 613 617 621 625 629 633 637 641 645 649 653 657 661 665 669 673 677 681 685 689 693 697 701 705 709 713 717 721 725 729 733 737 741 745 749 753 757 761 765 769 773 777 781 785 789 793 797 801 805 809 813 817 821 825 829 833 837 841 845 849 853 857 861 865 0
-871 2 6 10 14 18 22 26 30 34 38 42 46 50 54 58 62 66 70 74 78 82 86 90 94 98 102 106 110 114 118 122 126 130 134 138 142 146 150 154 158 162 166 170 174 178 182 186 190 194 198 202 206 210 214 218 222 226 230 234 238 242 246 250 254 258 262 266 270 274 278 282 286 290 294 298 302 306 310 314 318 322 326 330 334 338 342 346 350 354 358 362 366 370 374 378 382 386 390 394 398 402 406 410 414 418 422 426 430 434 438 442 446 450 454 458 462 466 470 474 478 482 486 490 494 498 502 506 510 514 518 522 526 530 534 538 542 546 550 554 558 562 566 570 574 578 582 586 590 594 598 602 606 610 614 618 622 626 630 634 638 642 646 650 654 658 662 666 670 674 678 682 686 690 694 698 702 706 710 714 718 722 726 730 734 738 742 746 750 754 758 762 766 770 774 778 782 786 790 794 798 802 806 810 814 818 822 826 830 834 838 842 846 850 854 858 862 866 0
-872 3 7 11 15 19 23 27 31 35 39 43 47 51 55 59 63 67 71 75 79 83 87 91 95 99 103 107 111 115 119 123 127 131 135 139 143 147 151 155 159 163 167 171 175 179 183 187 191 195 199 203 207 211 215 219 223 227 231 235 239 243 247 251 255 259 263 267 271 275 279 283 287 291 295 299 303 307 311 315 319 323 327 331 335 339 343 347 351 355 359 363 367 371 375 379 383 387 391 395 399 403 407 411 415 419 423 427 431 435 439 443 447 451 455 459 463 467 471 475 479 483 487 491 495 499 503 507 511 515 519 523 527 531 535 539 543 547 551 555 559 563 567 571 575 579 583 587 591 595 599 603 607 611 615 619 623 627 631 635 639 643 647 651 655 659 663 667 671 675 679 683 687 691 695 699 703 707 711 715 719 723 727 731 735 739 743 747 751 755 759 763 767 771 775 779 783 787 791 795 799 803 807 811 815 819 823 827 831 835 839 843 847 851 855 859 863 867 0
-874 1 5 9 13 17 21 25 29 33 37 41 45 49 53 57 61 65 69 73 77 81 85 89 93 97 101 105 109 113 117 121 125 129 133 137 141 145 149 153 157 161 165 169 173 177 181 185 189 193 197 201 205 209 213 217 221 225 229 233 237 241 245 249 253 257 261 265 269 273 277 281 285 289 293 297 301 305 309 313 317 321 325 329 333 337 341 345 349 353 357 361 365 369 373 377 381 385 389 393 397 401 405 409 413 417 421 425 429 433 437 441 445 449 453 457 461 465 469 473 477 481 485 489 493 497 501 505 509 513 517 521 525 529 533 537 541 545 549 553 557 561 565 569 573 577 581 585 589 593 597 601 605 609 613 617 621 625 629 633 637 641 645 649 653 657 661 665 669 673 677 681 685 689 693 697 701 705 709 713 717 721 725 729 733 737 741 745 749 753 757 761 765 769 773 777 781 785 789 793 797 801 805 809 813 817 821 825 829 833 837 841 845 849 853 857 861 865 869 0
-875 2 6 10 14 18 22 26 30 34 38 42 46 50 54 58 62 66 70 74 78 82 86 90 94 98 102 106 110 114 118 122 126 130 134 138 142 146 150 154 158 162 166 170 174 178 182 186 190 194 198 202 206 210 214 218 222 226 230 234 238 242 246 250 254 258 262 266 270 274 278 282 286 290 294 298 302 306 310 314 318 322 326 330 334 338 342 346 350 354 358 362 366 370 374 378 382 386 390 394 398 402 406 410 414 418 422 426 430 434 438 442 446 450 454 458 462 466 470 474 478 482 486 490 494 498 502 506 510 514 518 522 526 530 534 538 542 546 550 554 558 562 566 570 574 578 582 586 590 594 598 602 606 610 614 618 622 626 630 634 638 642 646 650 654 658 662 666 670 674 678 682 686 690 694 698 702 706 710 714 718 722 726 730 734 738 742 746 750 754 758 762 766 770 774 778 782 786 790 794 798 802 806 810 814 818 822 826 830 834 838 842 846 850 854 858 862 866 870 0
-876 3 7 11 15 19 23 27 31 35 39 43 47 51 55 59 63 67 71 75 79 83 87 91 95 99 103 107 111 115 119 123 127 131 135 139 143 147 151 155 159 163 167 171 175 179 183 187 191 195 199 203 207 211 215 219 223 227 231 235 239 243 247 251 255 259 263 267 271 275 279 283 287 291 295 299 303 307 311 315 319 323 327 331 335 339 343 347 351 355 359 363 367 371 375 379 383 387 391 395 399 403 407 411 415 419 423 427 431 435 439 443 447 451 455 459 463 467 471 475 479 483 487 491 495 499 503 507 511 515 519 523 527 531 535 539 543 547 551 555 559 563 567 571 575 579 583 587 591 595 599 603 607 611 615 619 623 627 631 635 639 643 647 651 655 659 663 667 671 675 679 683 687 691 695 699 703 707 711 715 719 723 727 731 735 739 743 747 751 755 759 763 767 771 775 779 783 787 791 795 799 803 807 811 815 819 823 827 831 835 839 843 847 851 855 859 863 867 871 0
-878 1 5 9 13 17 21 25 29 33 37 41 45 49 53 57 61 65 69 73 77 81 85 89 93 97 101 105 109 113 117 121 125 129 133 137 141 145 149 153 157 161 165 169 173 177 181 185 189 193 197 201 205 209 213 217 221 225 229 233 237 241 245 249 253 257 261 265 269 273 277 281 285 289 293 297 301 305 309 313 317 321 325 329 333 337 341 345 349 353 357 361 365 369 373 377 381 385 389 393 397 401 405 409 413 417 421 425 429 433 437 441 445 449 453 457 461 465 469 473 477 481 485 489 493 497 501 505 509 513 517 521 525 529 533 537 541 545 549 553 557 561 565 569 573 577 581 585 589 593 597 601 605 609 613 617 621 625 629 633 637 641 645 649 653 657 661 665 669 673 677 681 685 689 693 697 701 705 709 713 717 721 725 729 733 737 741 745 749 753 757 761 765 769 773 777 781 785 789 793 797 801 805 809 813 817 821 825 829 833 837 841 845 849 853 857 861 865 869 873 0
-879 2 6 10 14 18 22 26 30 34 38 42 46 50 54 58 62 66 70 74 78 82 86 90 94 98 102 106 110 114 118 122 126 130 134 138 142 146 150 154 158 162 166 170 174 178 182 186 190 194 198 202 206 210 214 218 222 226 230 234 238 242 246 250 254 258 262 266 270 274 278 282 286 290 294 298 302 306 310 314 318 322 326 330 334 338 342 346 350 354 358 362 366 370 374 378 382 386 390 394 398 402 406 410 414 418 422 426 430 434 438 442 446 450 454 458 462 466 470 474 478 482 486 490 494 498 502 506 510 514 518 522 526 530 534 538 542 546 550 554 558 562 566 570 574 578 582 586 590 594 598 602 606 610 614 618 622 626 630 634 638 642 646 650 654 658 662 666 670 674 678 682 686 690 694 698 702 706 710 714 718 722 726 730 734 738 742 746 750 754 758 762 766 770 774 778 782 786 790 794 798 802 806 810 814 818 822 826 830 834 838 842 846 850 854 858 862 866 870 874 0
-880 3 7 11 15 19 23 27 31 35 39 43 47 51 55 59 63 67 71 75 79 83 87 91 95 99 103 107 111 115 119 123 127 131 135 139 143 147 151 155 159 163 167 171 175 179 183 187 191 195 199 203 207 211 215 219 223 227 231 235 239 243 247 251 255 259 263 267 271 275 279 283 287 291 295 299 303 307 311 315 319 323 327 331 335 339 343 347 351 355 359 363 367 371 375 379 383 387 391 395 399 403 407 411 415 419 423 427 431 435 439 443 447 451 455 459 463 467 471 475 479 483 487 491 495 499 503 507 511 515 519 523 527 531 535 539 543 547 551 555 559 563 567 571 575 579 583 587 591 595 599 603 607 611 615 619 623 627 631 635 639 643 647 651 655 659 663 667 671 675 679 683 687 691 695 699 703 707 711 715 719 723 727 731 735 739 743 747 751 755 759 763 767 771 775 779 783 787 791 795 799 803 807 811 815 819 823 827 831 835 839 843 847 851 855 859 863 867 871 875 0
-882 1 5 9 13 17 21 25 29 33 37 41 45 49 53 57 61 65 69 73 77 81 85 89 93 97 101 105 109 113 117 121 125 129 133 137 141 145 149 153 157 161 165 169 173 177 181 185 189 193 197 201 205 209 213 217 221 225 229 233 237 241 245 249 253 257 261 265 269 273 277 281 285 289 293 297 301 305 309 313 317 321 325 329 333 337 341 345 349 353 357 361 365 369 373 377 381 385 389 393 397 401 405 409 413 417 421 425 429 433 437 441 445 449 453 457 461 465 469 473 477 481 485 489 493 497 501 505 509 513 517 521 525 529 533 537 541 545 549 553 557 561 565 569 573 577 581 585 589 593 597 601 605 609 613 617 621 625 629 633 637 641 645 649 653 657 661 665 669 673 677 681 685 689 693 697 701 705 709 713 717 721 725 729 733 737 741 745 749 753 757 761 765 769 773 777 781 785 789 793 797 801 805 809 813 817 821 825 829 833 837 841 845 849 853 857 861 865 869 873 877 0
-883 2 6 10 14 18 22 26 30 34 38 42 46 50 54 58 62 66 70 74 78 82 86 90 94 98 102 106 110 114 118 122 126 130 134 138 142 146 150 154 158 162 166 170 174 178 182 186 190 194 198 202 206 210 214 218 222 226 230 234 238 242 246 250 254 258 262 266 270 274 278 282 286 290 294 298 302 306 310 314 318 322 326 330 334 338 342 346 350 354 358 362 366 370 374 378 382 386 390 394 398 402 406 410 414 418 422 426 430 434 438 442 446 450 454 458 462 466 470 474 478 482 486 490 494 498 502 506 510 514 518 522 526 530 534 538 542 546 550 554 558 562 566 570 574 578 582 586 590 594 598 602 606 610 614 618 622 626 630 634 638 642 646 650 654 658 662 666 670 674 678 682 686 690 694 698 702 706 710 714 718 722 726 730 734 738 742 746 750 754 758 762 766 770 774 778 782 786 790 794 798 802 806 810 814 818 822 826 830 834 838 842 846 850 854 858 862 866 870 874 878 0
-884 3 7 11 15 19 23 27 31 35 39 43 47 51 55 59 63 67 71 75 79 83 87 91 95 99 103 107 111 115 119 123 127 131 135 139 143 147 151 155 159 163 167 171 175 179 183 187 191 195 199 203 207 211 215 219 223 227 231 235 239 243 247 251 255 259 263 267 271 275 279 283 287 291 295 299 303 307 311 315 319 323 327 331 335 339 343 347 351 355 359 363 367 371 375 379 383 387 391 395 399 403 407 411 415 419 423 427 431 435 439 443 447 451 455 459 463 467 471 475 479 483 487 491 495 499 503 507 511 515 519 523 527 531 535 539 543 547 551 555 559 563 567 571 575 579 583 587 591 595 599 603 607 611 615 619 623 627 631 635 639 643 647 651 655 659 663 667 671 675 679 683 687 691 695 699 703 707 711 715 719 723 727 731 735 739 743 747 751 755 759 763 767 771 775 779 783 787 791 795 799 803 807 811 815 819 823 827 831 835 839 843 847 851 855 859 863 867 871 875 879 0
-886 1 5 9 13 17 21 25 29 33 37 41 45 49 53 57 61 65 69 73 77 81 85 89 93 97 101 105 109 113 117 121 125 129 133 137 141 145 149 153 157 161 165 169 173 177 181 185 189 193 197 201 205 209 213 217 221 225 229 233 237 241 245 249 253 257 261 265 269 273 277 281 285 289 293 297 301 305 309 313 317 321 325 329 333 337 341 345 349 353 357 361 365 369 373 377 381 385 389 393 397 401 405 409 413 417 421 425 429 433 437 441 445 449 453 457 461 465 469 473 477 481 485 489 493 497 501 505 509 513 517 521 525 529 533 537 541 545 549 553 557 561 565 569 573 577 581 585 589 593 597 601 605 609 613 617 621 625 629 633 637 641 645 649 653 657 661 665 669 673 677 681 685 689 693 697 701 705 709 713 717 721 725 729 733 737 741 745 749 753 757 761 765 769 773 777 781 785 789 793 797 801 805 809 813 817 821 825 829 833 837 841 845 849 853 857 861 865 869 873 877 881 0
-887 2 6 10 14 18 22 26 30 34 38 42 46 50 54 58 62 66 70 74 78 82 86 90 94 98 102 106 110 114 118 122 126 130 134 138 142 146 150 154 158 162 166 170 174 178 182 186 190 194 198 202 206 210 214 218 222 226 230 234 238 242 246 250 254 258 262 266 270 274 278 282 286 290 294 298 302 306 310 314 318 322 326 330 334 338 342 346 350 354 358 362 366 370 374 378 382 386 390 394 398 402 406 410 414 418 422 426 430 434 438 442 446 450 454 458 462 466 470 474 478 482 486 490 494 498 502 506 510 514 518 522 526 530 534 538 542 546 550 554 558 562 566 570 574 578 582 586 590 594 598 602 606 610 614 618 622 626 630 634 638 642 646 650 654 658 662 666 670 674 678 682 686 690 694 698 702 706 710 714 718 722 726 730 734 738 742 746 750 754 758 762 766 770 774 778 782 786 790 794 798 802 806 810 814 818 822 826 830 834 838 842 846 850 854 858 862 866 870 874 878 882 0
-888 3 7 11 15 19 23 27 31 35 39 43 47 51 55 59 63 67 71 75 79 83 87 91 95 99 103 107 111 115 119 123 127 131 135 139 143 147 151 155 159 163 167 171 175 179 183 187 191 195 199 203 207 211 215 219 223 227 231 235 239 243 247 251 255 259 263 267 271 275 279 283 287 291 295 299 303 307 311 315 319 323 327 331 335 339 343 347 351 355 359 363 367 371 375 379 383 387 391 395 399 403 407 411 415 419 423 427 431 435 439 443 447 451 455 459 463 467 471 475 479 483 487 491 495 499 503 507 511 515 519 523 527 531 535 539 543 547 551 555 559 563 567 571 575 579 583 587 591 595 599 603 607 611 615 619 623 627 631 635 639 643 647 651 655 659 663 667 671 675 679 683 687 691 695 699 703 707 711 715 719 723 727 731 735 739 743 747 751 755 759 763 767 771 775 779 783 787 791 795 799 803 807 811 815 819 823 827 831 835 839 843 847 851 855 859 863 867 871 875 879 883 0
-890 1 5 9 13 17 21 25 29 33 37 41 45 49 53 57 61 65 69 73 77 81 85 89 93 97 101 105 109 113 117 121 125 129 133 137 141 145 149 153 157 161 165 169 173 177 181 185 189 193 197 201 205 209 213 217 221 225 229 233 237 241 245 249 253 257 261 265 269 273 277 281 285 289 293 297 301 305 309 313 317 321 325 329 333 337 341 345 349 353 357 361 365 369 373 377 381 385 389 393 397 401 405 409 413 417 421 425 429 433 437 441 445 449 453 457 461 465 469 473 477 481 485 489 493 497 501 505 509 513 517 521 525 529 533 537 541 545 549 553 557 561 565 569 573 577 581 585 589 593 597 601 605 609 613 617 621 625 629 633 637 641 645 649 653 657 661 665 669 673 677 681 685 689 693 697 701 705 709 713 717 721 725 729 733 737 741 745 749 753 757 761 765 769 773 777 781 785 789 793 797 801 805 809 813 817 821 825 829 833 837 841 845 849 853 857 861 865 869 873 877 881 885 0
-891 2 6 10 14 18 22 26 30 34 38 42 46 50 54 58 62 66 70 74 78 82 86 90 94 98 102 106 110 114 118 122 126 130 134 138 142 146 150 154 158 162 166 170 174 178 182 186 190 194 198 202 206 210 214 218 222 226 230 234 238 242 246 250 254 258 262 266 270 274 278 282 286 290 294 298 302 306 310 314 318 322 326 330 334 338 342 346 350 354 358 362 366 370 374 378 382 386 390 394 398 402 406 410 414 418 422 426 430 434 438 442 446 450 454 458 462 466 470 474 478 482 486 490 494 498 502 506 510 514 518 522 526 530 534 538 542 546 550 554 558 562 566 570 574 578 582 586 590 594 598 602 606 610 614 618 622 626 630 634 638 642 646 650 654 658 662 666 670 674 678 682 686 690 694 698 702 706 710 714 718 722 726 730 734 738 742 746 750 754 758 762 766 770 774 778 782 786 790 794 798 802 806 810 814 818 822 826 830 834 838 842 846 850 854 858 862 866 870 874 878 882 886 0
-892 3 7 11 15 19 23 27 31 35 39 43 47 51 55 59 63 67 71 75 79 83 87 91 95 99 103 107 111 115 119 123 127 131 135 139 143 147 151 155 159 163 167 171 175 179 183 187 191 195 199 203 207 211 215 219 223 227 231 235 239 243 247 251 255 259 263 267 271 275 279 283 287 291 295 299 303 307 311 315 319 323 327 331 335 339 343 347 351 355 359 363 367 371 375 379 383 387 391 395 399 403 407 411 415 419 423 427 431 435 439 443 447 451 455 459 463 467 471 475 479 483 487 491 495 499 503 507 511 515 519 523 527 531 535 539 543 547 551 555 559 563 567 571 575 579 583 587 591 595 599 603 607 611 615 619 623 627 631 635 639 643 647 651 655 659 663 667 671 675 679 683 687 691 695 699 703 707 711 715 719 723 727 731 735 739 743 747 751 755 759 763 767 771 775 779 783 787 791 795 799 803 807 811 815 819 823 827 831 835 839 843 847 851 855 859 863 867 871 875 879 883 887 0
-894 1 5 9 13 17 21 25 29 33 37 41 45 49 53 57 61 65 69 73 77 81 85 89 93 97 101 105 109 113 117 121 125 129 133 137 141 145 149 153 157 161 165 169 173 177 181 185 189 193 197 201 205 209 213 217 221 225 229 233 237 241 245 249 253 257 261 265 269 273 277 281 285 289 293 297 301 305 309 313 317 321 325 329 333 337 341 345 349 353 357 361 365 369 373 377 381 385 389 393 397 401 405 409 413 417 421 425 429 433 437 441 445 449 453 457 461 465 469 473 477 481 485 489 493 497 501 505 509 513 517 521 525 529 533 537 541 545 549 553 557 561 565 569 573 577 581 585 589 593 597 601 605 609 613 617 621 625 629 633 637 641 645 649 653 657 661 665 669 673 677 681 685 689 693 697 701 705 709 713 717 721 725 729 733 737 741 745 749 753 757 761 765 769 773 777 781 785 789 793 797 801 805 809 813 817 821 825 829 833 837 841 845 849 853 857 861 865 869 873 877 881 885 889 0
-895 2 6 10 14 18 22 26 30 34 38 42 46 50 54 58 62 66 70 74 78 82 86 90 94 98 102 106 110 114 118 122 126 130 134 138 142 146 150 154 158 162 166 170 174 178 182 186 190 194 198 202 206 210 214 218 222 226 230 234 238 242 246 250 254 258 262 266 270 274 278 282 286 290 294 298 302 306 310 314 318 322 326 330 334 338 342 346 350 354 358 362 366 370 374 378 382 386 390 394 398 402 406 410 414 418 422 426 430 434 438 442 446 450 454 458 462 466 470 474 478 482 486 490 494 498 502 506 510 514 518 522 526 530 534 538 542 546 550 554 558 562 566 570 574 578 582 586 590 594 598 602 606 610 614 618 622 626 630 634 638 642 646 650 654 658 662 666 670 674 678 682 686 690 694 698 702 706 710 714 718 722 726 730 734 738 742 746 750 754 758 762 766 770 774 778 782 786 790 794 798 802 806 810 814 818 822 826 830 834 838 842 846 850 854 858 862 866 870 874 878 882 886 890 0
-896 3 7 11 15 19 23 27 31 35 39 43 47 51 55 59 63 67 71 75 79 83 87 91 95 99 103 107 111 115 119 123 127 131 135 139 143 147 151 155 159 163 167 171 175 179 183 187 191 195 199 203 207 211 215 219 223 227 231 235 239 243 247 251 255 259 263 267 271 275 279 283 287 291 295 299 303 307 311 315 319 323 327 331 335 339 343 347 351 355 359 363 367 371 375 379 383 387 391 395 399 403 407 411 415 419 423 427 431 435 439 443 447 451 455 459 463 467 471 475 479 483 487 491 495 499 503 507 511 515 519 523 527 531 535 539 543 547 551 555 559 563 567 571 575 579 583 587 591 595 599 603 607 611 615 619 623 627 631 635 639 643 647 651 655 659 663 667 671 675 679 683 687 691 695 699 703 707 711 715 719 723 727 731 735 739 743 747 751 755 759 763 767 771 775 779 783 787 791 795 799 803 807 811 815 819 823 827 831 835 839 843 847 851 855 859 863 867 871 875 879 883 887 891 0
-898 1 5 9 13 17 21 25 29 33 37 41 45 49 53 57 61 65 69 73 77 81 85 89 93 97 101 105 109 113 117 121 125 129 133 137 141 145 149 153 157 161 165 169 173 177 181 185 189 193 197 201 205 209 213 217 221 225 229 233 237 241 245 249 253 257 261 265 269 273 277 281 285 289 293 297 301 305 309 313 317 321 325 329 333 337 341 345 349 353 357 361 365 369 373 377 381 385 389 393 397 401 405 409 413 417 421 425 429 433 437 441 445 449 453 457 461 465 469 473 477 481 485 489 493 497 501 505 509 513 517 521 525 529 533 537 541 545 549 553 557 561 565 569 573 577 581 585 589 593 597 601 605 609 613 617 621 625 629 633 637 641 645 649 653 657 661 665 669 673 677 681 685 689 693 697 701 705 709 713 717 721 725 729 733 737 741 745 749 753 757 761 765 769 773 777 781 785 789 793 797 801 805 809 813 817 821 825 829 833 837 841 845 849 853 857 861 865 869 873 877 881 885 889 893 0
-899 2 6 10 14 18 22 26 30 34 38 42 46 50 54 58 62 66 70 74 78 82 86 90 94 98 102 106 110 114 118 122 126 130 134 138 142 146 150 154 158 162 166 170 174 178 182 186 190 194 198 202 206 210 214 218 222 226 230 234 238 242 246 250 254 258 262 266 270 274 278 282 286 290 294 298 302 306 310 314 318 322 326 330 334 338 342 346 350 354 358 362 366 370 374 378 382 386 390 394 398 402 406 410 414 418 422 426 430 434 438 442 446 450 454 458 462 466 470 474 478 482 486 490 494 498 502 506 510 514 518 522 526 530 534 538 542 546 550 554 558 562 566 570 574 578 582 586 590 594 598 602 606 610 614 618 622 626 630 634 638 642 646 650 654 658 662 666 670 674 678 682 686 690 694 698 702 706 710 714 718 722 726 730 734 738 742 746 750 754 758 762 766 770 774 778 782 786 790 794 798 802 806 810 814 818 822 826 830 834 838 842 846 850 854 858 862 866 870 874 878 882 886 890 894 0
-900 3 7 11 15 19 23 27 31 35 39 43 47 51 55 59 63 67 71 75 79 83 87 91 95 99 103 107 111 115 119 123 127 131 135 139 143 147 151 155 159 163 167 171 175 179 183 187 191 195 199 203 207 211 215 219 223 227 231 235 239 243 247 251 255 259 263 267 271 275 279 283 287 291 295 299 303 307 311 315 319 323 327 331 335 339 343 347 351 355 359 363 367 371 375 379 383 387 391 395 399 403 407 411 415 419 423 427 431 435 439 443 447 451 455 459 463 467 471 475 479 483 487 491 495 499 503 507 511 515 519 523 527 531 535 539 543 547 551 555 559 563 567 571 575 579 583 587 591 595 599 603 607 611 615 619 623 627 631 635 639 643 647 651 655 659 663 667 671 675 679 683 687 691 695 699 703 707 711 715 719 723 727 731 735 739 743 747 751 755 759 763 767 771 775 779 783 787 791 795 799 803 807 811 815 819 823 827 831 835 839 843 847 851 855 859 863 867 871 875 879 883 887 891 895 0
-902 1 5 9 13 17 21 25 29 33 37 41 45 49 53 57 61 65 69 73 77 81 85 89 93 97 101 105 109 113 117 121 125 129 133 137 141 145 149 153 157 161 165 169 173 177 181 185 189 193 197 201 205 209 213 217 221 225 229 233 237 241 245 249 253 257 261 265 269 273 277 281 285 289 293 297 301 305 309 313 317 321 325 329 333 337 341 345 349 353 357 361 365 369 373 377 381 385 389 393 397 401 405 409 413 417 421 425 429 433 437 441 445 449 453 457 461 465 469 473 477 481 485 489 493 497 501 505 509 513 517 521 525 529 533 537 541 545 549 553 557 561 565 569 573 577 581 585 589 593 597 601 605 609 613 617 621 625 629 633 637 641 645 649 653 657 661 665 669 673 677 681 685 689 693 697 701 705 709 713 717 721 725 729 733 737 741 745 749 753 757 761 765 769 773 777 781 785 789 793 797 801 805 809 813 817 821 825 829 833 837 841 845 849 853 857 861 865 869 873 877 881 885 889 893 897 0
-903 2 6 10 14 18 22 26 30 34 38 42 46 50 54 58 62 66 70 74 78 82 86 90 94 98 102 106 110 114 118 122 126 130 134 138 142 146 150 154 158 162 166 170 174 178 182 186 190 194 198 202 206 210 214 218 222 226 230 234 238 242 246 250 254 258 262 266 270 274 278 282 286 290 294 298 302 306 310 314 318 322 326 330 334 338 342 346 350 354 358 362 366 370 374 378 382 386 390 394 398 402 406 410 414 418 422 426 430 434 438 442 446 450 454 458 462 466 470 474 478 482 486 490 494 498 502 506 510 514 518 522 526 530 534 538 542 546 550 554 558 562 566 570 574 578 582 586 590 594 598 602 606 610 614 618 622 626 630 634 638 642 646 650 654 658 662 666 670 674 678 682 686 690 694 698 702 706 710 714 718 722 726 730 734 738 742 746 750 754 758 762 766 770 774 778 782 786 790 794 798 802 806 810 814 818 822 826 830 834 838 842 846 850 854 858 862 866 870 874 878 882 886 890 894 898 0
-904 3 7 11 15 19 23 27 31 35 39 43 47 51 55 59 63 67 71 75 79 83 87 91 95 99 103 107 111 115 119 123 127 131 135 139 143 147 151 155 159 163 167 171 175 179 183 187 191 195 199 203 207 211 215 219 223 227 231 235 239 243 247 251 255 259 263 267 271 275 279 283 287 291 295 299 303 307 311 315 319 323 327 331 335 339 343 347 351 355 359 363 367 371 375 379 383 387 391 395 399 403 407 411 415 419 423 427 431 435 439 443 447 451 455 459 463 467 471 475 479 483 487 491 495 499 503 507 511 515 519 523 527 531 535 539 543 547 551 555 559 563 567 571 575 579 583 587 591 595 599 603 607 611 615 619 623 627 631 635 639 643 647 651 655 659 663 667 671 675 679 683 687 691 695 699 703 707 711 715 719 723 727 731 735 739 743 747 751 755 759 763 767 771 775 779 783 787 791 795 799 803 807 811 815 819 823 827 831 835 839 843 847 851 855 859 863 867 871 875 879 883 887 891 895 899 0
