p cnf 356 8278
1 2 0
3 4 0
5 6 0
7 8 0
9 10 0
11 12 0
13 14 0
15 16 0
17 18 0
19 20 0
21 22 0
23 24 0
25 26 0
27 28 0
29 30 0
31 32 0
33 34 0
35 36 0
37 38 0
39 40 0
41 42 0
43 44 0
45 46 0
47 48 0
49 50 0
51 52 0
53 54 0
55 56 0
57 58 0
59 60 0
61 62 0
63 64 0
65 66 0
67 68 0
69 70 0
71 72 0
73 74 0
75 76 0
77 78 0
79 80 0
81 82 0
83 84 0
85 86 0
87 88 0
89 90 0
91 92 0
93 94 0
95 96 0
97 98 0
99 100 0
101 102 0
103 104 0
105 106 0
107 108 0
109 110 0
111 112 0
113 114 0
115 116 0
117 118 0
119 120 0
121 122 0
123 124 0
125 126 0
127 128 0
129 130 0
131 132 0
133 134 0
135 136 0
137 138 0
139 140 0
141 142 0
143 144 0
145 146 0
147 148 0
149 150 0
151 152 0
153 154 0
155 156 0
157 158 0
159 160 0
161 162 0
163 164 0
165 166 0
167 168 0
169 170 0
171 172 0
173 174 0
175 176 0
177 178 0
179 180 0
181 182 0
183 184 0
185 186 0
187 188 0
189 190 0
191 192 0
193 194 0
195 196 0
197 198 0
199 200 0
201 202 0
203 204 0
205 206 0
207 208 0
209 210 0
211 212 0
213 214 0
215 216 0
217 218 0
219 220 0
221 222 0
223 224 0
225 226 0
227 228 0
229 230 0
231 232 0
233 234 0
235 236 0
237 238 0
239 240 0
241 242 0
243 244 0
245 246 0
247 248 0
249 250 0
251 252 0
253 254 0
255 256 0
257 258 0
259 260 0
261 262 0
263 264 0
265 266 0
267 268 0
269 270 0
271 272 0
273 274 0
275 276 0
277 278 0
279 280 0
281 282 0
283 284 0
285 286 0
287 288 0
289 290 0
291 292 0
293 294 0
295 296 0
297 298 0
299 300 0
301 302 0
303 304 0
305 306 0
307 308 0
309 310 0
311 312 0
313 314 0
315 316 0
317 318 0
319 320 0
321 322 0
323 324 0
325 326 0
327 328 0
329 330 0
331 332 0
333 334 0
335 336 0
337 338 0
339 340 0
341 342 0
343 344 0
345 346 0
347 348 0
349 350 0
351 352 0
353 354 0
355 356 0
-1 -3 -5 -7 -9 0
-2 -4 -6 -8 -10 0
-3 -5 -7 -9 -11 0
-4 -6 -8 -10 -12 0
-5 -7 -9 -11 -13 0
-6 -8 -10 -12 -14 0
-7 -9 -11 -13 -15 0
-8 -10 -12 -14 -16 0
-9 -11 -13 -15 -17 0
-10 -12 -14 -16 -18 0
-11 -13 -15 -17 -19 0
-12 -14 -16 -18 -20 0
-13 -15 -17 -19 -21 0
-14 -16 -18 -20 -22 0
-15 -17 -19 -21 -23 0
-16 -18 -20 -22 -24 0
-17 -19 -21 -23 -25 0
-18 -20 -22 -24 -26 0
-19 -21 -23 -25 -27 0
-20 -22 -24 -26 -28 0
-21 -23 -25 -27 -29 0
-22 -24 -26 -28 -30 0
-23 -25 -27 -29 -31 0
-24 -26 -28 -30 -32 0
-25 -27 -29 -31 -33 0
-26 -28 -30 -32 -34 0
-27 -29 -31 -33 -35 0
-28 -30 -32 -34 -36 0
-29 -31 -33 -35 -37 0
-30 -32 -34 -36 -38 0
-31 -33 -35 -37 -39 0
-32 -34 -36 -38 -40 0
-33 -35 -37 -39 -41 0
-34 -36 -38 -40 -42 0
-35 -37 -39 -41 -43 0
-36 -38 -40 -42 -44 0
-37 -39 -41 -43 -45 0
-38 -40 -42 -44 -46 0
-39 -41 -43 -45 -47 0
-40 -42 -44 -46 -48 0
-41 -43 -45 -47 -49 0
-42 -44 -46 -48 -50 0
-43 -45 -47 -49 -51 0
-44 -46 -48 -50 -52 0
-45 -47 -49 -51 -53 0
-46 -48 -50 -52 -54 0
-47 -49 -51 -53 -55 0
-48 -50 -52 -54 -56 0
-49 -51 -53 -55 -57 0
-50 -52 -54 -56 -58 0
-51 -53 -55 -57 -59 0
-52 -54 -56 -58 -60 0
-53 -55 -57 -59 -61 0
-54 -56 -58 -60 -62 0
-55 -57 -59 -61 -63 0
-56 -58 -60 -62 -64 0
-57 -59 -61 -63 -65 0
-58 -60 -62 -64 -66 0
-59 -61 -63 -65 -67 0
-60 -62 -64 -66 -68 0
-61 -63 -65 -67 -69 0
-62 -64 -66 -68 -70 0
-63 -65 -67 -69 -71 0
-64 -66 -68 -70 -72 0
-65 -67 -69 -71 -73 0
-66 -68 -70 -72 -74 0
-67 -69 -71 -73 -75 0
-68 -70 -72 -74 -76 0
-69 -71 -73 -75 -77 0
-70 -72 -74 -76 -78 0
-71 -73 -75 -77 -79 0
-72 -74 -76 -78 -80 0
-73 -75 -77 -79 -81 0
-74 -76 -78 -80 -82 0
-75 -77 -79 -81 -83 0
-76 -78 -80 -82 -84 0
-77 -79 -81 -83 -85 0
-78 -80 -82 -84 -86 0
-79 -81 -83 -85 -87 0
-80 -82 -84 -86 -88 0
-81 -83 -85 -87 -89 0
-82 -84 -86 -88 -90 0
-83 -85 -87 -89 -91 0
-84 -86 -88 -90 -92 0
-85 -87 -89 -91 -93 0
-86 -88 -90 -92 -94 0
-87 -89 -91 -93 -95 0
-88 -90 -92 -94 -96 0
-89 -91 -93 -95 -97 0
-90 -92 -94 -96 -98 0
-91 -93 -95 -97 -99 0
-92 -94 -96 -98 -100 0
-93 -95 -97 -99 -101 0
-94 -96 -98 -100 -102 0
-95 -97 -99 -101 -103 0
-96 -98 -100 -102 -104 0
-97 -99 -101 -103 -105 0
-98 -100 -102 -104 -106 0
-99 -101 -103 -105 -107 0
-100 -102 -104 -106 -108 0
-101 -103 -105 -107 -109 0
-102 -104 -106 -108 -110 0
-103 -105 -107 -109 -111 0
-104 -106 -108 -110 -112 0
-105 -107 -109 -111 -113 0
-106 -108 -110 -112 -114 0
-107 -109 -111 -113 -115 0
-108 -110 -112 -114 -116 0
-109 -111 -113 -115 -117 0
-110 -112 -114 -116 -118 0
-111 -113 -115 -117 -119 0
-112 -114 -116 -118 -120 0
-113 -115 -117 -119 -121 0
-114 -116 -118 -120 -122 0
-115 -117 -119 -121 -123 0
-116 -118 -120 -122 -124 0
-117 -119 -121 -123 -125 0
-118 -120 -122 -124 -126 0
-119 -121 -123 -125 -127 0
-120 -122 -124 -126 -128 0
-121 -123 -125 -127 -129 0
-122 -124 -126 -128 -130 0
-123 -125 -127 -129 -131 0
-124 -126 -128 -130 -132 0
-125 -127 -129 -131 -133 0
-126 -128 -130 -132 -134 0
-127 -129 -131 -133 -135 0
-128 -130 -132 -134 -136 0
-129 -131 -133 -135 -137 0
-130 -132 -134 -136 -138 0
-131 -133 -135 -137 -139 0
-132 -134 -136 -138 -140 0
-133 -135 -137 -139 -141 0
-134 -136 -138 -140 -142 0
-135 -137 -139 -141 -143 0
-136 -138 -140 -142 -144 0
-137 -139 -141 -143 -145 0
-138 -140 -142 -144 -146 0
-139 -141 -143 -145 -147 0
-140 -142 -144 -146 -148 0
-141 -143 -145 -147 -149 0
-142 -144 -146 -148 -150 0
-143 -145 -147 -149 -151 0
-144 -146 -148 -150 -152 0
-145 -147 -149 -151 -153 0
-146 -148 -150 -152 -154 0
-147 -149 -151 -153 -155 0
-148 -150 -152 -154 -156 0
-149 -151 -153 -155 -157 0
-150 -152 -154 -156 -158 0
-151 -153 -155 -157 -159 0
-152 -154 -156 -158 -160 0
-153 -155 -157 -159 -161 0
-154 -156 -158 -160 -162 0
-155 -157 -159 -161 -163 0
-156 -158 -160 -162 -164 0
-157 -159 -161 -163 -165 0
-158 -160 -162 -164 -166 0
-159 -161 -163 -165 -167 0
-160 -162 -164 -166 -168 0
-161 -163 -165 -167 -169 0
-162 -164 -166 -168 -170 0
-163 -165 -167 -169 -171 0
-164 -166 -168 -170 -172 0
-165 -167 -169 -171 -173 0
-166 -168 -170 -172 -174 0
-167 -169 -171 -173 -175 0
-168 -170 -172 -174 -176 0
-169 -171 -173 -175 -177 0
-170 -172 -174 -176 -178 0
-171 -173 -175 -177 -179 0
-172 -174 -176 -178 -180 0
-173 -175 -177 -179 -181 0
-174 -176 -178 -180 -182 0
-175 -177 -179 -181 -183 0
-176 -178 -180 -182 -184 0
-177 -179 -181 -183 -185 0
-178 -180 -182 -184 -186 0
-179 -181 -183 -185 -187 0
-180 -182 -184 -186 -188 0
-181 -183 -185 -187 -189 0
-182 -184 -186 -188 -190 0
-183 -185 -187 -189 -191 0
-184 -186 -188 -190 -192 0
-185 -187 -189 -191 -193 0
-186 -188 -190 -192 -194 0
-187 -189 -191 -193 -195 0
-188 -190 -192 -194 -196 0
-189 -191 -193 -195 -197 0
-190 -192 -194 -196 -198 0
-191 -193 -195 -197 -199 0
-192 -194 -196 -198 -200 0
-193 -195 -197 -199 -201 0
-194 -196 -198 -200 -202 0
-195 -197 -199 -201 -203 0
-196 -198 -200 -202 -204 0
-197 -199 -201 -203 -205 0
-198 -200 -202 -204 -206 0
-199 -201 -203 -205 -207 0
-200 -202 -204 -206 -208 0
-201 -203 -205 -207 -209 0
-202 -204 -206 -208 -210 0
-203 -205 -207 -209 -211 0
-204 -206 -208 -210 -212 0
-205 -207 -209 -211 -213 0
-206 -208 -210 -212 -214 0
-207 -209 -211 -213 -215 0
-208 -210 -212 -214 -216 0
-209 -211 -213 -215 -217 0
-210 -212 -214 -216 -218 0
-211 -213 -215 -217 -219 0
-212 -214 -216 -218 -220 0
-213 -215 -217 -219 -221 0
-214 -216 -218 -220 -222 0
-215 -217 -219 -221 -223 0
-216 -218 -220 -222 -224 0
-217 -219 -221 -223 -225 0
-218 -220 -222 -224 -226 0
-219 -221 -223 -225 -227 0
-220 -222 -224 -226 -228 0
-221 -223 -225 -227 -229 0
-222 -224 -226 -228 -230 0
-223 -225 -227 -229 -231 0
-224 -226 -228 -230 -232 0
-225 -227 -229 -231 -233 0
-226 -228 -230 -232 -234 0
-227 -229 -231 -233 -235 0
-228 -230 -232 -234 -236 0
-229 -231 -233 -235 -237 0
-230 -232 -234 -236 -238 0
-231 -233 -235 -237 -239 0
-232 -234 -236 -238 -240 0
-233 -235 -237 -239 -241 0
-234 -236 -238 -240 -242 0
-235 -237 -239 -241 -243 0
-236 -238 -240 -242 -244 0
-237 -239 -241 -243 -245 0
-238 -240 -242 -244 -246 0
-239 -241 -243 -245 -247 0
-240 -242 -244 -246 -248 0
-241 -243 -245 -247 -249 0
-242 -244 -246 -248 -250 0
-243 -245 -247 -249 -251 0
-244 -246 -248 -250 -252 0
-245 -247 -249 -251 -253 0
-246 -248 -250 -252 -254 0
-247 -249 -251 -253 -255 0
-248 -250 -252 -254 -256 0
-249 -251 -253 -255 -257 0
-250 -252 -254 -256 -258 0
-251 -253 -255 -257 -259 0
-252 -254 -256 -258 -260 0
-253 -255 -257 -259 -261 0
-254 -256 -258 -260 -262 0
-255 -257 -259 -261 -263 0
-256 -258 -260 -262 -264 0
-257 -259 -261 -263 -265 0
-258 -260 -262 -264 -266 0
-259 -261 -263 -265 -267 0
-260 -262 -264 -266 -268 0
-261 -263 -265 -267 -269 0
-262 -264 -266 -268 -270 0
-263 -265 -267 -269 -271 0
-264 -266 -268 -270 -272 0
-265 -267 -269 -271 -273 0
-266 -268 -270 -272 -274 0
-267 -269 -271 -273 -275 0
-268 -270 -272 -274 -276 0
-269 -271 -273 -275 -277 0
-270 -272 -274 -276 -278 0
-271 -273 -275 -277 -279 0
-272 -274 -276 -278 -280 0
-273 -275 -277 -279 -281 0
-274 -276 -278 -280 -282 0
-275 -277 -279 -281 -283 0
-276 -278 -280 -282 -284 0
-277 -279 -281 -283 -285 0
-278 -280 -282 -284 -286 0
-279 -281 -283 -285 -287 0
-280 -282 -284 -286 -288 0
-281 -283 -285 -287 -289 0
-282 -284 -286 -288 -290 0
-283 -285 -287 -289 -291 0
-284 -286 -288 -290 -292 0
-285 -287 -289 -291 -293 0
-286 -288 -290 -292 -294 0
-287 -289 -291 -293 -295 0
-288 -290 -292 -294 -296 0
-289 -291 -293 -295 -297 0
-290 -292 -294 -296 -298 0
-291 -293 -295 -297 -299 0
-292 -294 -296 -298 -300 0
-293 -295 -297 -299 -301 0
-294 -296 -298 -300 -302 0
-295 -297 -299 -301 -303 0
-296 -298 -300 -302 -304 0
-297 -299 -301 -303 -305 0
-298 -300 -302 -304 -306 0
-299 -301 -303 -305 -307 0
-300 -302 -304 -306 -308 0
-301 -303 -305 -307 -309 0
-302 -304 -306 -308 -310 0
-303 -305 -307 -309 -311 0
-304 -306 -308 -310 -312 0
-305 -307 -309 -311 -313 0
-306 -308 -310 -312 -314 0
-307 -309 -311 -313 -315 0
-308 -310 -312 -314 -316 0
-309 -311 -313 -315 -317 0
-310 -312 -314 -316 -318 0
-311 -313 -315 -317 -319 0
-312 -314 -316 -318 -320 0
-313 -315 -317 -319 -321 0
-314 -316 -318 -320 -322 0
-315 -317 -319 -321 -323 0
-316 -318 -320 -322 -324 0
-317 -319 -321 -323 -325 0
-318 -320 -322 -324 -326 0
-319 -321 -323 -325 -327 0
-320 -322 -324 -326 -328 0
-321 -323 -325 -327 -329 0
-322 -324 -326 -328 -330 0
-323 -325 -327 -329 -331 0
-324 -326 -328 -330 -332 0
-325 -327 -329 -331 -333 0
-326 -328 -330 -332 -334 0
-327 -329 -331 -333 -335 0
-328 -330 -332 -334 -336 0
-329 -331 -333 -335 -337 0
-330 -332 -334 -336 -338 0
-331 -333 -335 -337 -339 0
-332 -334 -336 -338 -340 0
-333 -335 -337 -339 -341 0
-334 -336 -338 -340 -342 0
-335 -337 -339 -341 -343 0
-336 -338 -340 -342 -344 0
-337 -339 -341 -343 -345 0
-338 -340 -342 -344 -346 0
-339 -341 -343 -345 -347 0
-340 -342 -344 -346 -348 0
-341 -343 -345 -347 -349 0
-342 -344 -346 -348 -350 0
-343 -345 -347 -349 -351 0
-344 -346 -348 -350 -352 0
-345 -347 -349 -351 -353 0
-346 -348 -350 -352 -354 0
-347 -349 -351 -353 -355 0
-348 -350 -352 -354 -356 0
-1 -5 -9 -13 -17 0
-2 -6 -10 -14 -18 0
-3 -7 -11 -15 -19 0
-4 -8 -12 -16 -20 0
-5 -9 -13 -17 -21 0
-6 -10 -14 -18 -22 0
-7 -11 -15 -19 -23 0
-8 -12 -16 -20 -24 0
-9 -13 -17 -21 -25 0
-10 -14 -18 -22 -26 0
-11 -15 -19 -23 -27 0
-12 -16 -20 -24 -28 0
-13 -17 -21 -25 -29 0
-14 -18 -22 -26 -30 0
-15 -19 -23 -27 -31 0
-16 -20 -24 -28 -32 0
-17 -21 -25 -29 -33 0
-18 -22 -26 -30 -34 0
-19 -23 -27 -31 -35 0
-20 -24 -28 -32 -36 0
-21 -25 -29 -33 -37 0
-22 -26 -30 -34 -38 0
-23 -27 -31 -35 -39 0
-24 -28 -32 -36 -40 0
-25 -29 -33 -37 -41 0
-26 -30 -34 -38 -42 0
-27 -31 -35 -39 -43 0
-28 -32 -36 -40 -44 0
-29 -33 -37 -41 -45 0
-30 -34 -38 -42 -46 0
-31 -35 -39 -43 -47 0
-32 -36 -40 -44 -48 0
-33 -37 -41 -45 -49 0
-34 -38 -42 -46 -50 0
-35 -39 -43 -47 -51 0
-36 -40 -44 -48 -52 0
-37 -41 -45 -49 -53 0
-38 -42 -46 -50 -54 0
-39 -43 -47 -51 -55 0
-40 -44 -48 -52 -56 0
-41 -45 -49 -53 -57 0
-42 -46 -50 -54 -58 0
-43 -47 -51 -55 -59 0
-44 -48 -52 -56 -60 0
-45 -49 -53 -57 -61 0
-46 -50 -54 -58 -62 0
-47 -51 -55 -59 -63 0
-48 -52 -56 -60 -64 0
-49 -53 -57 -61 -65 0
-50 -54 -58 -62 -66 0
-51 -55 -59 -63 -67 0
-52 -56 -60 -64 -68 0
-53 -57 -61 -65 -69 0
-54 -58 -62 -66 -70 0
-55 -59 -63 -67 -71 0
-56 -60 -64 -68 -72 0
-57 -61 -65 -69 -73 0
-58 -62 -66 -70 -74 0
-59 -63 -67 -71 -75 0
-60 -64 -68 -72 -76 0
-61 -65 -69 -73 -77 0
-62 -66 -70 -74 -78 0
-63 -67 -71 -75 -79 0
-64 -68 -72 -76 -80 0
-65 -69 -73 -77 -81 0
-66 -70 -74 -78 -82 0
-67 -71 -75 -79 -83 0
-68 -72 -76 -80 -84 0
-69 -73 -77 -81 -85 0
-70 -74 -78 -82 -86 0
-71 -75 -79 -83 -87 0
-72 -76 -80 -84 -88 0
-73 -77 -81 -85 -89 0
-74 -78 -82 -86 -90 0
-75 -79 -83 -87 -91 0
-76 -80 -84 -88 -92 0
-77 -81 -85 -89 -93 0
-78 -82 -86 -90 -94 0
-79 -83 -87 -91 -95 0
-80 -84 -88 -92 -96 0
-81 -85 -89 -93 -97 0
-82 -86 -90 -94 -98 0
-83 -87 -91 -95 -99 0
-84 -88 -92 -96 -100 0
-85 -89 -93 -97 -101 0
-86 -90 -94 -98 -102 0
-87 -91 -95 -99 -103 0
-88 -92 -96 -100 -104 0
-89 -93 -97 -101 -105 0
-90 -94 -98 -102 -106 0
-91 -95 -99 -103 -107 0
-92 -96 -100 -104 -108 0
-93 -97 -101 -105 -109 0
-94 -98 -102 -106 -110 0
-95 -99 -103 -107 -111 0
-96 -100 -104 -108 -112 0
-97 -101 -105 -109 -113 0
-98 -102 -106 -110 -114 0
-99 -103 -107 -111 -115 0
-100 -104 -108 -112 -116 0
-101 -105 -109 -113 -117 0
-102 -106 -110 -114 -118 0
-103 -107 -111 -115 -119 0
-104 -108 -112 -116 -120 0
-105 -109 -113 -117 -121 0
-106 -110 -114 -118 -122 0
-107 -111 -115 -119 -123 0
-108 -112 -116 -120 -124 0
-109 -113 -117 -121 -125 0
-110 -114 -118 -122 -126 0
-111 -115 -119 -123 -127 0
-112 -116 -120 -124 -128 0
-113 -117 -121 -125 -129 0
-114 -118 -122 -126 -130 0
-115 -119 -123 -127 -131 0
-116 -120 -124 -128 -132 0
-117 -121 -125 -129 -133 0
-118 -122 -126 -130 -134 0
-119 -123 -127 -131 -135 0
-120 -124 -128 -132 -136 0
-121 -125 -129 -133 -137 0
-122 -126 -130 -134 -138 0
-123 -127 -131 -135 -139 0
-124 -128 -132 -136 -140 0
-125 -129 -133 -137 -141 0
-126 -130 -134 -138 -142 0
-127 -131 -135 -139 -143 0
-128 -132 -136 -140 -144 0
-129 -133 -137 -141 -145 0
-130 -134 -138 -142 -146 0
-131 -135 -139 -143 -147 0
-132 -136 -140 -144 -148 0
-133 -137 -141 -145 -149 0
-134 -138 -142 -146 -150 0
-135 -139 -143 -147 -151 0
-136 -140 -144 -148 -152 0
-137 -141 -145 -149 -153 0
-138 -142 -146 -150 -154 0
-139 -143 -147 -151 -155 0
-140 -144 -148 -152 -156 0
-141 -145 -149 -153 -157 0
-142 -146 -150 -154 -158 0
-143 -147 -151 -155 -159 0
-144 -148 -152 -156 -160 0
-145 -149 -153 -157 -161 0
-146 -150 -154 -158 -162 0
-147 -151 -155 -159 -163 0
-148 -152 -156 -160 -164 0
-149 -153 -157 -161 -165 0
-150 -154 -158 -162 -166 0
-151 -155 -159 -163 -167 0
-152 -156 -160 -164 -168 0
-153 -157 -161 -165 -169 0
-154 -158 -162 -166 -170 0
-155 -159 -163 -167 -171 0
-156 -160 -164 -168 -172 0
-157 -161 -165 -169 -173 0
-158 -162 -166 -170 -174 0
-159 -163 -167 -171 -175 0
-160 -164 -168 -172 -176 0
-161 -165 -169 -173 -177 0
-162 -166 -170 -174 -178 0
-163 -167 -171 -175 -179 0
-164 -168 -172 -176 -180 0
-165 -169 -173 -177 -181 0
-166 -170 -174 -178 -182 0
-167 -171 -175 -179 -183 0
-168 -172 -176 -180 -184 0
-169 -173 -177 -181 -185 0
-170 -174 -178 -182 -186 0
-171 -175 -179 -183 -187 0
-172 -176 -180 -184 -188 0
-173 -177 -181 -185 -189 0
-174 -178 -182 -186 -190 0
-175 -179 -183 -187 -191 0
-176 -180 -184 -188 -192 0
-177 -181 -185 -189 -193 0
-178 -182 -186 -190 -194 0
-179 -183 -187 -191 -195 0
-180 -184 -188 -192 -196 0
-181 -185 -189 -193 -197 0
-182 -186 -190 -194 -198 0
-183 -187 -191 -195 -199 0
-184 -188 -192 -196 -200 0
-185 -189 -193 -197 -201 0
-186 -190 -194 -198 -202 0
-187 -191 -195 -199 -203 0
-188 -192 -196 -200 -204 0
-189 -193 -197 -201 -205 0
-190 -194 -198 -202 -206 0
-191 -195 -199 -203 -207 0
-192 -196 -200 -204 -208 0
-193 -197 -201 -205 -209 0
-194 -198 -202 -206 -210 0
-195 -199 -203 -207 -211 0
-196 -200 -204 -208 -212 0
-197 -201 -205 -209 -213 0
-198 -202 -206 -210 -214 0
-199 -203 -207 -211 -215 0
-200 -204 -208 -212 -216 0
-201 -205 -209 -213 -217 0
-202 -206 -210 -214 -218 0
-203 -207 -211 -215 -219 0
-204 -208 -212 -216 -220 0
-205 -209 -213 -217 -221 0
-206 -210 -214 -218 -222 0
-207 -211 -215 -219 -223 0
-208 -212 -216 -220 -224 0
-209 -213 -217 -221 -225 0
-210 -214 -218 -222 -226 0
-211 -215 -219 -223 -227 0
-212 -216 -220 -224 -228 0
-213 -217 -221 -225 -229 0
-214 -218 -222 -226 -230 0
-215 -219 -223 -227 -231 0
-216 -220 -224 -228 -232 0
-217 -221 -225 -229 -233 0
-218 -222 -226 -230 -234 0
-219 -223 -227 -231 -235 0
-220 -224 -228 -232 -236 0
-221 -225 -229 -233 -237 0
-222 -226 -230 -234 -238 0
-223 -227 -231 -235 -239 0
-224 -228 -232 -236 -240 0
-225 -229 -233 -237 -241 0
-226 -230 -234 -238 -242 0
-227 -231 -235 -239 -243 0
-228 -232 -236 -240 -244 0
-229 -233 -237 -241 -245 0
-230 -234 -238 -242 -246 0
-231 -235 -239 -243 -247 0
-232 -236 -240 -244 -248 0
-233 -237 -241 -245 -249 0
-234 -238 -242 -246 -250 0
-235 -239 -243 -247 -251 0
-236 -240 -244 -248 -252 0
-237 -241 -245 -249 -253 0
-238 -242 -246 -250 -254 0
-239 -243 -247 -251 -255 0
-240 -244 -248 -252 -256 0
-241 -245 -249 -253 -257 0
-242 -246 -250 -254 -258 0
-243 -247 -251 -255 -259 0
-244 -248 -252 -256 -260 0
-245 -249 -253 -257 -261 0
-246 -250 -254 -258 -262 0
-247 -251 -255 -259 -263 0
-248 -252 -256 -260 -264 0
-249 -253 -257 -261 -265 0
-250 -254 -258 -262 -266 0
-251 -255 -259 -263 -267 0
-252 -256 -260 -264 -268 0
-253 -257 -261 -265 -269 0
-254 -258 -262 -266 -270 0
-255 -259 -263 -267 -271 0
-256 -260 -264 -268 -272 0
-257 -261 -265 -269 -273 0
-258 -262 -266 -270 -274 0
-259 -263 -267 -271 -275 0
-260 -264 -268 -272 -276 0
-261 -265 -269 -273 -277 0
-262 -266 -270 -274 -278 0
-263 -267 -271 -275 -279 0
-264 -268 -272 -276 -280 0
-265 -269 -273 -277 -281 0
-266 -270 -274 -278 -282 0
-267 -271 -275 -279 -283 0
-268 -272 -276 -280 -284 0
-269 -273 -277 -281 -285 0
-270 -274 -278 -282 -286 0
-271 -275 -279 -283 -287 0
-272 -276 -280 -284 -288 0
-273 -277 -281 -285 -289 0
-274 -278 -282 -286 -290 0
-275 -279 -283 -287 -291 0
-276 -280 -284 -288 -292 0
-277 -281 -285 -289 -293 0
-278 -282 -286 -290 -294 0
-279 -283 -287 -291 -295 0
-280 -284 -288 -292 -296 0
-281 -285 -289 -293 -297 0
-282 -286 -290 -294 -298 0
-283 -287 -291 -295 -299 0
-284 -288 -292 -296 -300 0
-285 -289 -293 -297 -301 0
-286 -290 -294 -298 -302 0
-287 -291 -295 -299 -303 0
-288 -292 -296 -300 -304 0
-289 -293 -297 -301 -305 0
-290 -294 -298 -302 -306 0
-291 -295 -299 -303 -307 0
-292 -296 -300 -304 -308 0
-293 -297 -301 -305 -309 0
-294 -298 -302 -306 -310 0
-295 -299 -303 -307 -311 0
-296 -300 -304 -308 -312 0
-297 -301 -305 -309 -313 0
-298 -302 -306 -310 -314 0
-299 -303 -307 -311 -315 0
-300 -304 -308 -312 -316 0
-301 -305 -309 -313 -317 0
-302 -306 -310 -314 -318 0
-303 -307 -311 -315 -319 0
-304 -308 -312 -316 -320 0
-305 -309 -313 -317 -321 0
-306 -310 -314 -318 -322 0
-307 -311 -315 -319 -323 0
-308 -312 -316 -320 -324 0
-309 -313 -317 -321 -325 0
-310 -314 -318 -322 -326 0
-311 -315 -319 -323 -327 0
-312 -316 -320 -324 -328 0
-313 -317 -321 -325 -329 0
-314 -318 -322 -326 -330 0
-315 -319 -323 -327 -331 0
-316 -320 -324 -328 -332 0
-317 -321 -325 -329 -333 0
-318 -322 -326 -330 -334 0
-319 -323 -327 -331 -335 0
-320 -324 -328 -332 -336 0
-321 -325 -329 -333 -337 0
-322 -326 -330 -334 -338 0
-323 -327 -331 -335 -339 0
-324 -328 -332 -336 -340 0
-325 -329 -333 -337 -341 0
-326 -330 -334 -338 -342 0
-327 -331 -335 -339 -343 0
-328 -332 -336 -340 -344 0
-329 -333 -337 -341 -345 0
-330 -334 -338 -342 -346 0
-331 -335 -339 -343 -347 0
-332 -336 -340 -344 -348 0
-333 -337 -341 -345 -349 0
-334 -338 -342 -346 -350 0
-335 -339 -343 -347 -351 0
-336 -340 -344 -348 -352 0
-337 -341 -345 -349 -353 0
-338 -342 -346 -350 -354 0
-339 -343 -347 -351 -355 0
-340 -344 -348 -352 -356 0
-1 -7 -13 -19 -25 0
-2 -8 -14 -20 -26 0
-3 -9 -15 -21 -27 0
-4 -10 -16 -22 -28 0
-5 -11 -17 -23 -29 0
-6 -12 -18 -24 -30 0
-7 -13 -19 -25 -31 0
-8 -14 -20 -26 -32 0
-9 -15 -21 -27 -33 0
-10 -16 -22 -28 -34 0
-11 -17 -23 -29 -35 0
-12 -18 -24 -30 -36 0
-13 -19 -25 -31 -37 0
-14 -20 -26 -32 -38 0
-15 -21 -27 -33 -39 0
-16 -22 -28 -34 -40 0
-17 -23 -29 -35 -41 0
-18 -24 -30 -36 -42 0
-19 -25 -31 -37 -43 0
-20 -26 -32 -38 -44 0
-21 -27 -33 -39 -45 0
-22 -28 -34 -40 -46 0
-23 -29 -35 -41 -47 0
-24 -30 -36 -42 -48 0
-25 -31 -37 -43 -49 0
-26 -32 -38 -44 -50 0
-27 -33 -39 -45 -51 0
-28 -34 -40 -46 -52 0
-29 -35 -41 -47 -53 0
-30 -36 -42 -48 -54 0
-31 -37 -43 -49 -55 0
-32 -38 -44 -50 -56 0
-33 -39 -45 -51 -57 0
-34 -40 -46 -52 -58 0
-35 -41 -47 -53 -59 0
-36 -42 -48 -54 -60 0
-37 -43 -49 -55 -61 0
-38 -44 -50 -56 -62 0
-39 -45 -51 -57 -63 0
-40 -46 -52 -58 -64 0
-41 -47 -53 -59 -65 0
-42 -48 -54 -60 -66 0
-43 -49 -55 -61 -67 0
-44 -50 -56 -62 -68 0
-45 -51 -57 -63 -69 0
-46 -52 -58 -64 -70 0
-47 -53 -59 -65 -71 0
-48 -54 -60 -66 -72 0
-49 -55 -61 -67 -73 0
-50 -56 -62 -68 -74 0
-51 -57 -63 -69 -75 0
-52 -58 -64 -70 -76 0
-53 -59 -65 -71 -77 0
-54 -60 -66 -72 -78 0
-55 -61 -67 -73 -79 0
-56 -62 -68 -74 -80 0
-57 -63 -69 -75 -81 0
-58 -64 -70 -76 -82 0
-59 -65 -71 -77 -83 0
-60 -66 -72 -78 -84 0
-61 -67 -73 -79 -85 0
-62 -68 -74 -80 -86 0
-63 -69 -75 -81 -87 0
-64 -70 -76 -82 -88 0
-65 -71 -77 -83 -89 0
-66 -72 -78 -84 -90 0
-67 -73 -79 -85 -91 0
-68 -74 -80 -86 -92 0
-69 -75 -81 -87 -93 0
-70 -76 -82 -88 -94 0
-71 -77 -83 -89 -95 0
-72 -78 -84 -90 -96 0
-73 -79 -85 -91 -97 0
-74 -80 -86 -92 -98 0
-75 -81 -87 -93 -99 0
-76 -82 -88 -94 -100 0
-77 -83 -89 -95 -101 0
-78 -84 -90 -96 -102 0
-79 -85 -91 -97 -103 0
-80 -86 -92 -98 -104 0
-81 -87 -93 -99 -105 0
-82 -88 -94 -100 -106 0
-83 -89 -95 -101 -107 0
-84 -90 -96 -102 -108 0
-85 -91 -97 -103 -109 0
-86 -92 -98 -104 -110 0
-87 -93 -99 -105 -111 0
-88 -94 -100 -106 -112 0
-89 -95 -101 -107 -113 0
-90 -96 -102 -108 -114 0
-91 -97 -103 -109 -115 0
-92 -98 -104 -110 -116 0
-93 -99 -105 -111 -117 0
-94 -100 -106 -112 -118 0
-95 -101 -107 -113 -119 0
-96 -102 -108 -114 -120 0
-97 -103 -109 -115 -121 0
-98 -104 -110 -116 -122 0
-99 -105 -111 -117 -123 0
-100 -106 -112 -118 -124 0
-101 -107 -113 -119 -125 0
-102 -108 -114 -120 -126 0
-103 -109 -115 -121 -127 0
-104 -110 -116 -122 -128 0
-105 -111 -117 -123 -129 0
-106 -112 -118 -124 -130 0
-107 -113 -119 -125 -131 0
-108 -114 -120 -126 -132 0
-109 -115 -121 -127 -133 0
-110 -116 -122 -128 -134 0
-111 -117 -123 -129 -135 0
-112 -118 -124 -130 -136 0
-113 -119 -125 -131 -137 0
-114 -120 -126 -132 -138 0
-115 -121 -127 -133 -139 0
-116 -122 -128 -134 -140 0
-117 -123 -129 -135 -141 0
-118 -124 -130 -136 -142 0
-119 -125 -131 -137 -143 0
-120 -126 -132 -138 -144 0
-121 -127 -133 -139 -145 0
-122 -128 -134 -140 -146 0
-123 -129 -135 -141 -147 0
-124 -130 -136 -142 -148 0
-125 -131 -137 -143 -149 0
-126 -132 -138 -144 -150 0
-127 -133 -139 -145 -151 0
-128 -134 -140 -146 -152 0
-129 -135 -141 -147 -153 0
-130 -136 -142 -148 -154 0
-131 -137 -143 -149 -155 0
-132 -138 -144 -150 -156 0
-133 -139 -145 -151 -157 0
-134 -140 -146 -152 -158 0
-135 -141 -147 -153 -159 0
-136 -142 -148 -154 -160 0
-137 -143 -149 -155 -161 0
-138 -144 -150 -156 -162 0
-139 -145 -151 -157 -163 0
-140 -146 -152 -158 -164 0
-141 -147 -153 -159 -165 0
-142 -148 -154 -160 -166 0
-143 -149 -155 -161 -167 0
-144 -150 -156 -162 -168 0
-145 -151 -157 -163 -169 0
-146 -152 -158 -164 -170 0
-147 -153 -159 -165 -171 0
-148 -154 -160 -166 -172 0
-149 -155 -161 -167 -173 0
-150 -156 -162 -168 -174 0
-151 -157 -163 -169 -175 0
-152 -158 -164 -170 -176 0
-153 -159 -165 -171 -177 0
-154 -160 -166 -172 -178 0
-155 -161 -167 -173 -179 0
-156 -162 -168 -174 -180 0
-157 -163 -169 -175 -181 0
-158 -164 -170 -176 -182 0
-159 -165 -171 -177 -183 0
-160 -166 -172 -178 -184 0
-161 -167 -173 -179 -185 0
-162 -168 -174 -180 -186 0
-163 -169 -175 -181 -187 0
-164 -170 -176 -182 -188 0
-165 -171 -177 -183 -189 0
-166 -172 -178 -184 -190 0
-167 -173 -179 -185 -191 0
-168 -174 -180 -186 -192 0
-169 -175 -181 -187 -193 0
-170 -176 -182 -188 -194 0
-171 -177 -183 -189 -195 0
-172 -178 -184 -190 -196 0
-173 -179 -185 -191 -197 0
-174 -180 -186 -192 -198 0
-175 -181 -187 -193 -199 0
-176 -182 -188 -194 -200 0
-177 -183 -189 -195 -201 0
-178 -184 -190 -196 -202 0
-179 -185 -191 -197 -203 0
-180 -186 -192 -198 -204 0
-181 -187 -193 -199 -205 0
-182 -188 -194 -200 -206 0
-183 -189 -195 -201 -207 0
-184 -190 -196 -202 -208 0
-185 -191 -197 -203 -209 0
-186 -192 -198 -204 -210 0
-187 -193 -199 -205 -211 0
-188 -194 -200 -206 -212 0
-189 -195 -201 -207 -213 0
-190 -196 -202 -208 -214 0
-191 -197 -203 -209 -215 0
-192 -198 -204 -210 -216 0
-193 -199 -205 -211 -217 0
-194 -200 -206 -212 -218 0
-195 -201 -207 -213 -219 0
-196 -202 -208 -214 -220 0
-197 -203 -209 -215 -221 0
-198 -204 -210 -216 -222 0
-199 -205 -211 -217 -223 0
-200 -206 -212 -218 -224 0
-201 -207 -213 -219 -225 0
-202 -208 -214 -220 -226 0
-203 -209 -215 -221 -227 0
-204 -210 -216 -222 -228 0
-205 -211 -217 -223 -229 0
-206 -212 -218 -224 -230 0
-207 -213 -219 -225 -231 0
-208 -214 -220 -226 -232 0
-209 -215 -221 -227 -233 0
-210 -216 -222 -228 -234 0
-211 -217 -223 -229 -235 0
-212 -218 -224 -230 -236 0
-213 -219 -225 -231 -237 0
-214 -220 -226 -232 -238 0
-215 -221 -227 -233 -239 0
-216 -222 -228 -234 -240 0
-217 -223 -229 -235 -241 0
-218 -224 -230 -236 -242 0
-219 -225 -231 -237 -243 0
-220 -226 -232 -238 -244 0
-221 -227 -233 -239 -245 0
-222 -228 -234 -240 -246 0
-223 -229 -235 -241 -247 0
-224 -230 -236 -242 -248 0
-225 -231 -237 -243 -249 0
-226 -232 -238 -244 -250 0
-227 -233 -239 -245 -251 0
-228 -234 -240 -246 -252 0
-229 -235 -241 -247 -253 0
-230 -236 -242 -248 -254 0
-231 -237 -243 -249 -255 0
-232 -238 -244 -250 -256 0
-233 -239 -245 -251 -257 0
-234 -240 -246 -252 -258 0
-235 -241 -247 -253 -259 0
-236 -242 -248 -254 -260 0
-237 -243 -249 -255 -261 0
-238 -244 -250 -256 -262 0
-239 -245 -251 -257 -263 0
-240 -246 -252 -258 -264 0
-241 -247 -253 -259 -265 0
-242 -248 -254 -260 -266 0
-243 -249 -255 -261 -267 0
-244 -250 -256 -262 -268 0
-245 -251 -257 -263 -269 0
-246 -252 -258 -264 -270 0
-247 -253 -259 -265 -271 0
-248 -254 -260 -266 -272 0
-249 -255 -261 -267 -273 0
-250 -256 -262 -268 -274 0
-251 -257 -263 -269 -275 0
-252 -258 -264 -270 -276 0
-253 -259 -265 -271 -277 0
-254 -260 -266 -272 -278 0
-255 -261 -267 -273 -279 0
-256 -262 -268 -274 -280 0
-257 -263 -269 -275 -281 0
-258 -264 -270 -276 -282 0
-259 -265 -271 -277 -283 0
-260 -266 -272 -278 -284 0
-261 -267 -273 -279 -285 0
-262 -268 -274 -280 -286 0
-263 -269 -275 -281 -287 0
-264 -270 -276 -282 -288 0
-265 -271 -277 -283 -289 0
-266 -272 -278 -284 -290 0
-267 -273 -279 -285 -291 0
-268 -274 -280 -286 -292 0
-269 -275 -281 -287 -293 0
-270 -276 -282 -288 -294 0
-271 -277 -283 -289 -295 0
-272 -278 -284 -290 -296 0
-273 -279 -285 -291 -297 0
-274 -280 -286 -292 -298 0
-275 -281 -287 -293 -299 0
-276 -282 -288 -294 -300 0
-277 -283 -289 -295 -301 0
-278 -284 -290 -296 -302 0
-279 -285 -291 -297 -303 0
-280 -286 -292 -298 -304 0
-281 -287 -293 -299 -305 0
-282 -288 -294 -300 -306 0
-283 -289 -295 -301 -307 0
-284 -290 -296 -302 -308 0
-285 -291 -297 -303 -309 0
-286 -292 -298 -304 -310 0
-287 -293 -299 -305 -311 0
-288 -294 -300 -306 -312 0
-289 -295 -301 -307 -313 0
-290 -296 -302 -308 -314 0
-291 -297 -303 -309 -315 0
-292 -298 -304 -310 -316 0
-293 -299 -305 -311 -317 0
-294 -300 -306 -312 -318 0
-295 -301 -307 -313 -319 0
-296 -302 -308 -314 -320 0
-297 -303 -309 -315 -321 0
-298 -304 -310 -316 -322 0
-299 -305 -311 -317 -323 0
-300 -306 -312 -318 -324 0
-301 -307 -313 -319 -325 0
-302 -308 -314 -320 -326 0
-303 -309 -315 -321 -327 0
-304 -310 -316 -322 -328 0
-305 -311 -317 -323 -329 0
-306 -312 -318 -324 -330 0
-307 -313 -319 -325 -331 0
-308 -314 -320 -326 -332 0
-309 -315 -321 -327 -333 0
-310 -316 -322 -328 -334 0
-311 -317 -323 -329 -335 0
-312 -318 -324 -330 -336 0
-313 -319 -325 -331 -337 0
-314 -320 -326 -332 -338 0
-315 -321 -327 -333 -339 0
-316 -322 -328 -334 -340 0
-317 -323 -329 -335 -341 0
-318 -324 -330 -336 -342 0
-319 -325 -331 -337 -343 0
-320 -326 -332 -338 -344 0
-321 -327 -333 -339 -345 0
-322 -328 -334 -340 -346 0
-323 -329 -335 -341 -347 0
-324 -330 -336 -342 -348 0
-325 -331 -337 -343 -349 0
-326 -332 -338 -344 -350 0
-327 -333 -339 -345 -351 0
-328 -334 -340 -346 -352 0
-329 -335 -341 -347 -353 0
-330 -336 -342 -348 -354 0
-331 -337 -343 -349 -355 0
-332 -338 -344 -350 -356 0
-1 -9 -17 -25 -33 0
-2 -10 -18 -26 -34 0
-3 -11 -19 -27 -35 0
-4 -12 -20 -28 -36 0
-5 -13 -21 -29 -37 0
-6 -14 -22 -30 -38 0
-7 -15 -23 -31 -39 0
-8 -16 -24 -32 -40 0
-9 -17 -25 -33 -41 0
-10 -18 -26 -34 -42 0
-11 -19 -27 -35 -43 0
-12 -20 -28 -36 -44 0
-13 -21 -29 -37 -45 0
-14 -22 -30 -38 -46 0
-15 -23 -31 -39 -47 0
-16 -24 -32 -40 -48 0
-17 -25 -33 -41 -49 0
-18 -26 -34 -42 -50 0
-19 -27 -35 -43 -51 0
-20 -28 -36 -44 -52 0
-21 -29 -37 -45 -53 0
-22 -30 -38 -46 -54 0
-23 -31 -39 -47 -55 0
-24 -32 -40 -48 -56 0
-25 -33 -41 -49 -57 0
-26 -34 -42 -50 -58 0
-27 -35 -43 -51 -59 0
-28 -36 -44 -52 -60 0
-29 -37 -45 -53 -61 0
-30 -38 -46 -54 -62 0
-31 -39 -47 -55 -63 0
-32 -40 -48 -56 -64 0
-33 -41 -49 -57 -65 0
-34 -42 -50 -58 -66 0
-35 -43 -51 -59 -67 0
-36 -44 -52 -60 -68 0
-37 -45 -53 -61 -69 0
-38 -46 -54 -62 -70 0
-39 -47 -55 -63 -71 0
-40 -48 -56 -64 -72 0
-41 -49 -57 -65 -73 0
-42 -50 -58 -66 -74 0
-43 -51 -59 -67 -75 0
-44 -52 -60 -68 -76 0
-45 -53 -61 -69 -77 0
-46 -54 -62 -70 -78 0
-47 -55 -63 -71 -79 0
-48 -56 -64 -72 -80 0
-49 -57 -65 -73 -81 0
-50 -58 -66 -74 -82 0
-51 -59 -67 -75 -83 0
-52 -60 -68 -76 -84 0
-53 -61 -69 -77 -85 0
-54 -62 -70 -78 -86 0
-55 -63 -71 -79 -87 0
-56 -64 -72 -80 -88 0
-57 -65 -73 -81 -89 0
-58 -66 -74 -82 -90 0
-59 -67 -75 -83 -91 0
-60 -68 -76 -84 -92 0
-61 -69 -77 -85 -93 0
-62 -70 -78 -86 -94 0
-63 -71 -79 -87 -95 0
-64 -72 -80 -88 -96 0
-65 -73 -81 -89 -97 0
-66 -74 -82 -90 -98 0
-67 -75 -83 -91 -99 0
-68 -76 -84 -92 -100 0
-69 -77 -85 -93 -101 0
-70 -78 -86 -94 -102 0
-71 -79 -87 -95 -103 0
-72 -80 -88 -96 -104 0
-73 -81 -89 -97 -105 0
-74 -82 -90 -98 -106 0
-75 -83 -91 -99 -107 0
-76 -84 -92 -100 -108 0
-77 -85 -93 -101 -109 0
-78 -86 -94 -102 -110 0
-79 -87 -95 -103 -111 0
-80 -88 -96 -104 -112 0
-81 -89 -97 -105 -113 0
-82 -90 -98 -106 -114 0
-83 -91 -99 -107 -115 0
-84 -92 -100 -108 -116 0
-85 -93 -101 -109 -117 0
-86 -94 -102 -110 -118 0
-87 -95 -103 -111 -119 0
-88 -96 -104 -112 -120 0
-89 -97 -105 -113 -121 0
-90 -98 -106 -114 -122 0
-91 -99 -107 -115 -123 0
-92 -100 -108 -116 -124 0
-93 -101 -109 -117 -125 0
-94 -102 -110 -118 -126 0
-95 -103 -111 -119 -127 0
-96 -104 -112 -120 -128 0
-97 -105 -113 -121 -129 0
-98 -106 -114 -122 -130 0
-99 -107 -115 -123 -131 0
-100 -108 -116 -124 -132 0
-101 -109 -117 -125 -133 0
-102 -110 -118 -126 -134 0
-103 -111 -119 -127 -135 0
-104 -112 -120 -128 -136 0
-105 -113 -121 -129 -137 0
-106 -114 -122 -130 -138 0
-107 -115 -123 -131 -139 0
-108 -116 -124 -132 -140 0
-109 -117 -125 -133 -141 0
-110 -118 -126 -134 -142 0
-111 -119 -127 -135 -143 0
-112 -120 -128 -136 -144 0
-113 -121 -129 -137 -145 0
-114 -122 -130 -138 -146 0
-115 -123 -131 -139 -147 0
-116 -124 -132 -140 -148 0
-117 -125 -133 -141 -149 0
-118 -126 -134 -142 -150 0
-119 -127 -135 -143 -151 0
-120 -128 -136 -144 -152 0
-121 -129 -137 -145 -153 0
-122 -130 -138 -146 -154 0
-123 -131 -139 -147 -155 0
-124 -132 -140 -148 -156 0
-125 -133 -141 -149 -157 0
-126 -134 -142 -150 -158 0
-127 -135 -143 -151 -159 0
-128 -136 -144 -152 -160 0
-129 -137 -145 -153 -161 0
-130 -138 -146 -154 -162 0
-131 -139 -147 -155 -163 0
-132 -140 -148 -156 -164 0
-133 -141 -149 -157 -165 0
-134 -142 -150 -158 -166 0
-135 -143 -151 -159 -167 0
-136 -144 -152 -160 -168 0
-137 -145 -153 -161 -169 0
-138 -146 -154 -162 -170 0
-139 -147 -155 -163 -171 0
-140 -148 -156 -164 -172 0
-141 -149 -157 -165 -173 0
-142 -150 -158 -166 -174 0
-143 -151 -159 -167 -175 0
-144 -152 -160 -168 -176 0
-145 -153 -161 -169 -177 0
-146 -154 -162 -170 -178 0
-147 -155 -163 -171 -179 0
-148 -156 -164 -172 -180 0
-149 -157 -165 -173 -181 0
-150 -158 -166 -174 -182 0
-151 -159 -167 -175 -183 0
-152 -160 -168 -176 -184 0
-153 -161 -169 -177 -185 0
-154 -162 -170 -178 -186 0
-155 -163 -171 -179 -187 0
-156 -164 -172 -180 -188 0
-157 -165 -173 -181 -189 0
-158 -166 -174 -182 -190 0
-159 -167 -175 -183 -191 0
-160 -168 -176 -184 -192 0
-161 -169 -177 -185 -193 0
-162 -170 -178 -186 -194 0
-163 -171 -179 -187 -195 0
-164 -172 -180 -188 -196 0
-165 -173 -181 -189 -197 0
-166 -174 -182 -190 -198 0
-167 -175 -183 -191 -199 0
-168 -176 -184 -192 -200 0
-169 -177 -185 -193 -201 0
-170 -178 -186 -194 -202 0
-171 -179 -187 -195 -203 0
-172 -180 -188 -196 -204 0
-173 -181 -189 -197 -205 0
-174 -182 -190 -198 -206 0
-175 -183 -191 -199 -207 0
-176 -184 -192 -200 -208 0
-177 -185 -193 -201 -209 0
-178 -186 -194 -202 -210 0
-179 -187 -195 -203 -211 0
-180 -188 -196 -204 -212 0
-181 -189 -197 -205 -213 0
-182 -190 -198 -206 -214 0
-183 -191 -199 -207 -215 0
-184 -192 -200 -208 -216 0
-185 -193 -201 -209 -217 0
-186 -194 -202 -210 -218 0
-187 -195 -203 -211 -219 0
-188 -196 -204 -212 -220 0
-189 -197 -205 -213 -221 0
-190 -198 -206 -214 -222 0
-191 -199 -207 -215 -223 0
-192 -200 -208 -216 -224 0
-193 -201 -209 -217 -225 0
-194 -202 -210 -218 -226 0
-195 -203 -211 -219 -227 0
-196 -204 -212 -220 -228 0
-197 -205 -213 -221 -229 0
-198 -206 -214 -222 -230 0
-199 -207 -215 -223 -231 0
-200 -208 -216 -224 -232 0
-201 -209 -217 -225 -233 0
-202 -210 -218 -226 -234 0
-203 -211 -219 -227 -235 0
-204 -212 -220 -228 -236 0
-205 -213 -221 -229 -237 0
-206 -214 -222 -230 -238 0
-207 -215 -223 -231 -239 0
-208 -216 -224 -232 -240 0
-209 -217 -225 -233 -241 0
-210 -218 -226 -234 -242 0
-211 -219 -227 -235 -243 0
-212 -220 -228 -236 -244 0
-213 -221 -229 -237 -245 0
-214 -222 -230 -238 -246 0
-215 -223 -231 -239 -247 0
-216 -224 -232 -240 -248 0
-217 -225 -233 -241 -249 0
-218 -226 -234 -242 -250 0
-219 -227 -235 -243 -251 0
-220 -228 -236 -244 -252 0
-221 -229 -237 -245 -253 0
-222 -230 -238 -246 -254 0
-223 -231 -239 -247 -255 0
-224 -232 -240 -248 -256 0
-225 -233 -241 -249 -257 0
-226 -234 -242 -250 -258 0
-227 -235 -243 -251 -259 0
-228 -236 -244 -252 -260 0
-229 -237 -245 -253 -261 0
-230 -238 -246 -254 -262 0
-231 -239 -247 -255 -263 0
-232 -240 -248 -256 -264 0
-233 -241 -249 -257 -265 0
-234 -242 -250 -258 -266 0
-235 -243 -251 -259 -267 0
-236 -244 -252 -260 -268 0
-237 -245 -253 -261 -269 0
-238 -246 -254 -262 -270 0
-239 -247 -255 -263 -271 0
-240 -248 -256 -264 -272 0
-241 -249 -257 -265 -273 0
-242 -250 -258 -266 -274 0
-243 -251 -259 -267 -275 0
-244 -252 -260 -268 -276 0
-245 -253 -261 -269 -277 0
-246 -254 -262 -270 -278 0
-247 -255 -263 -271 -279 0
-248 -256 -264 -272 -280 0
-249 -257 -265 -273 -281 0
-250 -258 -266 -274 -282 0
-251 -259 -267 -275 -283 0
-252 -260 -268 -276 -284 0
-253 -261 -269 -277 -285 0
-254 -262 -270 -278 -286 0
-255 -263 -271 -279 -287 0
-256 -264 -272 -280 -288 0
-257 -265 -273 -281 -289 0
-258 -266 -274 -282 -290 0
-259 -267 -275 -283 -291 0
-260 -268 -276 -284 -292 0
-261 -269 -277 -285 -293 0
-262 -270 -278 -286 -294 0
-263 -271 -279 -287 -295 0
-264 -272 -280 -288 -296 0
-265 -273 -281 -289 -297 0
-266 -274 -282 -290 -298 0
-267 -275 -283 -291 -299 0
-268 -276 -284 -292 -300 0
-269 -277 -285 -293 -301 0
-270 -278 -286 -294 -302 0
-271 -279 -287 -295 -303 0
-272 -280 -288 -296 -304 0
-273 -281 -289 -297 -305 0
-274 -282 -290 -298 -306 0
-275 -283 -291 -299 -307 0
-276 -284 -292 -300 -308 0
-277 -285 -293 -301 -309 0
-278 -286 -294 -302 -310 0
-279 -287 -295 -303 -311 0
-280 -288 -296 -304 -312 0
-281 -289 -297 -305 -313 0
-282 -290 -298 -306 -314 0
-283 -291 -299 -307 -315 0
-284 -292 -300 -308 -316 0
-285 -293 -301 -309 -317 0
-286 -294 -302 -310 -318 0
-287 -295 -303 -311 -319 0
-288 -296 -304 -312 -320 0
-289 -297 -305 -313 -321 0
-290 -298 -306 -314 -322 0
-291 -299 -307 -315 -323 0
-292 -300 -308 -316 -324 0
-293 -301 -309 -317 -325 0
-294 -302 -310 -318 -326 0
-295 -303 -311 -319 -327 0
-296 -304 -312 -320 -328 0
-297 -305 -313 -321 -329 0
-298 -306 -314 -322 -330 0
-299 -307 -315 -323 -331 0
-300 -308 -316 -324 -332 0
-301 -309 -317 -325 -333 0
-302 -310 -318 -326 -334 0
-303 -311 -319 -327 -335 0
-304 -312 -320 -328 -336 0
-305 -313 -321 -329 -337 0
-306 -314 -322 -330 -338 0
-307 -315 -323 -331 -339 0
-308 -316 -324 -332 -340 0
-309 -317 -325 -333 -341 0
-310 -318 -326 -334 -342 0
-311 -319 -327 -335 -343 0
-312 -320 -328 -336 -344 0
-313 -321 -329 -337 -345 0
-314 -322 -330 -338 -346 0
-315 -323 -331 -339 -347 0
-316 -324 -332 -340 -348 0
-317 -325 -333 -341 -349 0
-318 -326 -334 -342 -350 0
-319 -327 -335 -343 -351 0
-320 -328 -336 -344 -352 0
-321 -329 -337 -345 -353 0
-322 -330 -338 -346 -354 0
-323 -331 -339 -347 -355 0
-324 -332 -340 -348 -356 0
-1 -11 -21 -31 -41 0
-2 -12 -22 -32 -42 0
-3 -13 -23 -33 -43 0
-4 -14 -24 -34 -44 0
-5 -15 -25 -35 -45 0
-6 -16 -26 -36 -46 0
-7 -17 -27 -37 -47 0
-8 -18 -28 -38 -48 0
-9 -19 -29 -39 -49 0
-10 -20 -30 -40 -50 0
-11 -21 -31 -41 -51 0
-12 -22 -32 -42 -52 0
-13 -23 -33 -43 -53 0
-14 -24 -34 -44 -54 0
-15 -25 -35 -45 -55 0
-16 -26 -36 -46 -56 0
-17 -27 -37 -47 -57 0
-18 -28 -38 -48 -58 0
-19 -29 -39 -49 -59 0
-20 -30 -40 -50 -60 0
-21 -31 -41 -51 -61 0
-22 -32 -42 -52 -62 0
-23 -33 -43 -53 -63 0
-24 -34 -44 -54 -64 0
-25 -35 -45 -55 -65 0
-26 -36 -46 -56 -66 0
-27 -37 -47 -57 -67 0
-28 -38 -48 -58 -68 0
-29 -39 -49 -59 -69 0
-30 -40 -50 -60 -70 0
-31 -41 -51 -61 -71 0
-32 -42 -52 -62 -72 0
-33 -43 -53 -63 -73 0
-34 -44 -54 -64 -74 0
-35 -45 -55 -65 -75 0
-36 -46 -56 -66 -76 0
-37 -47 -57 -67 -77 0
-38 -48 -58 -68 -78 0
-39 -49 -59 -69 -79 0
-40 -50 -60 -70 -80 0
-41 -51 -61 -71 -81 0
-42 -52 -62 -72 -82 0
-43 -53 -63 -73 -83 0
-44 -54 -64 -74 -84 0
-45 -55 -65 -75 -85 0
-46 -56 -66 -76 -86 0
-47 -57 -67 -77 -87 0
-48 -58 -68 -78 -88 0
-49 -59 -69 -79 -89 0
-50 -60 -70 -80 -90 0
-51 -61 -71 -81 -91 0
-52 -62 -72 -82 -92 0
-53 -63 -73 -83 -93 0
-54 -64 -74 -84 -94 0
-55 -65 -75 -85 -95 0
-56 -66 -76 -86 -96 0
-57 -67 -77 -87 -97 0
-58 -68 -78 -88 -98 0
-59 -69 -79 -89 -99 0
-60 -70 -80 -90 -100 0
-61 -71 -81 -91 -101 0
-62 -72 -82 -92 -102 0
-63 -73 -83 -93 -103 0
-64 -74 -84 -94 -104 0
-65 -75 -85 -95 -105 0
-66 -76 -86 -96 -106 0
-67 -77 -87 -97 -107 0
-68 -78 -88 -98 -108 0
-69 -79 -89 -99 -109 0
-70 -80 -90 -100 -110 0
-71 -81 -91 -101 -111 0
-72 -82 -92 -102 -112 0
-73 -83 -93 -103 -113 0
-74 -84 -94 -104 -114 0
-75 -85 -95 -105 -115 0
-76 -86 -96 -106 -116 0
-77 -87 -97 -107 -117 0
-78 -88 -98 -108 -118 0
-79 -89 -99 -109 -119 0
-80 -90 -100 -110 -120 0
-81 -91 -101 -111 -121 0
-82 -92 -102 -112 -122 0
-83 -93 -103 -113 -123 0
-84 -94 -104 -114 -124 0
-85 -95 -105 -115 -125 0
-86 -96 -106 -116 -126 0
-87 -97 -107 -117 -127 0
-88 -98 -108 -118 -128 0
-89 -99 -109 -119 -129 0
-90 -100 -110 -120 -130 0
-91 -101 -111 -121 -131 0
-92 -102 -112 -122 -132 0
-93 -103 -113 -123 -133 0
-94 -104 -114 -124 -134 0
-95 -105 -115 -125 -135 0
-96 -106 -116 -126 -136 0
-97 -107 -117 -127 -137 0
-98 -108 -118 -128 -138 0
-99 -109 -119 -129 -139 0
-100 -110 -120 -130 -140 0
-101 -111 -121 -131 -141 0
-102 -112 -122 -132 -142 0
-103 -113 -123 -133 -143 0
-104 -114 -124 -134 -144 0
-105 -115 -125 -135 -145 0
-106 -116 -126 -136 -146 0
-107 -117 -127 -137 -147 0
-108 -118 -128 -138 -148 0
-109 -119 -129 -139 -149 0
-110 -120 -130 -140 -150 0
-111 -121 -131 -141 -151 0
-112 -122 -132 -142 -152 0
-113 -123 -133 -143 -153 0
-114 -124 -134 -144 -154 0
-115 -125 -135 -145 -155 0
-116 -126 -136 -146 -156 0
-117 -127 -137 -147 -157 0
-118 -128 -138 -148 -158 0
-119 -129 -139 -149 -159 0
-120 -130 -140 -150 -160 0
-121 -131 -141 -151 -161 0
-122 -132 -142 -152 -162 0
-123 -133 -143 -153 -163 0
-124 -134 -144 -154 -164 0
-125 -135 -145 -155 -165 0
-126 -136 -146 -156 -166 0
-127 -137 -147 -157 -167 0
-128 -138 -148 -158 -168 0
-129 -139 -149 -159 -169 0
-130 -140 -150 -160 -170 0
-131 -141 -151 -161 -171 0
-132 -142 -152 -162 -172 0
-133 -143 -153 -163 -173 0
-134 -144 -154 -164 -174 0
-135 -145 -155 -165 -175 0
-136 -146 -156 -166 -176 0
-137 -147 -157 -167 -177 0
-138 -148 -158 -168 -178 0
-139 -149 -159 -169 -179 0
-140 -150 -160 -170 -180 0
-141 -151 -161 -171 -181 0
-142 -152 -162 -172 -182 0
-143 -153 -163 -173 -183 0
-144 -154 -164 -174 -184 0
-145 -155 -165 -175 -185 0
-146 -156 -166 -176 -186 0
-147 -157 -167 -177 -187 0
-148 -158 -168 -178 -188 0
-149 -159 -169 -179 -189 0
-150 -160 -170 -180 -190 0
-151 -161 -171 -181 -191 0
-152 -162 -172 -182 -192 0
-153 -163 -173 -183 -193 0
-154 -164 -174 -184 -194 0
-155 -165 -175 -185 -195 0
-156 -166 -176 -186 -196 0
-157 -167 -177 -187 -197 0
-158 -168 -178 -188 -198 0
-159 -169 -179 -189 -199 0
-160 -170 -180 -190 -200 0
-161 -171 -181 -191 -201 0
-162 -172 -182 -192 -202 0
-163 -173 -183 -193 -203 0
-164 -174 -184 -194 -204 0
-165 -175 -185 -195 -205 0
-166 -176 -186 -196 -206 0
-167 -177 -187 -197 -207 0
-168 -178 -188 -198 -208 0
-169 -179 -189 -199 -209 0
-170 -180 -190 -200 -210 0
-171 -181 -191 -201 -211 0
-172 -182 -192 -202 -212 0
-173 -183 -193 -203 -213 0
-174 -184 -194 -204 -214 0
-175 -185 -195 -205 -215 0
-176 -186 -196 -206 -216 0
-177 -187 -197 -207 -217 0
-178 -188 -198 -208 -218 0
-179 -189 -199 -209 -219 0
-180 -190 -200 -210 -220 0
-181 -191 -201 -211 -221 0
-182 -192 -202 -212 -222 0
-183 -193 -203 -213 -223 0
-184 -194 -204 -214 -224 0
-185 -195 -205 -215 -225 0
-186 -196 -206 -216 -226 0
-187 -197 -207 -217 -227 0
-188 -198 -208 -218 -228 0
-189 -199 -209 -219 -229 0
-190 -200 -210 -220 -230 0
-191 -201 -211 -221 -231 0
-192 -202 -212 -222 -232 0
-193 -203 -213 -223 -233 0
-194 -204 -214 -224 -234 0
-195 -205 -215 -225 -235 0
-196 -206 -216 -226 -236 0
-197 -207 -217 -227 -237 0
-198 -208 -218 -228 -238 0
-199 -209 -219 -229 -239 0
-200 -210 -220 -230 -240 0
-201 -211 -221 -231 -241 0
-202 -212 -222 -232 -242 0
-203 -213 -223 -233 -243 0
-204 -214 -224 -234 -244 0
-205 -215 -225 -235 -245 0
-206 -216 -226 -236 -246 0
-207 -217 -227 -237 -247 0
-208 -218 -228 -238 -248 0
-209 -219 -229 -239 -249 0
-210 -220 -230 -240 -250 0
-211 -221 -231 -241 -251 0
-212 -222 -232 -242 -252 0
-213 -223 -233 -243 -253 0
-214 -224 -234 -244 -254 0
-215 -225 -235 -245 -255 0
-216 -226 -236 -246 -256 0
-217 -227 -237 -247 -257 0
-218 -228 -238 -248 -258 0
-219 -229 -239 -249 -259 0
-220 -230 -240 -250 -260 0
-221 -231 -241 -251 -261 0
-222 -232 -242 -252 -262 0
-223 -233 -243 -253 -263 0
-224 -234 -244 -254 -264 0
-225 -235 -245 -255 -265 0
-226 -236 -246 -256 -266 0
-227 -237 -247 -257 -267 0
-228 -238 -248 -258 -268 0
-229 -239 -249 -259 -269 0
-230 -240 -250 -260 -270 0
-231 -241 -251 -261 -271 0
-232 -242 -252 -262 -272 0
-233 -243 -253 -263 -273 0
-234 -244 -254 -264 -274 0
-235 -245 -255 -265 -275 0
-236 -246 -256 -266 -276 0
-237 -247 -257 -267 -277 0
-238 -248 -258 -268 -278 0
-239 -249 -259 -269 -279 0
-240 -250 -260 -270 -280 0
-241 -251 -261 -271 -281 0
-242 -252 -262 -272 -282 0
-243 -253 -263 -273 -283 0
-244 -254 -264 -274 -284 0
-245 -255 -265 -275 -285 0
-246 -256 -266 -276 -286 0
-247 -257 -267 -277 -287 0
-248 -258 -268 -278 -288 0
-249 -259 -269 -279 -289 0
-250 -260 -270 -280 -290 0
-251 -261 -271 -281 -291 0
-252 -262 -272 -282 -292 0
-253 -263 -273 -283 -293 0
-254 -264 -274 -284 -294 0
-255 -265 -275 -285 -295 0
-256 -266 -276 -286 -296 0
-257 -267 -277 -287 -297 0
-258 -268 -278 -288 -298 0
-259 -269 -279 -289 -299 0
-260 -270 -280 -290 -300 0
-261 -271 -281 -291 -301 0
-262 -272 -282 -292 -302 0
-263 -273 -283 -293 -303 0
-264 -274 -284 -294 -304 0
-265 -275 -285 -295 -305 0
-266 -276 -286 -296 -306 0
-267 -277 -287 -297 -307 0
-268 -278 -288 -298 -308 0
-269 -279 -289 -299 -309 0
-270 -280 -290 -300 -310 0
-271 -281 -291 -301 -311 0
-272 -282 -292 -302 -312 0
-273 -283 -293 -303 -313 0
-274 -284 -294 -304 -314 0
-275 -285 -295 -305 -315 0
-276 -286 -296 -306 -316 0
-277 -287 -297 -307 -317 0
-278 -288 -298 -308 -318 0
-279 -289 -299 -309 -319 0
-280 -290 -300 -310 -320 0
-281 -291 -301 -311 -321 0
-282 -292 -302 -312 -322 0
-283 -293 -303 -313 -323 0
-284 -294 -304 -314 -324 0
-285 -295 -305 -315 -325 0
-286 -296 -306 -316 -326 0
-287 -297 -307 -317 -327 0
-288 -298 -308 -318 -328 0
-289 -299 -309 -319 -329 0
-290 -300 -310 -320 -330 0
-291 -301 -311 -321 -331 0
-292 -302 -312 -322 -332 0
-293 -303 -313 -323 -333 0
-294 -304 -314 -324 -334 0
-295 -305 -315 -325 -335 0
-296 -306 -316 -326 -336 0
-297 -307 -317 -327 -337 0
-298 -308 -318 -328 -338 0
-299 -309 -319 -329 -339 0
-300 -310 -320 -330 -340 0
-301 -311 -321 -331 -341 0
-302 -312 -322 -332 -342 0
-303 -313 -323 -333 -343 0
-304 -314 -324 -334 -344 0
-305 -315 -325 -335 -345 0
-306 -316 -326 -336 -346 0
-307 -317 -327 -337 -347 0
-308 -318 -328 -338 -348 0
-309 -319 -329 -339 -349 0
-310 -320 -330 -340 -350 0
-311 -321 -331 -341 -351 0
-312 -322 -332 -342 -352 0
-313 -323 -333 -343 -353 0
-314 -324 -334 -344 -354 0
-315 -325 -335 -345 -355 0
-316 -326 -336 -346 -356 0
-1 -13 -25 -37 -49 0
-2 -14 -26 -38 -50 0
-3 -15 -27 -39 -51 0
-4 -16 -28 -40 -52 0
-5 -17 -29 -41 -53 0
-6 -18 -30 -42 -54 0
-7 -19 -31 -43 -55 0
-8 -20 -32 -44 -56 0
-9 -21 -33 -45 -57 0
-10 -22 -34 -46 -58 0
-11 -23 -35 -47 -59 0
-12 -24 -36 -48 -60 0
-13 -25 -37 -49 -61 0
-14 -26 -38 -50 -62 0
-15 -27 -39 -51 -63 0
-16 -28 -40 -52 -64 0
-17 -29 -41 -53 -65 0
-18 -30 -42 -54 -66 0
-19 -31 -43 -55 -67 0
-20 -32 -44 -56 -68 0
-21 -33 -45 -57 -69 0
-22 -34 -46 -58 -70 0
-23 -35 -47 -59 -71 0
-24 -36 -48 -60 -72 0
-25 -37 -49 -61 -73 0
-26 -38 -50 -62 -74 0
-27 -39 -51 -63 -75 0
-28 -40 -52 -64 -76 0
-29 -41 -53 -65 -77 0
-30 -42 -54 -66 -78 0
-31 -43 -55 -67 -79 0
-32 -44 -56 -68 -80 0
-33 -45 -57 -69 -81 0
-34 -46 -58 -70 -82 0
-35 -47 -59 -71 -83 0
-36 -48 -60 -72 -84 0
-37 -49 -61 -73 -85 0
-38 -50 -62 -74 -86 0
-39 -51 -63 -75 -87 0
-40 -52 -64 -76 -88 0
-41 -53 -65 -77 -89 0
-42 -54 -66 -78 -90 0
-43 -55 -67 -79 -91 0
-44 -56 -68 -80 -92 0
-45 -57 -69 -81 -93 0
-46 -58 -70 -82 -94 0
-47 -59 -71 -83 -95 0
-48 -60 -72 -84 -96 0
-49 -61 -73 -85 -97 0
-50 -62 -74 -86 -98 0
-51 -63 -75 -87 -99 0
-52 -64 -76 -88 -100 0
-53 -65 -77 -89 -101 0
-54 -66 -78 -90 -102 0
-55 -67 -79 -91 -103 0
-56 -68 -80 -92 -104 0
-57 -69 -81 -93 -105 0
-58 -70 -82 -94 -106 0
-59 -71 -83 -95 -107 0
-60 -72 -84 -96 -108 0
-61 -73 -85 -97 -109 0
-62 -74 -86 -98 -110 0
-63 -75 -87 -99 -111 0
-64 -76 -88 -100 -112 0
-65 -77 -89 -101 -113 0
-66 -78 -90 -102 -114 0
-67 -79 -91 -103 -115 0
-68 -80 -92 -104 -116 0
-69 -81 -93 -105 -117 0
-70 -82 -94 -106 -118 0
-71 -83 -95 -107 -119 0
-72 -84 -96 -108 -120 0
-73 -85 -97 -109 -121 0
-74 -86 -98 -110 -122 0
-75 -87 -99 -111 -123 0
-76 -88 -100 -112 -124 0
-77 -89 -101 -113 -125 0
-78 -90 -102 -114 -126 0
-79 -91 -103 -115 -127 0
-80 -92 -104 -116 -128 0
-81 -93 -105 -117 -129 0
-82 -94 -106 -118 -130 0
-83 -95 -107 -119 -131 0
-84 -96 -108 -120 -132 0
-85 -97 -109 -121 -133 0
-86 -98 -110 -122 -134 0
-87 -99 -111 -123 -135 0
-88 -100 -112 -124 -136 0
-89 -101 -113 -125 -137 0
-90 -102 -114 -126 -138 0
-91 -103 -115 -127 -139 0
-92 -104 -116 -128 -140 0
-93 -105 -117 -129 -141 0
-94 -106 -118 -130 -142 0
-95 -107 -119 -131 -143 0
-96 -108 -120 -132 -144 0
-97 -109 -121 -133 -145 0
-98 -110 -122 -134 -146 0
-99 -111 -123 -135 -147 0
-100 -112 -124 -136 -148 0
-101 -113 -125 -137 -149 0
-102 -114 -126 -138 -150 0
-103 -115 -127 -139 -151 0
-104 -116 -128 -140 -152 0
-105 -117 -129 -141 -153 0
-106 -118 -130 -142 -154 0
-107 -119 -131 -143 -155 0
-108 -120 -132 -144 -156 0
-109 -121 -133 -145 -157 0
-110 -122 -134 -146 -158 0
-111 -123 -135 -147 -159 0
-112 -124 -136 -148 -160 0
-113 -125 -137 -149 -161 0
-114 -126 -138 -150 -162 0
-115 -127 -139 -151 -163 0
-116 -128 -140 -152 -164 0
-117 -129 -141 -153 -165 0
-118 -130 -142 -154 -166 0
-119 -131 -143 -155 -167 0
-120 -132 -144 -156 -168 0
-121 -133 -145 -157 -169 0
-122 -134 -146 -158 -170 0
-123 -135 -147 -159 -171 0
-124 -136 -148 -160 -172 0
-125 -137 -149 -161 -173 0
-126 -138 -150 -162 -174 0
-127 -139 -151 -163 -175 0
-128 -140 -152 -164 -176 0
-129 -141 -153 -165 -177 0
-130 -142 -154 -166 -178 0
-131 -143 -155 -167 -179 0
-132 -144 -156 -168 -180 0
-133 -145 -157 -169 -181 0
-134 -146 -158 -170 -182 0
-135 -147 -159 -171 -183 0
-136 -148 -160 -172 -184 0
-137 -149 -161 -173 -185 0
-138 -150 -162 -174 -186 0
-139 -151 -163 -175 -187 0
-140 -152 -164 -176 -188 0
-141 -153 -165 -177 -189 0
-142 -154 -166 -178 -190 0
-143 -155 -167 -179 -191 0
-144 -156 -168 -180 -192 0
-145 -157 -169 -181 -193 0
-146 -158 -170 -182 -194 0
-147 -159 -171 -183 -195 0
-148 -160 -172 -184 -196 0
-149 -161 -173 -185 -197 0
-150 -162 -174 -186 -198 0
-151 -163 -175 -187 -199 0
-152 -164 -176 -188 -200 0
-153 -165 -177 -189 -201 0
-154 -166 -178 -190 -202 0
-155 -167 -179 -191 -203 0
-156 -168 -180 -192 -204 0
-157 -169 -181 -193 -205 0
-158 -170 -182 -194 -206 0
-159 -171 -183 -195 -207 0
-160 -172 -184 -196 -208 0
-161 -173 -185 -197 -209 0
-162 -174 -186 -198 -210 0
-163 -175 -187 -199 -211 0
-164 -176 -188 -200 -212 0
-165 -177 -189 -201 -213 0
-166 -178 -190 -202 -214 0
-167 -179 -191 -203 -215 0
-168 -180 -192 -204 -216 0
-169 -181 -193 -205 -217 0
-170 -182 -194 -206 -218 0
-171 -183 -195 -207 -219 0
-172 -184 -196 -208 -220 0
-173 -185 -197 -209 -221 0
-174 -186 -198 -210 -222 0
-175 -187 -199 -211 -223 0
-176 -188 -200 -212 -224 0
-177 -189 -201 -213 -225 0
-178 -190 -202 -214 -226 0
-179 -191 -203 -215 -227 0
-180 -192 -204 -216 -228 0
-181 -193 -205 -217 -229 0
-182 -194 -206 -218 -230 0
-183 -195 -207 -219 -231 0
-184 -196 -208 -220 -232 0
-185 -197 -209 -221 -233 0
-186 -198 -210 -222 -234 0
-187 -199 -211 -223 -235 0
-188 -200 -212 -224 -236 0
-189 -201 -213 -225 -237 0
-190 -202 -214 -226 -238 0
-191 -203 -215 -227 -239 0
-192 -204 -216 -228 -240 0
-193 -205 -217 -229 -241 0
-194 -206 -218 -230 -242 0
-195 -207 -219 -231 -243 0
-196 -208 -220 -232 -244 0
-197 -209 -221 -233 -245 0
-198 -210 -222 -234 -246 0
-199 -211 -223 -235 -247 0
-200 -212 -224 -236 -248 0
-201 -213 -225 -237 -249 0
-202 -214 -226 -238 -250 0
-203 -215 -227 -239 -251 0
-204 -216 -228 -240 -252 0
-205 -217 -229 -241 -253 0
-206 -218 -230 -242 -254 0
-207 -219 -231 -243 -255 0
-208 -220 -232 -244 -256 0
-209 -221 -233 -245 -257 0
-210 -222 -234 -246 -258 0
-211 -223 -235 -247 -259 0
-212 -224 -236 -248 -260 0
-213 -225 -237 -249 -261 0
-214 -226 -238 -250 -262 0
-215 -227 -239 -251 -263 0
-216 -228 -240 -252 -264 0
-217 -229 -241 -253 -265 0
-218 -230 -242 -254 -266 0
-219 -231 -243 -255 -267 0
-220 -232 -244 -256 -268 0
-221 -233 -245 -257 -269 0
-222 -234 -246 -258 -270 0
-223 -235 -247 -259 -271 0
-224 -236 -248 -260 -272 0
-225 -237 -249 -261 -273 0
-226 -238 -250 -262 -274 0
-227 -239 -251 -263 -275 0
-228 -240 -252 -264 -276 0
-229 -241 -253 -265 -277 0
-230 -242 -254 -266 -278 0
-231 -243 -255 -267 -279 0
-232 -244 -256 -268 -280 0
-233 -245 -257 -269 -281 0
-234 -246 -258 -270 -282 0
-235 -247 -259 -271 -283 0
-236 -248 -260 -272 -284 0
-237 -249 -261 -273 -285 0
-238 -250 -262 -274 -286 0
-239 -251 -263 -275 -287 0
-240 -252 -264 -276 -288 0
-241 -253 -265 -277 -289 0
-242 -254 -266 -278 -290 0
-243 -255 -267 -279 -291 0
-244 -256 -268 -280 -292 0
-245 -257 -269 -281 -293 0
-246 -258 -270 -282 -294 0
-247 -259 -271 -283 -295 0
-248 -260 -272 -284 -296 0
-249 -261 -273 -285 -297 0
-250 -262 -274 -286 -298 0
-251 -263 -275 -287 -299 0
-252 -264 -276 -288 -300 0
-253 -265 -277 -289 -301 0
-254 -266 -278 -290 -302 0
-255 -267 -279 -291 -303 0
-256 -268 -280 -292 -304 0
-257 -269 -281 -293 -305 0
-258 -270 -282 -294 -306 0
-259 -271 -283 -295 -307 0
-260 -272 -284 -296 -308 0
-261 -273 -285 -297 -309 0
-262 -274 -286 -298 -310 0
-263 -275 -287 -299 -311 0
-264 -276 -288 -300 -312 0
-265 -277 -289 -301 -313 0
-266 -278 -290 -302 -314 0
-267 -279 -291 -303 -315 0
-268 -280 -292 -304 -316 0
-269 -281 -293 -305 -317 0
-270 -282 -294 -306 -318 0
-271 -283 -295 -307 -319 0
-272 -284 -296 -308 -320 0
-273 -285 -297 -309 -321 0
-274 -286 -298 -310 -322 0
-275 -287 -299 -311 -323 0
-276 -288 -300 -312 -324 0
-277 -289 -301 -313 -325 0
-278 -290 -302 -314 -326 0
-279 -291 -303 -315 -327 0
-280 -292 -304 -316 -328 0
-281 -293 -305 -317 -329 0
-282 -294 -306 -318 -330 0
-283 -295 -307 -319 -331 0
-284 -296 -308 -320 -332 0
-285 -297 -309 -321 -333 0
-286 -298 -310 -322 -334 0
-287 -299 -311 -323 -335 0
-288 -300 -312 -324 -336 0
-289 -301 -313 -325 -337 0
-290 -302 -314 -326 -338 0
-291 -303 -315 -327 -339 0
-292 -304 -316 -328 -340 0
-293 -305 -317 -329 -341 0
-294 -306 -318 -330 -342 0
-295 -307 -319 -331 -343 0
-296 -308 -320 -332 -344 0
-297 -309 -321 -333 -345 0
-298 -310 -322 -334 -346 0
-299 -311 -323 -335 -347 0
-300 -312 -324 -336 -348 0
-301 -313 -325 -337 -349 0
-302 -314 -326 -338 -350 0
-303 -315 -327 -339 -351 0
-304 -316 -328 -340 -352 0
-305 -317 -329 -341 -353 0
-306 -318 -330 -342 -354 0
-307 -319 -331 -343 -355 0
-308 -320 -332 -344 -356 0
-1 -15 -29 -43 -57 0
-2 -16 -30 -44 -58 0
-3 -17 -31 -45 -59 0
-4 -18 -32 -46 -60 0
-5 -19 -33 -47 -61 0
-6 -20 -34 -48 -62 0
-7 -21 -35 -49 -63 0
-8 -22 -36 -50 -64 0
-9 -23 -37 -51 -65 0
-10 -24 -38 -52 -66 0
-11 -25 -39 -53 -67 0
-12 -26 -40 -54 -68 0
-13 -27 -41 -55 -69 0
-14 -28 -42 -56 -70 0
-15 -29 -43 -57 -71 0
-16 -30 -44 -58 -72 0
-17 -31 -45 -59 -73 0
-18 -32 -46 -60 -74 0
-19 -33 -47 -61 -75 0
-20 -34 -48 -62 -76 0
-21 -35 -49 -63 -77 0
-22 -36 -50 -64 -78 0
-23 -37 -51 -65 -79 0
-24 -38 -52 -66 -80 0
-25 -39 -53 -67 -81 0
-26 -40 -54 -68 -82 0
-27 -41 -55 -69 -83 0
-28 -42 -56 -70 -84 0
-29 -43 -57 -71 -85 0
-30 -44 -58 -72 -86 0
-31 -45 -59 -73 -87 0
-32 -46 -60 -74 -88 0
-33 -47 -61 -75 -89 0
-34 -48 -62 -76 -90 0
-35 -49 -63 -77 -91 0
-36 -50 -64 -78 -92 0
-37 -51 -65 -79 -93 0
-38 -52 -66 -80 -94 0
-39 -53 -67 -81 -95 0
-40 -54 -68 -82 -96 0
-41 -55 -69 -83 -97 0
-42 -56 -70 -84 -98 0
-43 -57 -71 -85 -99 0
-44 -58 -72 -86 -100 0
-45 -59 -73 -87 -101 0
-46 -60 -74 -88 -102 0
-47 -61 -75 -89 -103 0
-48 -62 -76 -90 -104 0
-49 -63 -77 -91 -105 0
-50 -64 -78 -92 -106 0
-51 -65 -79 -93 -107 0
-52 -66 -80 -94 -108 0
-53 -67 -81 -95 -109 0
-54 -68 -82 -96 -110 0
-55 -69 -83 -97 -111 0
-56 -70 -84 -98 -112 0
-57 -71 -85 -99 -113 0
-58 -72 -86 -100 -114 0
-59 -73 -87 -101 -115 0
-60 -74 -88 -102 -116 0
-61 -75 -89 -103 -117 0
-62 -76 -90 -104 -118 0
-63 -77 -91 -105 -119 0
-64 -78 -92 -106 -120 0
-65 -79 -93 -107 -121 0
-66 -80 -94 -108 -122 0
-67 -81 -95 -109 -123 0
-68 -82 -96 -110 -124 0
-69 -83 -97 -111 -125 0
-70 -84 -98 -112 -126 0
-71 -85 -99 -113 -127 0
-72 -86 -100 -114 -128 0
-73 -87 -101 -115 -129 0
-74 -88 -102 -116 -130 0
-75 -89 -103 -117 -131 0
-76 -90 -104 -118 -132 0
-77 -91 -105 -119 -133 0
-78 -92 -106 -120 -134 0
-79 -93 -107 -121 -135 0
-80 -94 -108 -122 -136 0
-81 -95 -109 -123 -137 0
-82 -96 -110 -124 -138 0
-83 -97 -111 -125 -139 0
-84 -98 -112 -126 -140 0
-85 -99 -113 -127 -141 0
-86 -100 -114 -128 -142 0
-87 -101 -115 -129 -143 0
-88 -102 -116 -130 -144 0
-89 -103 -117 -131 -145 0
-90 -104 -118 -132 -146 0
-91 -105 -119 -133 -147 0
-92 -106 -120 -134 -148 0
-93 -107 -121 -135 -149 0
-94 -108 -122 -136 -150 0
-95 -109 -123 -137 -151 0
-96 -110 -124 -138 -152 0
-97 -111 -125 -139 -153 0
-98 -112 -126 -140 -154 0
-99 -113 -127 -141 -155 0
-100 -114 -128 -142 -156 0
-101 -115 -129 -143 -157 0
-102 -116 -130 -144 -158 0
-103 -117 -131 -145 -159 0
-104 -118 -132 -146 -160 0
-105 -119 -133 -147 -161 0
-106 -120 -134 -148 -162 0
-107 -121 -135 -149 -163 0
-108 -122 -136 -150 -164 0
-109 -123 -137 -151 -165 0
-110 -124 -138 -152 -166 0
-111 -125 -139 -153 -167 0
-112 -126 -140 -154 -168 0
-113 -127 -141 -155 -169 0
-114 -128 -142 -156 -170 0
-115 -129 -143 -157 -171 0
-116 -130 -144 -158 -172 0
-117 -131 -145 -159 -173 0
-118 -132 -146 -160 -174 0
-119 -133 -147 -161 -175 0
-120 -134 -148 -162 -176 0
-121 -135 -149 -163 -177 0
-122 -136 -150 -164 -178 0
-123 -137 -151 -165 -179 0
-124 -138 -152 -166 -180 0
-125 -139 -153 -167 -181 0
-126 -140 -154 -168 -182 0
-127 -141 -155 -169 -183 0
-128 -142 -156 -170 -184 0
-129 -143 -157 -171 -185 0
-130 -144 -158 -172 -186 0
-131 -145 -159 -173 -187 0
-132 -146 -160 -174 -188 0
-133 -147 -161 -175 -189 0
-134 -148 -162 -176 -190 0
-135 -149 -163 -177 -191 0
-136 -150 -164 -178 -192 0
-137 -151 -165 -179 -193 0
-138 -152 -166 -180 -194 0
-139 -153 -167 -181 -195 0
-140 -154 -168 -182 -196 0
-141 -155 -169 -183 -197 0
-142 -156 -170 -184 -198 0
-143 -157 -171 -185 -199 0
-144 -158 -172 -186 -200 0
-145 -159 -173 -187 -201 0
-146 -160 -174 -188 -202 0
-147 -161 -175 -189 -203 0
-148 -162 -176 -190 -204 0
-149 -163 -177 -191 -205 0
-150 -164 -178 -192 -206 0
-151 -165 -179 -193 -207 0
-152 -166 -180 -194 -208 0
-153 -167 -181 -195 -209 0
-154 -168 -182 -196 -210 0
-155 -169 -183 -197 -211 0
-156 -170 -184 -198 -212 0
-157 -171 -185 -199 -213 0
-158 -172 -186 -200 -214 0
-159 -173 -187 -201 -215 0
-160 -174 -188 -202 -216 0
-161 -175 -189 -203 -217 0
-162 -176 -190 -204 -218 0
-163 -177 -191 -205 -219 0
-164 -178 -192 -206 -220 0
-165 -179 -193 -207 -221 0
-166 -180 -194 -208 -222 0
-167 -181 -195 -209 -223 0
-168 -182 -196 -210 -224 0
-169 -183 -197 -211 -225 0
-170 -184 -198 -212 -226 0
-171 -185 -199 -213 -227 0
-172 -186 -200 -214 -228 0
-173 -187 -201 -215 -229 0
-174 -188 -202 -216 -230 0
-175 -189 -203 -217 -231 0
-176 -190 -204 -218 -232 0
-177 -191 -205 -219 -233 0
-178 -192 -206 -220 -234 0
-179 -193 -207 -221 -235 0
-180 -194 -208 -222 -236 0
-181 -195 -209 -223 -237 0
-182 -196 -210 -224 -238 0
-183 -197 -211 -225 -239 0
-184 -198 -212 -226 -240 0
-185 -199 -213 -227 -241 0
-186 -200 -214 -228 -242 0
-187 -201 -215 -229 -243 0
-188 -202 -216 -230 -244 0
-189 -203 -217 -231 -245 0
-190 -204 -218 -232 -246 0
-191 -205 -219 -233 -247 0
-192 -206 -220 -234 -248 0
-193 -207 -221 -235 -249 0
-194 -208 -222 -236 -250 0
-195 -209 -223 -237 -251 0
-196 -210 -224 -238 -252 0
-197 -211 -225 -239 -253 0
-198 -212 -226 -240 -254 0
-199 -213 -227 -241 -255 0
-200 -214 -228 -242 -256 0
-201 -215 -229 -243 -257 0
-202 -216 -230 -244 -258 0
-203 -217 -231 -245 -259 0
-204 -218 -232 -246 -260 0
-205 -219 -233 -247 -261 0
-206 -220 -234 -248 -262 0
-207 -221 -235 -249 -263 0
-208 -222 -236 -250 -264 0
-209 -223 -237 -251 -265 0
-210 -224 -238 -252 -266 0
-211 -225 -239 -253 -267 0
-212 -226 -240 -254 -268 0
-213 -227 -241 -255 -269 0
-214 -228 -242 -256 -270 0
-215 -229 -243 -257 -271 0
-216 -230 -244 -258 -272 0
-217 -231 -245 -259 -273 0
-218 -232 -246 -260 -274 0
-219 -233 -247 -261 -275 0
-220 -234 -248 -262 -276 0
-221 -235 -249 -263 -277 0
-222 -236 -250 -264 -278 0
-223 -237 -251 -265 -279 0
-224 -238 -252 -266 -280 0
-225 -239 -253 -267 -281 0
-226 -240 -254 -268 -282 0
-227 -241 -255 -269 -283 0
-228 -242 -256 -270 -284 0
-229 -243 -257 -271 -285 0
-230 -244 -258 -272 -286 0
-231 -245 -259 -273 -287 0
-232 -246 -260 -274 -288 0
-233 -247 -261 -275 -289 0
-234 -248 -262 -276 -290 0
-235 -249 -263 -277 -291 0
-236 -250 -264 -278 -292 0
-237 -251 -265 -279 -293 0
-238 -252 -266 -280 -294 0
-239 -253 -267 -281 -295 0
-240 -254 -268 -282 -296 0
-241 -255 -269 -283 -297 0
-242 -256 -270 -284 -298 0
-243 -257 -271 -285 -299 0
-244 -258 -272 -286 -300 0
-245 -259 -273 -287 -301 0
-246 -260 -274 -288 -302 0
-247 -261 -275 -289 -303 0
-248 -262 -276 -290 -304 0
-249 -263 -277 -291 -305 0
-250 -264 -278 -292 -306 0
-251 -265 -279 -293 -307 0
-252 -266 -280 -294 -308 0
-253 -267 -281 -295 -309 0
-254 -268 -282 -296 -310 0
-255 -269 -283 -297 -311 0
-256 -270 -284 -298 -312 0
-257 -271 -285 -299 -313 0
-258 -272 -286 -300 -314 0
-259 -273 -287 -301 -315 0
-260 -274 -288 -302 -316 0
-261 -275 -289 -303 -317 0
-262 -276 -290 -304 -318 0
-263 -277 -291 -305 -319 0
-264 -278 -292 -306 -320 0
-265 -279 -293 -307 -321 0
-266 -280 -294 -308 -322 0
-267 -281 -295 -309 -323 0
-268 -282 -296 -310 -324 0
-269 -283 -297 -311 -325 0
-270 -284 -298 -312 -326 0
-271 -285 -299 -313 -327 0
-272 -286 -300 -314 -328 0
-273 -287 -301 -315 -329 0
-274 -288 -302 -316 -330 0
-275 -289 -303 -317 -331 0
-276 -290 -304 -318 -332 0
-277 -291 -305 -319 -333 0
-278 -292 -306 -320 -334 0
-279 -293 -307 -321 -335 0
-280 -294 -308 -322 -336 0
-281 -295 -309 -323 -337 0
-282 -296 -310 -324 -338 0
-283 -297 -311 -325 -339 0
-284 -298 -312 -326 -340 0
-285 -299 -313 -327 -341 0
-286 -300 -314 -328 -342 0
-287 -301 -315 -329 -343 0
-288 -302 -316 -330 -344 0
-289 -303 -317 -331 -345 0
-290 -304 -318 -332 -346 0
-291 -305 -319 -333 -347 0
-292 -306 -320 -334 -348 0
-293 -307 -321 -335 -349 0
-294 -308 -322 -336 -350 0
-295 -309 -323 -337 -351 0
-296 -310 -324 -338 -352 0
-297 -311 -325 -339 -353 0
-298 -312 -326 -340 -354 0
-299 -313 -327 -341 -355 0
-300 -314 -328 -342 -356 0
-1 -17 -33 -49 -65 0
-2 -18 -34 -50 -66 0
-3 -19 -35 -51 -67 0
-4 -20 -36 -52 -68 0
-5 -21 -37 -53 -69 0
-6 -22 -38 -54 -70 0
-7 -23 -39 -55 -71 0
-8 -24 -40 -56 -72 0
-9 -25 -41 -57 -73 0
-10 -26 -42 -58 -74 0
-11 -27 -43 -59 -75 0
-12 -28 -44 -60 -76 0
-13 -29 -45 -61 -77 0
-14 -30 -46 -62 -78 0
-15 -31 -47 -63 -79 0
-16 -32 -48 -64 -80 0
-17 -33 -49 -65 -81 0
-18 -34 -50 -66 -82 0
-19 -35 -51 -67 -83 0
-20 -36 -52 -68 -84 0
-21 -37 -53 -69 -85 0
-22 -38 -54 -70 -86 0
-23 -39 -55 -71 -87 0
-24 -40 -56 -72 -88 0
-25 -41 -57 -73 -89 0
-26 -42 -58 -74 -90 0
-27 -43 -59 -75 -91 0
-28 -44 -60 -76 -92 0
-29 -45 -61 -77 -93 0
-30 -46 -62 -78 -94 0
-31 -47 -63 -79 -95 0
-32 -48 -64 -80 -96 0
-33 -49 -65 -81 -97 0
-34 -50 -66 -82 -98 0
-35 -51 -67 -83 -99 0
-36 -52 -68 -84 -100 0
-37 -53 -69 -85 -101 0
-38 -54 -70 -86 -102 0
-39 -55 -71 -87 -103 0
-40 -56 -72 -88 -104 0
-41 -57 -73 -89 -105 0
-42 -58 -74 -90 -106 0
-43 -59 -75 -91 -107 0
-44 -60 -76 -92 -108 0
-45 -61 -77 -93 -109 0
-46 -62 -78 -94 -110 0
-47 -63 -79 -95 -111 0
-48 -64 -80 -96 -112 0
-49 -65 -81 -97 -113 0
-50 -66 -82 -98 -114 0
-51 -67 -83 -99 -115 0
-52 -68 -84 -100 -116 0
-53 -69 -85 -101 -117 0
-54 -70 -86 -102 -118 0
-55 -71 -87 -103 -119 0
-56 -72 -88 -104 -120 0
-57 -73 -89 -105 -121 0
-58 -74 -90 -106 -122 0
-59 -75 -91 -107 -123 0
-60 -76 -92 -108 -124 0
-61 -77 -93 -109 -125 0
-62 -78 -94 -110 -126 0
-63 -79 -95 -111 -127 0
-64 -80 -96 -112 -128 0
-65 -81 -97 -113 -129 0
-66 -82 -98 -114 -130 0
-67 -83 -99 -115 -131 0
-68 -84 -100 -116 -132 0
-69 -85 -101 -117 -133 0
-70 -86 -102 -118 -134 0
-71 -87 -103 -119 -135 0
-72 -88 -104 -120 -136 0
-73 -89 -105 -121 -137 0
-74 -90 -106 -122 -138 0
-75 -91 -107 -123 -139 0
-76 -92 -108 -124 -140 0
-77 -93 -109 -125 -141 0
-78 -94 -110 -126 -142 0
-79 -95 -111 -127 -143 0
-80 -96 -112 -128 -144 0
-81 -97 -113 -129 -145 0
-82 -98 -114 -130 -146 0
-83 -99 -115 -131 -147 0
-84 -100 -116 -132 -148 0
-85 -101 -117 -133 -149 0
-86 -102 -118 -134 -150 0
-87 -103 -119 -135 -151 0
-88 -104 -120 -136 -152 0
-89 -105 -121 -137 -153 0
-90 -106 -122 -138 -154 0
-91 -107 -123 -139 -155 0
-92 -108 -124 -140 -156 0
-93 -109 -125 -141 -157 0
-94 -110 -126 -142 -158 0
-95 -111 -127 -143 -159 0
-96 -112 -128 -144 -160 0
-97 -113 -129 -145 -161 0
-98 -114 -130 -146 -162 0
-99 -115 -131 -147 -163 0
-100 -116 -132 -148 -164 0
-101 -117 -133 -149 -165 0
-102 -118 -134 -150 -166 0
-103 -119 -135 -151 -167 0
-104 -120 -136 -152 -168 0
-105 -121 -137 -153 -169 0
-106 -122 -138 -154 -170 0
-107 -123 -139 -155 -171 0
-108 -124 -140 -156 -172 0
-109 -125 -141 -157 -173 0
-110 -126 -142 -158 -174 0
-111 -127 -143 -159 -175 0
-112 -128 -144 -160 -176 0
-113 -129 -145 -161 -177 0
-114 -130 -146 -162 -178 0
-115 -131 -147 -163 -179 0
-116 -132 -148 -164 -180 0
-117 -133 -149 -165 -181 0
-118 -134 -150 -166 -182 0
-119 -135 -151 -167 -183 0
-120 -136 -152 -168 -184 0
-121 -137 -153 -169 -185 0
-122 -138 -154 -170 -186 0
-123 -139 -155 -171 -187 0
-124 -140 -156 -172 -188 0
-125 -141 -157 -173 -189 0
-126 -142 -158 -174 -190 0
-127 -143 -159 -175 -191 0
-128 -144 -160 -176 -192 0
-129 -145 -161 -177 -193 0
-130 -146 -162 -178 -194 0
-131 -147 -163 -179 -195 0
-132 -148 -164 -180 -196 0
-133 -149 -165 -181 -197 0
-134 -150 -166 -182 -198 0
-135 -151 -167 -183 -199 0
-136 -152 -168 -184 -200 0
-137 -153 -169 -185 -201 0
-138 -154 -170 -186 -202 0
-139 -155 -171 -187 -203 0
-140 -156 -172 -188 -204 0
-141 -157 -173 -189 -205 0
-142 -158 -174 -190 -206 0
-143 -159 -175 -191 -207 0
-144 -160 -176 -192 -208 0
-145 -161 -177 -193 -209 0
-146 -162 -178 -194 -210 0
-147 -163 -179 -195 -211 0
-148 -164 -180 -196 -212 0
-149 -165 -181 -197 -213 0
-150 -166 -182 -198 -214 0
-151 -167 -183 -199 -215 0
-152 -168 -184 -200 -216 0
-153 -169 -185 -201 -217 0
-154 -170 -186 -202 -218 0
-155 -171 -187 -203 -219 0
-156 -172 -188 -204 -220 0
-157 -173 -189 -205 -221 0
-158 -174 -190 -206 -222 0
-159 -175 -191 -207 -223 0
-160 -176 -192 -208 -224 0
-161 -177 -193 -209 -225 0
-162 -178 -194 -210 -226 0
-163 -179 -195 -211 -227 0
-164 -180 -196 -212 -228 0
-165 -181 -197 -213 -229 0
-166 -182 -198 -214 -230 0
-167 -183 -199 -215 -231 0
-168 -184 -200 -216 -232 0
-169 -185 -201 -217 -233 0
-170 -186 -202 -218 -234 0
-171 -187 -203 -219 -235 0
-172 -188 -204 -220 -236 0
-173 -189 -205 -221 -237 0
-174 -190 -206 -222 -238 0
-175 -191 -207 -223 -239 0
-176 -192 -208 -224 -240 0
-177 -193 -209 -225 -241 0
-178 -194 -210 -226 -242 0
-179 -195 -211 -227 -243 0
-180 -196 -212 -228 -244 0
-181 -197 -213 -229 -245 0
-182 -198 -214 -230 -246 0
-183 -199 -215 -231 -247 0
-184 -200 -216 -232 -248 0
-185 -201 -217 -233 -249 0
-186 -202 -218 -234 -250 0
-187 -203 -219 -235 -251 0
-188 -204 -220 -236 -252 0
-189 -205 -221 -237 -253 0
-190 -206 -222 -238 -254 0
-191 -207 -223 -239 -255 0
-192 -208 -224 -240 -256 0
-193 -209 -225 -241 -257 0
-194 -210 -226 -242 -258 0
-195 -211 -227 -243 -259 0
-196 -212 -228 -244 -260 0
-197 -213 -229 -245 -261 0
-198 -214 -230 -246 -262 0
-199 -215 -231 -247 -263 0
-200 -216 -232 -248 -264 0
-201 -217 -233 -249 -265 0
-202 -218 -234 -250 -266 0
-203 -219 -235 -251 -267 0
-204 -220 -236 -252 -268 0
-205 -221 -237 -253 -269 0
-206 -222 -238 -254 -270 0
-207 -223 -239 -255 -271 0
-208 -224 -240 -256 -272 0
-209 -225 -241 -257 -273 0
-210 -226 -242 -258 -274 0
-211 -227 -243 -259 -275 0
-212 -228 -244 -260 -276 0
-213 -229 -245 -261 -277 0
-214 -230 -246 -262 -278 0
-215 -231 -247 -263 -279 0
-216 -232 -248 -264 -280 0
-217 -233 -249 -265 -281 0
-218 -234 -250 -266 -282 0
-219 -235 -251 -267 -283 0
-220 -236 -252 -268 -284 0
-221 -237 -253 -269 -285 0
-222 -238 -254 -270 -286 0
-223 -239 -255 -271 -287 0
-224 -240 -256 -272 -288 0
-225 -241 -257 -273 -289 0
-226 -242 -258 -274 -290 0
-227 -243 -259 -275 -291 0
-228 -244 -260 -276 -292 0
-229 -245 -261 -277 -293 0
-230 -246 -262 -278 -294 0
-231 -247 -263 -279 -295 0
-232 -248 -264 -280 -296 0
-233 -249 -265 -281 -297 0
-234 -250 -266 -282 -298 0
-235 -251 -267 -283 -299 0
-236 -252 -268 -284 -300 0
-237 -253 -269 -285 -301 0
-238 -254 -270 -286 -302 0
-239 -255 -271 -287 -303 0
-240 -256 -272 -288 -304 0
-241 -257 -273 -289 -305 0
-242 -258 -274 -290 -306 0
-243 -259 -275 -291 -307 0
-244 -260 -276 -292 -308 0
-245 -261 -277 -293 -309 0
-246 -262 -278 -294 -310 0
-247 -263 -279 -295 -311 0
-248 -264 -280 -296 -312 0
-249 -265 -281 -297 -313 0
-250 -266 -282 -298 -314 0
-251 -267 -283 -299 -315 0
-252 -268 -284 -300 -316 0
-253 -269 -285 -301 -317 0
-254 -270 -286 -302 -318 0
-255 -271 -287 -303 -319 0
-256 -272 -288 -304 -320 0
-257 -273 -289 -305 -321 0
-258 -274 -290 -306 -322 0
-259 -275 -291 -307 -323 0
-260 -276 -292 -308 -324 0
-261 -277 -293 -309 -325 0
-262 -278 -294 -310 -326 0
-263 -279 -295 -311 -327 0
-264 -280 -296 -312 -328 0
-265 -281 -297 -313 -329 0
-266 -282 -298 -314 -330 0
-267 -283 -299 -315 -331 0
-268 -284 -300 -316 -332 0
-269 -285 -301 -317 -333 0
-270 -286 -302 -318 -334 0
-271 -287 -303 -319 -335 0
-272 -288 -304 -320 -336 0
-273 -289 -305 -321 -337 0
-274 -290 -306 -322 -338 0
-275 -291 -307 -323 -339 0
-276 -292 -308 -324 -340 0
-277 -293 -309 -325 -341 0
-278 -294 -310 -326 -342 0
-279 -295 -311 -327 -343 0
-280 -296 -312 -328 -344 0
-281 -297 -313 -329 -345 0
-282 -298 -314 -330 -346 0
-283 -299 -315 -331 -347 0
-284 -300 -316 -332 -348 0
-285 -301 -317 -333 -349 0
-286 -302 -318 -334 -350 0
-287 -303 -319 -335 -351 0
-288 -304 -320 -336 -352 0
-289 -305 -321 -337 -353 0
-290 -306 -322 -338 -354 0
-291 -307 -323 -339 -355 0
-292 -308 -324 -340 -356 0
-1 -19 -37 -55 -73 0
-2 -20 -38 -56 -74 0
-3 -21 -39 -57 -75 0
-4 -22 -40 -58 -76 0
-5 -23 -41 -59 -77 0
-6 -24 -42 -60 -78 0
-7 -25 -43 -61 -79 0
-8 -26 -44 -62 -80 0
-9 -27 -45 -63 -81 0
-10 -28 -46 -64 -82 0
-11 -29 -47 -65 -83 0
-12 -30 -48 -66 -84 0
-13 -31 -49 -67 -85 0
-14 -32 -50 -68 -86 0
-15 -33 -51 -69 -87 0
-16 -34 -52 -70 -88 0
-17 -35 -53 -71 -89 0
-18 -36 -54 -72 -90 0
-19 -37 -55 -73 -91 0
-20 -38 -56 -74 -92 0
-21 -39 -57 -75 -93 0
-22 -40 -58 -76 -94 0
-23 -41 -59 -77 -95 0
-24 -42 -60 -78 -96 0
-25 -43 -61 -79 -97 0
-26 -44 -62 -80 -98 0
-27 -45 -63 -81 -99 0
-28 -46 -64 -82 -100 0
-29 -47 -65 -83 -101 0
-30 -48 -66 -84 -102 0
-31 -49 -67 -85 -103 0
-32 -50 -68 -86 -104 0
-33 -51 -69 -87 -105 0
-34 -52 -70 -88 -106 0
-35 -53 -71 -89 -107 0
-36 -54 -72 -90 -108 0
-37 -55 -73 -91 -109 0
-38 -56 -74 -92 -110 0
-39 -57 -75 -93 -111 0
-40 -58 -76 -94 -112 0
-41 -59 -77 -95 -113 0
-42 -60 -78 -96 -114 0
-43 -61 -79 -97 -115 0
-44 -62 -80 -98 -116 0
-45 -63 -81 -99 -117 0
-46 -64 -82 -100 -118 0
-47 -65 -83 -101 -119 0
-48 -66 -84 -102 -120 0
-49 -67 -85 -103 -121 0
-50 -68 -86 -104 -122 0
-51 -69 -87 -105 -123 0
-52 -70 -88 -106 -124 0
-53 -71 -89 -107 -125 0
-54 -72 -90 -108 -126 0
-55 -73 -91 -109 -127 0
-56 -74 -92 -110 -128 0
-57 -75 -93 -111 -129 0
-58 -76 -94 -112 -130 0
-59 -77 -95 -113 -131 0
-60 -78 -96 -114 -132 0
-61 -79 -97 -115 -133 0
-62 -80 -98 -116 -134 0
-63 -81 -99 -117 -135 0
-64 -82 -100 -118 -136 0
-65 -83 -101 -119 -137 0
-66 -84 -102 -120 -138 0
-67 -85 -103 -121 -139 0
-68 -86 -104 -122 -140 0
-69 -87 -105 -123 -141 0
-70 -88 -106 -124 -142 0
-71 -89 -107 -125 -143 0
-72 -90 -108 -126 -144 0
-73 -91 -109 -127 -145 0
-74 -92 -110 -128 -146 0
-75 -93 -111 -129 -147 0
-76 -94 -112 -130 -148 0
-77 -95 -113 -131 -149 0
-78 -96 -114 -132 -150 0
-79 -97 -115 -133 -151 0
-80 -98 -116 -134 -152 0
-81 -99 -117 -135 -153 0
-82 -100 -118 -136 -154 0
-83 -101 -119 -137 -155 0
-84 -102 -120 -138 -156 0
-85 -103 -121 -139 -157 0
-86 -104 -122 -140 -158 0
-87 -105 -123 -141 -159 0
-88 -106 -124 -142 -160 0
-89 -107 -125 -143 -161 0
-90 -108 -126 -144 -162 0
-91 -109 -127 -145 -163 0
-92 -110 -128 -146 -164 0
-93 -111 -129 -147 -165 0
-94 -112 -130 -148 -166 0
-95 -113 -131 -149 -167 0
-96 -114 -132 -150 -168 0
-97 -115 -133 -151 -169 0
-98 -116 -134 -152 -170 0
-99 -117 -135 -153 -171 0
-100 -118 -136 -154 -172 0
-101 -119 -137 -155 -173 0
-102 -120 -138 -156 -174 0
-103 -121 -139 -157 -175 0
-104 -122 -140 -158 -176 0
-105 -123 -141 -159 -177 0
-106 -124 -142 -160 -178 0
-107 -125 -143 -161 -179 0
-108 -126 -144 -162 -180 0
-109 -127 -145 -163 -181 0
-110 -128 -146 -164 -182 0
-111 -129 -147 -165 -183 0
-112 -130 -148 -166 -184 0
-113 -131 -149 -167 -185 0
-114 -132 -150 -168 -186 0
-115 -133 -151 -169 -187 0
-116 -134 -152 -170 -188 0
-117 -135 -153 -171 -189 0
-118 -136 -154 -172 -190 0
-119 -137 -155 -173 -191 0
-120 -138 -156 -174 -192 0
-121 -139 -157 -175 -193 0
-122 -140 -158 -176 -194 0
-123 -141 -159 -177 -195 0
-124 -142 -160 -178 -196 0
-125 -143 -161 -179 -197 0
-126 -144 -162 -180 -198 0
-127 -145 -163 -181 -199 0
-128 -146 -164 -182 -200 0
-129 -147 -165 -183 -201 0
-130 -148 -166 -184 -202 0
-131 -149 -167 -185 -203 0
-132 -150 -168 -186 -204 0
-133 -151 -169 -187 -205 0
-134 -152 -170 -188 -206 0
-135 -153 -171 -189 -207 0
-136 -154 -172 -190 -208 0
-137 -155 -173 -191 -209 0
-138 -156 -174 -192 -210 0
-139 -157 -175 -193 -211 0
-140 -158 -176 -194 -212 0
-141 -159 -177 -195 -213 0
-142 -160 -178 -196 -214 0
-143 -161 -179 -197 -215 0
-144 -162 -180 -198 -216 0
-145 -163 -181 -199 -217 0
-146 -164 -182 -200 -218 0
-147 -165 -183 -201 -219 0
-148 -166 -184 -202 -220 0
-149 -167 -185 -203 -221 0
-150 -168 -186 -204 -222 0
-151 -169 -187 -205 -223 0
-152 -170 -188 -206 -224 0
-153 -171 -189 -207 -225 0
-154 -172 -190 -208 -226 0
-155 -173 -191 -209 -227 0
-156 -174 -192 -210 -228 0
-157 -175 -193 -211 -229 0
-158 -176 -194 -212 -230 0
-159 -177 -195 -213 -231 0
-160 -178 -196 -214 -232 0
-161 -179 -197 -215 -233 0
-162 -180 -198 -216 -234 0
-163 -181 -199 -217 -235 0
-164 -182 -200 -218 -236 0
-165 -183 -201 -219 -237 0
-166 -184 -202 -220 -238 0
-167 -185 -203 -221 -239 0
-168 -186 -204 -222 -240 0
-169 -187 -205 -223 -241 0
-170 -188 -206 -224 -242 0
-171 -189 -207 -225 -243 0
-172 -190 -208 -226 -244 0
-173 -191 -209 -227 -245 0
-174 -192 -210 -228 -246 0
-175 -193 -211 -229 -247 0
-176 -194 -212 -230 -248 0
-177 -195 -213 -231 -249 0
-178 -196 -214 -232 -250 0
-179 -197 -215 -233 -251 0
-180 -198 -216 -234 -252 0
-181 -199 -217 -235 -253 0
-182 -200 -218 -236 -254 0
-183 -201 -219 -237 -255 0
-184 -202 -220 -238 -256 0
-185 -203 -221 -239 -257 0
-186 -204 -222 -240 -258 0
-187 -205 -223 -241 -259 0
-188 -206 -224 -242 -260 0
-189 -207 -225 -243 -261 0
-190 -208 -226 -244 -262 0
-191 -209 -227 -245 -263 0
-192 -210 -228 -246 -264 0
-193 -211 -229 -247 -265 0
-194 -212 -230 -248 -266 0
-195 -213 -231 -249 -267 0
-196 -214 -232 -250 -268 0
-197 -215 -233 -251 -269 0
-198 -216 -234 -252 -270 0
-199 -217 -235 -253 -271 0
-200 -218 -236 -254 -272 0
-201 -219 -237 -255 -273 0
-202 -220 -238 -256 -274 0
-203 -221 -239 -257 -275 0
-204 -222 -240 -258 -276 0
-205 -223 -241 -259 -277 0
-206 -224 -242 -260 -278 0
-207 -225 -243 -261 -279 0
-208 -226 -244 -262 -280 0
-209 -227 -245 -263 -281 0
-210 -228 -246 -264 -282 0
-211 -229 -247 -265 -283 0
-212 -230 -248 -266 -284 0
-213 -231 -249 -267 -285 0
-214 -232 -250 -268 -286 0
-215 -233 -251 -269 -287 0
-216 -234 -252 -270 -288 0
-217 -235 -253 -271 -289 0
-218 -236 -254 -272 -290 0
-219 -237 -255 -273 -291 0
-220 -238 -256 -274 -292 0
-221 -239 -257 -275 -293 0
-222 -240 -258 -276 -294 0
-223 -241 -259 -277 -295 0
-224 -242 -260 -278 -296 0
-225 -243 -261 -279 -297 0
-226 -244 -262 -280 -298 0
-227 -245 -263 -281 -299 0
-228 -246 -264 -282 -300 0
-229 -247 -265 -283 -301 0
-230 -248 -266 -284 -302 0
-231 -249 -267 -285 -303 0
-232 -250 -268 -286 -304 0
-233 -251 -269 -287 -305 0
-234 -252 -270 -288 -306 0
-235 -253 -271 -289 -307 0
-236 -254 -272 -290 -308 0
-237 -255 -273 -291 -309 0
-238 -256 -274 -292 -310 0
-239 -257 -275 -293 -311 0
-240 -258 -276 -294 -312 0
-241 -259 -277 -295 -313 0
-242 -260 -278 -296 -314 0
-243 -261 -279 -297 -315 0
-244 -262 -280 -298 -316 0
-245 -263 -281 -299 -317 0
-246 -264 -282 -300 -318 0
-247 -265 -283 -301 -319 0
-248 -266 -284 -302 -320 0
-249 -267 -285 -303 -321 0
-250 -268 -286 -304 -322 0
-251 -269 -287 -305 -323 0
-252 -270 -288 -306 -324 0
-253 -271 -289 -307 -325 0
-254 -272 -290 -308 -326 0
-255 -273 -291 -309 -327 0
-256 -274 -292 -310 -328 0
-257 -275 -293 -311 -329 0
-258 -276 -294 -312 -330 0
-259 -277 -295 -313 -331 0
-260 -278 -296 -314 -332 0
-261 -279 -297 -315 -333 0
-262 -280 -298 -316 -334 0
-263 -281 -299 -317 -335 0
-264 -282 -300 -318 -336 0
-265 -283 -301 -319 -337 0
-266 -284 -302 -320 -338 0
-267 -285 -303 -321 -339 0
-268 -286 -304 -322 -340 0
-269 -287 -305 -323 -341 0
-270 -288 -306 -324 -342 0
-271 -289 -307 -325 -343 0
-272 -290 -308 -326 -344 0
-273 -291 -309 -327 -345 0
-274 -292 -310 -328 -346 0
-275 -293 -311 -329 -347 0
-276 -294 -312 -330 -348 0
-277 -295 -313 -331 -349 0
-278 -296 -314 -332 -350 0
-279 -297 -315 -333 -351 0
-280 -298 -316 -334 -352 0
-281 -299 -317 -335 -353 0
-282 -300 -318 -336 -354 0
-283 -301 -319 -337 -355 0
-284 -302 -320 -338 -356 0
-1 -21 -41 -61 -81 0
-2 -22 -42 -62 -82 0
-3 -23 -43 -63 -83 0
-4 -24 -44 -64 -84 0
-5 -25 -45 -65 -85 0
-6 -26 -46 -66 -86 0
-7 -27 -47 -67 -87 0
-8 -28 -48 -68 -88 0
-9 -29 -49 -69 -89 0
-10 -30 -50 -70 -90 0
-11 -31 -51 -71 -91 0
-12 -32 -52 -72 -92 0
-13 -33 -53 -73 -93 0
-14 -34 -54 -74 -94 0
-15 -35 -55 -75 -95 0
-16 -36 -56 -76 -96 0
-17 -37 -57 -77 -97 0
-18 -38 -58 -78 -98 0
-19 -39 -59 -79 -99 0
-20 -40 -60 -80 -100 0
-21 -41 -61 -81 -101 0
-22 -42 -62 -82 -102 0
-23 -43 -63 -83 -103 0
-24 -44 -64 -84 -104 0
-25 -45 -65 -85 -105 0
-26 -46 -66 -86 -106 0
-27 -47 -67 -87 -107 0
-28 -48 -68 -88 -108 0
-29 -49 -69 -89 -109 0
-30 -50 -70 -90 -110 0
-31 -51 -71 -91 -111 0
-32 -52 -72 -92 -112 0
-33 -53 -73 -93 -113 0
-34 -54 -74 -94 -114 0
-35 -55 -75 -95 -115 0
-36 -56 -76 -96 -116 0
-37 -57 -77 -97 -117 0
-38 -58 -78 -98 -118 0
-39 -59 -79 -99 -119 0
-40 -60 -80 -100 -120 0
-41 -61 -81 -101 -121 0
-42 -62 -82 -102 -122 0
-43 -63 -83 -103 -123 0
-44 -64 -84 -104 -124 0
-45 -65 -85 -105 -125 0
-46 -66 -86 -106 -126 0
-47 -67 -87 -107 -127 0
-48 -68 -88 -108 -128 0
-49 -69 -89 -109 -129 0
-50 -70 -90 -110 -130 0
-51 -71 -91 -111 -131 0
-52 -72 -92 -112 -132 0
-53 -73 -93 -113 -133 0
-54 -74 -94 -114 -134 0
-55 -75 -95 -115 -135 0
-56 -76 -96 -116 -136 0
-57 -77 -97 -117 -137 0
-58 -78 -98 -118 -138 0
-59 -79 -99 -119 -139 0
-60 -80 -100 -120 -140 0
-61 -81 -101 -121 -141 0
-62 -82 -102 -122 -142 0
-63 -83 -103 -123 -143 0
-64 -84 -104 -124 -144 0
-65 -85 -105 -125 -145 0
-66 -86 -106 -126 -146 0
-67 -87 -107 -127 -147 0
-68 -88 -108 -128 -148 0
-69 -89 -109 -129 -149 0
-70 -90 -110 -130 -150 0
-71 -91 -111 -131 -151 0
-72 -92 -112 -132 -152 0
-73 -93 -113 -133 -153 0
-74 -94 -114 -134 -154 0
-75 -95 -115 -135 -155 0
-76 -96 -116 -136 -156 0
-77 -97 -117 -137 -157 0
-78 -98 -118 -138 -158 0
-79 -99 -119 -139 -159 0
-80 -100 -120 -140 -160 0
-81 -101 -121 -141 -161 0
-82 -102 -122 -142 -162 0
-83 -103 -123 -143 -163 0
-84 -104 -124 -144 -164 0
-85 -105 -125 -145 -165 0
-86 -106 -126 -146 -166 0
-87 -107 -127 -147 -167 0
-88 -108 -128 -148 -168 0
-89 -109 -129 -149 -169 0
-90 -110 -130 -150 -170 0
-91 -111 -131 -151 -171 0
-92 -112 -132 -152 -172 0
-93 -113 -133 -153 -173 0
-94 -114 -134 -154 -174 0
-95 -115 -135 -155 -175 0
-96 -116 -136 -156 -176 0
-97 -117 -137 -157 -177 0
-98 -118 -138 -158 -178 0
-99 -119 -139 -159 -179 0
-100 -120 -140 -160 -180 0
-101 -121 -141 -161 -181 0
-102 -122 -142 -162 -182 0
-103 -123 -143 -163 -183 0
-104 -124 -144 -164 -184 0
-105 -125 -145 -165 -185 0
-106 -126 -146 -166 -186 0
-107 -127 -147 -167 -187 0
-108 -128 -148 -168 -188 0
-109 -129 -149 -169 -189 0
-110 -130 -150 -170 -190 0
-111 -131 -151 -171 -191 0
-112 -132 -152 -172 -192 0
-113 -133 -153 -173 -193 0
-114 -134 -154 -174 -194 0
-115 -135 -155 -175 -195 0
-116 -136 -156 -176 -196 0
-117 -137 -157 -177 -197 0
-118 -138 -158 -178 -198 0
-119 -139 -159 -179 -199 0
-120 -140 -160 -180 -200 0
-121 -141 -161 -181 -201 0
-122 -142 -162 -182 -202 0
-123 -143 -163 -183 -203 0
-124 -144 -164 -184 -204 0
-125 -145 -165 -185 -205 0
-126 -146 -166 -186 -206 0
-127 -147 -167 -187 -207 0
-128 -148 -168 -188 -208 0
-129 -149 -169 -189 -209 0
-130 -150 -170 -190 -210 0
-131 -151 -171 -191 -211 0
-132 -152 -172 -192 -212 0
-133 -153 -173 -193 -213 0
-134 -154 -174 -194 -214 0
-135 -155 -175 -195 -215 0
-136 -156 -176 -196 -216 0
-137 -157 -177 -197 -217 0
-138 -158 -178 -198 -218 0
-139 -159 -179 -199 -219 0
-140 -160 -180 -200 -220 0
-141 -161 -181 -201 -221 0
-142 -162 -182 -202 -222 0
-143 -163 -183 -203 -223 0
-144 -164 -184 -204 -224 0
-145 -165 -185 -205 -225 0
-146 -166 -186 -206 -226 0
-147 -167 -187 -207 -227 0
-148 -168 -188 -208 -228 0
-149 -169 -189 -209 -229 0
-150 -170 -190 -210 -230 0
-151 -171 -191 -211 -231 0
-152 -172 -192 -212 -232 0
-153 -173 -193 -213 -233 0
-154 -174 -194 -214 -234 0
-155 -175 -195 -215 -235 0
-156 -176 -196 -216 -236 0
-157 -177 -197 -217 -237 0
-158 -178 -198 -218 -238 0
-159 -179 -199 -219 -239 0
-160 -180 -200 -220 -240 0
-161 -181 -201 -221 -241 0
-162 -182 -202 -222 -242 0
-163 -183 -203 -223 -243 0
-164 -184 -204 -224 -244 0
-165 -185 -205 -225 -245 0
-166 -186 -206 -226 -246 0
-167 -187 -207 -227 -247 0
-168 -188 -208 -228 -248 0
-169 -189 -209 -229 -249 0
-170 -190 -210 -230 -250 0
-171 -191 -211 -231 -251 0
-172 -192 -212 -232 -252 0
-173 -193 -213 -233 -253 0
-174 -194 -214 -234 -254 0
-175 -195 -215 -235 -255 0
-176 -196 -216 -236 -256 0
-177 -197 -217 -237 -257 0
-178 -198 -218 -238 -258 0
-179 -199 -219 -239 -259 0
-180 -200 -220 -240 -260 0
-181 -201 -221 -241 -261 0
-182 -202 -222 -242 -262 0
-183 -203 -223 -243 -263 0
-184 -204 -224 -244 -264 0
-185 -205 -225 -245 -265 0
-186 -206 -226 -246 -266 0
-187 -207 -227 -247 -267 0
-188 -208 -228 -248 -268 0
-189 -209 -229 -249 -269 0
-190 -210 -230 -250 -270 0
-191 -211 -231 -251 -271 0
-192 -212 -232 -252 -272 0
-193 -213 -233 -253 -273 0
-194 -214 -234 -254 -274 0
-195 -215 -235 -255 -275 0
-196 -216 -236 -256 -276 0
-197 -217 -237 -257 -277 0
-198 -218 -238 -258 -278 0
-199 -219 -239 -259 -279 0
-200 -220 -240 -260 -280 0
-201 -221 -241 -261 -281 0
-202 -222 -242 -262 -282 0
-203 -223 -243 -263 -283 0
-204 -224 -244 -264 -284 0
-205 -225 -245 -265 -285 0
-206 -226 -246 -266 -286 0
-207 -227 -247 -267 -287 0
-208 -228 -248 -268 -288 0
-209 -229 -249 -269 -289 0
-210 -230 -250 -270 -290 0
-211 -231 -251 -271 -291 0
-212 -232 -252 -272 -292 0
-213 -233 -253 -273 -293 0
-214 -234 -254 -274 -294 0
-215 -235 -255 -275 -295 0
-216 -236 -256 -276 -296 0
-217 -237 -257 -277 -297 0
-218 -238 -258 -278 -298 0
-219 -239 -259 -279 -299 0
-220 -240 -260 -280 -300 0
-221 -241 -261 -281 -301 0
-222 -242 -262 -282 -302 0
-223 -243 -263 -283 -303 0
-224 -244 -264 -284 -304 0
-225 -245 -265 -285 -305 0
-226 -246 -266 -286 -306 0
-227 -247 -267 -287 -307 0
-228 -248 -268 -288 -308 0
-229 -249 -269 -289 -309 0
-230 -250 -270 -290 -310 0
-231 -251 -271 -291 -311 0
-232 -252 -272 -292 -312 0
-233 -253 -273 -293 -313 0
-234 -254 -274 -294 -314 0
-235 -255 -275 -295 -315 0
-236 -256 -276 -296 -316 0
-237 -257 -277 -297 -317 0
-238 -258 -278 -298 -318 0
-239 -259 -279 -299 -319 0
-240 -260 -280 -300 -320 0
-241 -261 -281 -301 -321 0
-242 -262 -282 -302 -322 0
-243 -263 -283 -303 -323 0
-244 -264 -284 -304 -324 0
-245 -265 -285 -305 -325 0
-246 -266 -286 -306 -326 0
-247 -267 -287 -307 -327 0
-248 -268 -288 -308 -328 0
-249 -269 -289 -309 -329 0
-250 -270 -290 -310 -330 0
-251 -271 -291 -311 -331 0
-252 -272 -292 -312 -332 0
-253 -273 -293 -313 -333 0
-254 -274 -294 -314 -334 0
-255 -275 -295 -315 -335 0
-256 -276 -296 -316 -336 0
-257 -277 -297 -317 -337 0
-258 -278 -298 -318 -338 0
-259 -279 -299 -319 -339 0
-260 -280 -300 -320 -340 0
-261 -281 -301 -321 -341 0
-262 -282 -302 -322 -342 0
-263 -283 -303 -323 -343 0
-264 -284 -304 -324 -344 0
-265 -285 -305 -325 -345 0
-266 -286 -306 -326 -346 0
-267 -287 -307 -327 -347 0
-268 -288 -308 -328 -348 0
-269 -289 -309 -329 -349 0
-270 -290 -310 -330 -350 0
-271 -291 -311 -331 -351 0
-272 -292 -312 -332 -352 0
-273 -293 -313 -333 -353 0
-274 -294 -314 -334 -354 0
-275 -295 -315 -335 -355 0
-276 -296 -316 -336 -356 0
-1 -23 -45 -67 -89 0
-2 -24 -46 -68 -90 0
-3 -25 -47 -69 -91 0
-4 -26 -48 -70 -92 0
-5 -27 -49 -71 -93 0
-6 -28 -50 -72 -94 0
-7 -29 -51 -73 -95 0
-8 -30 -52 -74 -96 0
-9 -31 -53 -75 -97 0
-10 -32 -54 -76 -98 0
-11 -33 -55 -77 -99 0
-12 -34 -56 -78 -100 0
-13 -35 -57 -79 -101 0
-14 -36 -58 -80 -102 0
-15 -37 -59 -81 -103 0
-16 -38 -60 -82 -104 0
-17 -39 -61 -83 -105 0
-18 -40 -62 -84 -106 0
-19 -41 -63 -85 -107 0
-20 -42 -64 -86 -108 0
-21 -43 -65 -87 -109 0
-22 -44 -66 -88 -110 0
-23 -45 -67 -89 -111 0
-24 -46 -68 -90 -112 0
-25 -47 -69 -91 -113 0
-26 -48 -70 -92 -114 0
-27 -49 -71 -93 -115 0
-28 -50 -72 -94 -116 0
-29 -51 -73 -95 -117 0
-30 -52 -74 -96 -118 0
-31 -53 -75 -97 -119 0
-32 -54 -76 -98 -120 0
-33 -55 -77 -99 -121 0
-34 -56 -78 -100 -122 0
-35 -57 -79 -101 -123 0
-36 -58 -80 -102 -124 0
-37 -59 -81 -103 -125 0
-38 -60 -82 -104 -126 0
-39 -61 -83 -105 -127 0
-40 -62 -84 -106 -128 0
-41 -63 -85 -107 -129 0
-42 -64 -86 -108 -130 0
-43 -65 -87 -109 -131 0
-44 -66 -88 -110 -132 0
-45 -67 -89 -111 -133 0
-46 -68 -90 -112 -134 0
-47 -69 -91 -113 -135 0
-48 -70 -92 -114 -136 0
-49 -71 -93 -115 -137 0
-50 -72 -94 -116 -138 0
-51 -73 -95 -117 -139 0
-52 -74 -96 -118 -140 0
-53 -75 -97 -119 -141 0
-54 -76 -98 -120 -142 0
-55 -77 -99 -121 -143 0
-56 -78 -100 -122 -144 0
-57 -79 -101 -123 -145 0
-58 -80 -102 -124 -146 0
-59 -81 -103 -125 -147 0
-60 -82 -104 -126 -148 0
-61 -83 -105 -127 -149 0
-62 -84 -106 -128 -150 0
-63 -85 -107 -129 -151 0
-64 -86 -108 -130 -152 0
-65 -87 -109 -131 -153 0
-66 -88 -110 -132 -154 0
-67 -89 -111 -133 -155 0
-68 -90 -112 -134 -156 0
-69 -91 -113 -135 -157 0
-70 -92 -114 -136 -158 0
-71 -93 -115 -137 -159 0
-72 -94 -116 -138 -160 0
-73 -95 -117 -139 -161 0
-74 -96 -118 -140 -162 0
-75 -97 -119 -141 -163 0
-76 -98 -120 -142 -164 0
-77 -99 -121 -143 -165 0
-78 -100 -122 -144 -166 0
-79 -101 -123 -145 -167 0
-80 -102 -124 -146 -168 0
-81 -103 -125 -147 -169 0
-82 -104 -126 -148 -170 0
-83 -105 -127 -149 -171 0
-84 -106 -128 -150 -172 0
-85 -107 -129 -151 -173 0
-86 -108 -130 -152 -174 0
-87 -109 -131 -153 -175 0
-88 -110 -132 -154 -176 0
-89 -111 -133 -155 -177 0
-90 -112 -134 -156 -178 0
-91 -113 -135 -157 -179 0
-92 -114 -136 -158 -180 0
-93 -115 -137 -159 -181 0
-94 -116 -138 -160 -182 0
-95 -117 -139 -161 -183 0
-96 -118 -140 -162 -184 0
-97 -119 -141 -163 -185 0
-98 -120 -142 -164 -186 0
-99 -121 -143 -165 -187 0
-100 -122 -144 -166 -188 0
-101 -123 -145 -167 -189 0
-102 -124 -146 -168 -190 0
-103 -125 -147 -169 -191 0
-104 -126 -148 -170 -192 0
-105 -127 -149 -171 -193 0
-106 -128 -150 -172 -194 0
-107 -129 -151 -173 -195 0
-108 -130 -152 -174 -196 0
-109 -131 -153 -175 -197 0
-110 -132 -154 -176 -198 0
-111 -133 -155 -177 -199 0
-112 -134 -156 -178 -200 0
-113 -135 -157 -179 -201 0
-114 -136 -158 -180 -202 0
-115 -137 -159 -181 -203 0
-116 -138 -160 -182 -204 0
-117 -139 -161 -183 -205 0
-118 -140 -162 -184 -206 0
-119 -141 -163 -185 -207 0
-120 -142 -164 -186 -208 0
-121 -143 -165 -187 -209 0
-122 -144 -166 -188 -210 0
-123 -145 -167 -189 -211 0
-124 -146 -168 -190 -212 0
-125 -147 -169 -191 -213 0
-126 -148 -170 -192 -214 0
-127 -149 -171 -193 -215 0
-128 -150 -172 -194 -216 0
-129 -151 -173 -195 -217 0
-130 -152 -174 -196 -218 0
-131 -153 -175 -197 -219 0
-132 -154 -176 -198 -220 0
-133 -155 -177 -199 -221 0
-134 -156 -178 -200 -222 0
-135 -157 -179 -201 -223 0
-136 -158 -180 -202 -224 0
-137 -159 -181 -203 -225 0
-138 -160 -182 -204 -226 0
-139 -161 -183 -205 -227 0
-140 -162 -184 -206 -228 0
-141 -163 -185 -207 -229 0
-142 -164 -186 -208 -230 0
-143 -165 -187 -209 -231 0
-144 -166 -188 -210 -232 0
-145 -167 -189 -211 -233 0
-146 -168 -190 -212 -234 0
-147 -169 -191 -213 -235 0
-148 -170 -192 -214 -236 0
-149 -171 -193 -215 -237 0
-150 -172 -194 -216 -238 0
-151 -173 -195 -217 -239 0
-152 -174 -196 -218 -240 0
-153 -175 -197 -219 -241 0
-154 -176 -198 -220 -242 0
-155 -177 -199 -221 -243 0
-156 -178 -200 -222 -244 0
-157 -179 -201 -223 -245 0
-158 -180 -202 -224 -246 0
-159 -181 -203 -225 -247 0
-160 -182 -204 -226 -248 0
-161 -183 -205 -227 -249 0
-162 -184 -206 -228 -250 0
-163 -185 -207 -229 -251 0
-164 -186 -208 -230 -252 0
-165 -187 -209 -231 -253 0
-166 -188 -210 -232 -254 0
-167 -189 -211 -233 -255 0
-168 -190 -212 -234 -256 0
-169 -191 -213 -235 -257 0
-170 -192 -214 -236 -258 0
-171 -193 -215 -237 -259 0
-172 -194 -216 -238 -260 0
-173 -195 -217 -239 -261 0
-174 -196 -218 -240 -262 0
-175 -197 -219 -241 -263 0
-176 -198 -220 -242 -264 0
-177 -199 -221 -243 -265 0
-178 -200 -222 -244 -266 0
-179 -201 -223 -245 -267 0
-180 -202 -224 -246 -268 0
-181 -203 -225 -247 -269 0
-182 -204 -226 -248 -270 0
-183 -205 -227 -249 -271 0
-184 -206 -228 -250 -272 0
-185 -207 -229 -251 -273 0
-186 -208 -230 -252 -274 0
-187 -209 -231 -253 -275 0
-188 -210 -232 -254 -276 0
-189 -211 -233 -255 -277 0
-190 -212 -234 -256 -278 0
-191 -213 -235 -257 -279 0
-192 -214 -236 -258 -280 0
-193 -215 -237 -259 -281 0
-194 -216 -238 -260 -282 0
-195 -217 -239 -261 -283 0
-196 -218 -240 -262 -284 0
-197 -219 -241 -263 -285 0
-198 -220 -242 -264 -286 0
-199 -221 -243 -265 -287 0
-200 -222 -244 -266 -288 0
-201 -223 -245 -267 -289 0
-202 -224 -246 -268 -290 0
-203 -225 -247 -269 -291 0
-204 -226 -248 -270 -292 0
-205 -227 -249 -271 -293 0
-206 -228 -250 -272 -294 0
-207 -229 -251 -273 -295 0
-208 -230 -252 -274 -296 0
-209 -231 -253 -275 -297 0
-210 -232 -254 -276 -298 0
-211 -233 -255 -277 -299 0
-212 -234 -256 -278 -300 0
-213 -235 -257 -279 -301 0
-214 -236 -258 -280 -302 0
-215 -237 -259 -281 -303 0
-216 -238 -260 -282 -304 0
-217 -239 -261 -283 -305 0
-218 -240 -262 -284 -306 0
-219 -241 -263 -285 -307 0
-220 -242 -264 -286 -308 0
-221 -243 -265 -287 -309 0
-222 -244 -266 -288 -310 0
-223 -245 -267 -289 -311 0
-224 -246 -268 -290 -312 0
-225 -247 -269 -291 -313 0
-226 -248 -270 -292 -314 0
-227 -249 -271 -293 -315 0
-228 -250 -272 -294 -316 0
-229 -251 -273 -295 -317 0
-230 -252 -274 -296 -318 0
-231 -253 -275 -297 -319 0
-232 -254 -276 -298 -320 0
-233 -255 -277 -299 -321 0
-234 -256 -278 -300 -322 0
-235 -257 -279 -301 -323 0
-236 -258 -280 -302 -324 0
-237 -259 -281 -303 -325 0
-238 -260 -282 -304 -326 0
-239 -261 -283 -305 -327 0
-240 -262 -284 -306 -328 0
-241 -263 -285 -307 -329 0
-242 -264 -286 -308 -330 0
-243 -265 -287 -309 -331 0
-244 -266 -288 -310 -332 0
-245 -267 -289 -311 -333 0
-246 -268 -290 -312 -334 0
-247 -269 -291 -313 -335 0
-248 -270 -292 -314 -336 0
-249 -271 -293 -315 -337 0
-250 -272 -294 -316 -338 0
-251 -273 -295 -317 -339 0
-252 -274 -296 -318 -340 0
-253 -275 -297 -319 -341 0
-254 -276 -298 -320 -342 0
-255 -277 -299 -321 -343 0
-256 -278 -300 -322 -344 0
-257 -279 -301 -323 -345 0
-258 -280 -302 -324 -346 0
-259 -281 -303 -325 -347 0
-260 -282 -304 -326 -348 0
-261 -283 -305 -327 -349 0
-262 -284 -306 -328 -350 0
-263 -285 -307 -329 -351 0
-264 -286 -308 -330 -352 0
-265 -287 -309 -331 -353 0
-266 -288 -310 -332 -354 0
-267 -289 -311 -333 -355 0
-268 -290 -312 -334 -356 0
-1 -25 -49 -73 -97 0
-2 -26 -50 -74 -98 0
-3 -27 -51 -75 -99 0
-4 -28 -52 -76 -100 0
-5 -29 -53 -77 -101 0
-6 -30 -54 -78 -102 0
-7 -31 -55 -79 -103 0
-8 -32 -56 -80 -104 0
-9 -33 -57 -81 -105 0
-10 -34 -58 -82 -106 0
-11 -35 -59 -83 -107 0
-12 -36 -60 -84 -108 0
-13 -37 -61 -85 -109 0
-14 -38 -62 -86 -110 0
-15 -39 -63 -87 -111 0
-16 -40 -64 -88 -112 0
-17 -41 -65 -89 -113 0
-18 -42 -66 -90 -114 0
-19 -43 -67 -91 -115 0
-20 -44 -68 -92 -116 0
-21 -45 -69 -93 -117 0
-22 -46 -70 -94 -118 0
-23 -47 -71 -95 -119 0
-24 -48 -72 -96 -120 0
-25 -49 -73 -97 -121 0
-26 -50 -74 -98 -122 0
-27 -51 -75 -99 -123 0
-28 -52 -76 -100 -124 0
-29 -53 -77 -101 -125 0
-30 -54 -78 -102 -126 0
-31 -55 -79 -103 -127 0
-32 -56 -80 -104 -128 0
-33 -57 -81 -105 -129 0
-34 -58 -82 -106 -130 0
-35 -59 -83 -107 -131 0
-36 -60 -84 -108 -132 0
-37 -61 -85 -109 -133 0
-38 -62 -86 -110 -134 0
-39 -63 -87 -111 -135 0
-40 -64 -88 -112 -136 0
-41 -65 -89 -113 -137 0
-42 -66 -90 -114 -138 0
-43 -67 -91 -115 -139 0
-44 -68 -92 -116 -140 0
-45 -69 -93 -117 -141 0
-46 -70 -94 -118 -142 0
-47 -71 -95 -119 -143 0
-48 -72 -96 -120 -144 0
-49 -73 -97 -121 -145 0
-50 -74 -98 -122 -146 0
-51 -75 -99 -123 -147 0
-52 -76 -100 -124 -148 0
-53 -77 -101 -125 -149 0
-54 -78 -102 -126 -150 0
-55 -79 -103 -127 -151 0
-56 -80 -104 -128 -152 0
-57 -81 -105 -129 -153 0
-58 -82 -106 -130 -154 0
-59 -83 -107 -131 -155 0
-60 -84 -108 -132 -156 0
-61 -85 -109 -133 -157 0
-62 -86 -110 -134 -158 0
-63 -87 -111 -135 -159 0
-64 -88 -112 -136 -160 0
-65 -89 -113 -137 -161 0
-66 -90 -114 -138 -162 0
-67 -91 -115 -139 -163 0
-68 -92 -116 -140 -164 0
-69 -93 -117 -141 -165 0
-70 -94 -118 -142 -166 0
-71 -95 -119 -143 -167 0
-72 -96 -120 -144 -168 0
-73 -97 -121 -145 -169 0
-74 -98 -122 -146 -170 0
-75 -99 -123 -147 -171 0
-76 -100 -124 -148 -172 0
-77 -101 -125 -149 -173 0
-78 -102 -126 -150 -174 0
-79 -103 -127 -151 -175 0
-80 -104 -128 -152 -176 0
-81 -105 -129 -153 -177 0
-82 -106 -130 -154 -178 0
-83 -107 -131 -155 -179 0
-84 -108 -132 -156 -180 0
-85 -109 -133 -157 -181 0
-86 -110 -134 -158 -182 0
-87 -111 -135 -159 -183 0
-88 -112 -136 -160 -184 0
-89 -113 -137 -161 -185 0
-90 -114 -138 -162 -186 0
-91 -115 -139 -163 -187 0
-92 -116 -140 -164 -188 0
-93 -117 -141 -165 -189 0
-94 -118 -142 -166 -190 0
-95 -119 -143 -167 -191 0
-96 -120 -144 -168 -192 0
-97 -121 -145 -169 -193 0
-98 -122 -146 -170 -194 0
-99 -123 -147 -171 -195 0
-100 -124 -148 -172 -196 0
-101 -125 -149 -173 -197 0
-102 -126 -150 -174 -198 0
-103 -127 -151 -175 -199 0
-104 -128 -152 -176 -200 0
-105 -129 -153 -177 -201 0
-106 -130 -154 -178 -202 0
-107 -131 -155 -179 -203 0
-108 -132 -156 -180 -204 0
-109 -133 -157 -181 -205 0
-110 -134 -158 -182 -206 0
-111 -135 -159 -183 -207 0
-112 -136 -160 -184 -208 0
-113 -137 -161 -185 -209 0
-114 -138 -162 -186 -210 0
-115 -139 -163 -187 -211 0
-116 -140 -164 -188 -212 0
-117 -141 -165 -189 -213 0
-118 -142 -166 -190 -214 0
-119 -143 -167 -191 -215 0
-120 -144 -168 -192 -216 0
-121 -145 -169 -193 -217 0
-122 -146 -170 -194 -218 0
-123 -147 -171 -195 -219 0
-124 -148 -172 -196 -220 0
-125 -149 -173 -197 -221 0
-126 -150 -174 -198 -222 0
-127 -151 -175 -199 -223 0
-128 -152 -176 -200 -224 0
-129 -153 -177 -201 -225 0
-130 -154 -178 -202 -226 0
-131 -155 -179 -203 -227 0
-132 -156 -180 -204 -228 0
-133 -157 -181 -205 -229 0
-134 -158 -182 -206 -230 0
-135 -159 -183 -207 -231 0
-136 -160 -184 -208 -232 0
-137 -161 -185 -209 -233 0
-138 -162 -186 -210 -234 0
-139 -163 -187 -211 -235 0
-140 -164 -188 -212 -236 0
-141 -165 -189 -213 -237 0
-142 -166 -190 -214 -238 0
-143 -167 -191 -215 -239 0
-144 -168 -192 -216 -240 0
-145 -169 -193 -217 -241 0
-146 -170 -194 -218 -242 0
-147 -171 -195 -219 -243 0
-148 -172 -196 -220 -244 0
-149 -173 -197 -221 -245 0
-150 -174 -198 -222 -246 0
-151 -175 -199 -223 -247 0
-152 -176 -200 -224 -248 0
-153 -177 -201 -225 -249 0
-154 -178 -202 -226 -250 0
-155 -179 -203 -227 -251 0
-156 -180 -204 -228 -252 0
-157 -181 -205 -229 -253 0
-158 -182 -206 -230 -254 0
-159 -183 -207 -231 -255 0
-160 -184 -208 -232 -256 0
-161 -185 -209 -233 -257 0
-162 -186 -210 -234 -258 0
-163 -187 -211 -235 -259 0
-164 -188 -212 -236 -260 0
-165 -189 -213 -237 -261 0
-166 -190 -214 -238 -262 0
-167 -191 -215 -239 -263 0
-168 -192 -216 -240 -264 0
-169 -193 -217 -241 -265 0
-170 -194 -218 -242 -266 0
-171 -195 -219 -243 -267 0
-172 -196 -220 -244 -268 0
-173 -197 -221 -245 -269 0
-174 -198 -222 -246 -270 0
-175 -199 -223 -247 -271 0
-176 -200 -224 -248 -272 0
-177 -201 -225 -249 -273 0
-178 -202 -226 -250 -274 0
-179 -203 -227 -251 -275 0
-180 -204 -228 -252 -276 0
-181 -205 -229 -253 -277 0
-182 -206 -230 -254 -278 0
-183 -207 -231 -255 -279 0
-184 -208 -232 -256 -280 0
-185 -209 -233 -257 -281 0
-186 -210 -234 -258 -282 0
-187 -211 -235 -259 -283 0
-188 -212 -236 -260 -284 0
-189 -213 -237 -261 -285 0
-190 -214 -238 -262 -286 0
-191 -215 -239 -263 -287 0
-192 -216 -240 -264 -288 0
-193 -217 -241 -265 -289 0
-194 -218 -242 -266 -290 0
-195 -219 -243 -267 -291 0
-196 -220 -244 -268 -292 0
-197 -221 -245 -269 -293 0
-198 -222 -246 -270 -294 0
-199 -223 -247 -271 -295 0
-200 -224 -248 -272 -296 0
-201 -225 -249 -273 -297 0
-202 -226 -250 -274 -298 0
-203 -227 -251 -275 -299 0
-204 -228 -252 -276 -300 0
-205 -229 -253 -277 -301 0
-206 -230 -254 -278 -302 0
-207 -231 -255 -279 -303 0
-208 -232 -256 -280 -304 0
-209 -233 -257 -281 -305 0
-210 -234 -258 -282 -306 0
-211 -235 -259 -283 -307 0
-212 -236 -260 -284 -308 0
-213 -237 -261 -285 -309 0
-214 -238 -262 -286 -310 0
-215 -239 -263 -287 -311 0
-216 -240 -264 -288 -312 0
-217 -241 -265 -289 -313 0
-218 -242 -266 -290 -314 0
-219 -243 -267 -291 -315 0
-220 -244 -268 -292 -316 0
-221 -245 -269 -293 -317 0
-222 -246 -270 -294 -318 0
-223 -247 -271 -295 -319 0
-224 -248 -272 -296 -320 0
-225 -249 -273 -297 -321 0
-226 -250 -274 -298 -322 0
-227 -251 -275 -299 -323 0
-228 -252 -276 -300 -324 0
-229 -253 -277 -301 -325 0
-230 -254 -278 -302 -326 0
-231 -255 -279 -303 -327 0
-232 -256 -280 -304 -328 0
-233 -257 -281 -305 -329 0
-234 -258 -282 -306 -330 0
-235 -259 -283 -307 -331 0
-236 -260 -284 -308 -332 0
-237 -261 -285 -309 -333 0
-238 -262 -286 -310 -334 0
-239 -263 -287 -311 -335 0
-240 -264 -288 -312 -336 0
-241 -265 -289 -313 -337 0
-242 -266 -290 -314 -338 0
-243 -267 -291 -315 -339 0
-244 -268 -292 -316 -340 0
-245 -269 -293 -317 -341 0
-246 -270 -294 -318 -342 0
-247 -271 -295 -319 -343 0
-248 -272 -296 -320 -344 0
-249 -273 -297 -321 -345 0
-250 -274 -298 -322 -346 0
-251 -275 -299 -323 -347 0
-252 -276 -300 -324 -348 0
-253 -277 -301 -325 -349 0
-254 -278 -302 -326 -350 0
-255 -279 -303 -327 -351 0
-256 -280 -304 -328 -352 0
-257 -281 -305 -329 -353 0
-258 -282 -306 -330 -354 0
-259 -283 -307 -331 -355 0
-260 -284 -308 -332 -356 0
-1 -27 -53 -79 -105 0
-2 -28 -54 -80 -106 0
-3 -29 -55 -81 -107 0
-4 -30 -56 -82 -108 0
-5 -31 -57 -83 -109 0
-6 -32 -58 -84 -110 0
-7 -33 -59 -85 -111 0
-8 -34 -60 -86 -112 0
-9 -35 -61 -87 -113 0
-10 -36 -62 -88 -114 0
-11 -37 -63 -89 -115 0
-12 -38 -64 -90 -116 0
-13 -39 -65 -91 -117 0
-14 -40 -66 -92 -118 0
-15 -41 -67 -93 -119 0
-16 -42 -68 -94 -120 0
-17 -43 -69 -95 -121 0
-18 -44 -70 -96 -122 0
-19 -45 -71 -97 -123 0
-20 -46 -72 -98 -124 0
-21 -47 -73 -99 -125 0
-22 -48 -74 -100 -126 0
-23 -49 -75 -101 -127 0
-24 -50 -76 -102 -128 0
-25 -51 -77 -103 -129 0
-26 -52 -78 -104 -130 0
-27 -53 -79 -105 -131 0
-28 -54 -80 -106 -132 0
-29 -55 -81 -107 -133 0
-30 -56 -82 -108 -134 0
-31 -57 -83 -109 -135 0
-32 -58 -84 -110 -136 0
-33 -59 -85 -111 -137 0
-34 -60 -86 -112 -138 0
-35 -61 -87 -113 -139 0
-36 -62 -88 -114 -140 0
-37 -63 -89 -115 -141 0
-38 -64 -90 -116 -142 0
-39 -65 -91 -117 -143 0
-40 -66 -92 -118 -144 0
-41 -67 -93 -119 -145 0
-42 -68 -94 -120 -146 0
-43 -69 -95 -121 -147 0
-44 -70 -96 -122 -148 0
-45 -71 -97 -123 -149 0
-46 -72 -98 -124 -150 0
-47 -73 -99 -125 -151 0
-48 -74 -100 -126 -152 0
-49 -75 -101 -127 -153 0
-50 -76 -102 -128 -154 0
-51 -77 -103 -129 -155 0
-52 -78 -104 -130 -156 0
-53 -79 -105 -131 -157 0
-54 -80 -106 -132 -158 0
-55 -81 -107 -133 -159 0
-56 -82 -108 -134 -160 0
-57 -83 -109 -135 -161 0
-58 -84 -110 -136 -162 0
-59 -85 -111 -137 -163 0
-60 -86 -112 -138 -164 0
-61 -87 -113 -139 -165 0
-62 -88 -114 -140 -166 0
-63 -89 -115 -141 -167 0
-64 -90 -116 -142 -168 0
-65 -91 -117 -143 -169 0
-66 -92 -118 -144 -170 0
-67 -93 -119 -145 -171 0
-68 -94 -120 -146 -172 0
-69 -95 -121 -147 -173 0
-70 -96 -122 -148 -174 0
-71 -97 -123 -149 -175 0
-72 -98 -124 -150 -176 0
-73 -99 -125 -151 -177 0
-74 -100 -126 -152 -178 0
-75 -101 -127 -153 -179 0
-76 -102 -128 -154 -180 0
-77 -103 -129 -155 -181 0
-78 -104 -130 -156 -182 0
-79 -105 -131 -157 -183 0
-80 -106 -132 -158 -184 0
-81 -107 -133 -159 -185 0
-82 -108 -134 -160 -186 0
-83 -109 -135 -161 -187 0
-84 -110 -136 -162 -188 0
-85 -111 -137 -163 -189 0
-86 -112 -138 -164 -190 0
-87 -113 -139 -165 -191 0
-88 -114 -140 -166 -192 0
-89 -115 -141 -167 -193 0
-90 -116 -142 -168 -194 0
-91 -117 -143 -169 -195 0
-92 -118 -144 -170 -196 0
-93 -119 -145 -171 -197 0
-94 -120 -146 -172 -198 0
-95 -121 -147 -173 -199 0
-96 -122 -148 -174 -200 0
-97 -123 -149 -175 -201 0
-98 -124 -150 -176 -202 0
-99 -125 -151 -177 -203 0
-100 -126 -152 -178 -204 0
-101 -127 -153 -179 -205 0
-102 -128 -154 -180 -206 0
-103 -129 -155 -181 -207 0
-104 -130 -156 -182 -208 0
-105 -131 -157 -183 -209 0
-106 -132 -158 -184 -210 0
-107 -133 -159 -185 -211 0
-108 -134 -160 -186 -212 0
-109 -135 -161 -187 -213 0
-110 -136 -162 -188 -214 0
-111 -137 -163 -189 -215 0
-112 -138 -164 -190 -216 0
-113 -139 -165 -191 -217 0
-114 -140 -166 -192 -218 0
-115 -141 -167 -193 -219 0
-116 -142 -168 -194 -220 0
-117 -143 -169 -195 -221 0
-118 -144 -170 -196 -222 0
-119 -145 -171 -197 -223 0
-120 -146 -172 -198 -224 0
-121 -147 -173 -199 -225 0
-122 -148 -174 -200 -226 0
-123 -149 -175 -201 -227 0
-124 -150 -176 -202 -228 0
-125 -151 -177 -203 -229 0
-126 -152 -178 -204 -230 0
-127 -153 -179 -205 -231 0
-128 -154 -180 -206 -232 0
-129 -155 -181 -207 -233 0
-130 -156 -182 -208 -234 0
-131 -157 -183 -209 -235 0
-132 -158 -184 -210 -236 0
-133 -159 -185 -211 -237 0
-134 -160 -186 -212 -238 0
-135 -161 -187 -213 -239 0
-136 -162 -188 -214 -240 0
-137 -163 -189 -215 -241 0
-138 -164 -190 -216 -242 0
-139 -165 -191 -217 -243 0
-140 -166 -192 -218 -244 0
-141 -167 -193 -219 -245 0
-142 -168 -194 -220 -246 0
-143 -169 -195 -221 -247 0
-144 -170 -196 -222 -248 0
-145 -171 -197 -223 -249 0
-146 -172 -198 -224 -250 0
-147 -173 -199 -225 -251 0
-148 -174 -200 -226 -252 0
-149 -175 -201 -227 -253 0
-150 -176 -202 -228 -254 0
-151 -177 -203 -229 -255 0
-152 -178 -204 -230 -256 0
-153 -179 -205 -231 -257 0
-154 -180 -206 -232 -258 0
-155 -181 -207 -233 -259 0
-156 -182 -208 -234 -260 0
-157 -183 -209 -235 -261 0
-158 -184 -210 -236 -262 0
-159 -185 -211 -237 -263 0
-160 -186 -212 -238 -264 0
-161 -187 -213 -239 -265 0
-162 -188 -214 -240 -266 0
-163 -189 -215 -241 -267 0
-164 -190 -216 -242 -268 0
-165 -191 -217 -243 -269 0
-166 -192 -218 -244 -270 0
-167 -193 -219 -245 -271 0
-168 -194 -220 -246 -272 0
-169 -195 -221 -247 -273 0
-170 -196 -222 -248 -274 0
-171 -197 -223 -249 -275 0
-172 -198 -224 -250 -276 0
-173 -199 -225 -251 -277 0
-174 -200 -226 -252 -278 0
-175 -201 -227 -253 -279 0
-176 -202 -228 -254 -280 0
-177 -203 -229 -255 -281 0
-178 -204 -230 -256 -282 0
-179 -205 -231 -257 -283 0
-180 -206 -232 -258 -284 0
-181 -207 -233 -259 -285 0
-182 -208 -234 -260 -286 0
-183 -209 -235 -261 -287 0
-184 -210 -236 -262 -288 0
-185 -211 -237 -263 -289 0
-186 -212 -238 -264 -290 0
-187 -213 -239 -265 -291 0
-188 -214 -240 -266 -292 0
-189 -215 -241 -267 -293 0
-190 -216 -242 -268 -294 0
-191 -217 -243 -269 -295 0
-192 -218 -244 -270 -296 0
-193 -219 -245 -271 -297 0
-194 -220 -246 -272 -298 0
-195 -221 -247 -273 -299 0
-196 -222 -248 -274 -300 0
-197 -223 -249 -275 -301 0
-198 -224 -250 -276 -302 0
-199 -225 -251 -277 -303 0
-200 -226 -252 -278 -304 0
-201 -227 -253 -279 -305 0
-202 -228 -254 -280 -306 0
-203 -229 -255 -281 -307 0
-204 -230 -256 -282 -308 0
-205 -231 -257 -283 -309 0
-206 -232 -258 -284 -310 0
-207 -233 -259 -285 -311 0
-208 -234 -260 -286 -312 0
-209 -235 -261 -287 -313 0
-210 -236 -262 -288 -314 0
-211 -237 -263 -289 -315 0
-212 -238 -264 -290 -316 0
-213 -239 -265 -291 -317 0
-214 -240 -266 -292 -318 0
-215 -241 -267 -293 -319 0
-216 -242 -268 -294 -320 0
-217 -243 -269 -295 -321 0
-218 -244 -270 -296 -322 0
-219 -245 -271 -297 -323 0
-220 -246 -272 -298 -324 0
-221 -247 -273 -299 -325 0
-222 -248 -274 -300 -326 0
-223 -249 -275 -301 -327 0
-224 -250 -276 -302 -328 0
-225 -251 -277 -303 -329 0
-226 -252 -278 -304 -330 0
-227 -253 -279 -305 -331 0
-228 -254 -280 -306 -332 0
-229 -255 -281 -307 -333 0
-230 -256 -282 -308 -334 0
-231 -257 -283 -309 -335 0
-232 -258 -284 -310 -336 0
-233 -259 -285 -311 -337 0
-234 -260 -286 -312 -338 0
-235 -261 -287 -313 -339 0
-236 -262 -288 -314 -340 0
-237 -263 -289 -315 -341 0
-238 -264 -290 -316 -342 0
-239 -265 -291 -317 -343 0
-240 -266 -292 -318 -344 0
-241 -267 -293 -319 -345 0
-242 -268 -294 -320 -346 0
-243 -269 -295 -321 -347 0
-244 -270 -296 -322 -348 0
-245 -271 -297 -323 -349 0
-246 -272 -298 -324 -350 0
-247 -273 -299 -325 -351 0
-248 -274 -300 -326 -352 0
-249 -275 -301 -327 -353 0
-250 -276 -302 -328 -354 0
-251 -277 -303 -329 -355 0
-252 -278 -304 -330 -356 0
-1 -29 -57 -85 -113 0
-2 -30 -58 -86 -114 0
-3 -31 -59 -87 -115 0
-4 -32 -60 -88 -116 0
-5 -33 -61 -89 -117 0
-6 -34 -62 -90 -118 0
-7 -35 -63 -91 -119 0
-8 -36 -64 -92 -120 0
-9 -37 -65 -93 -121 0
-10 -38 -66 -94 -122 0
-11 -39 -67 -95 -123 0
-12 -40 -68 -96 -124 0
-13 -41 -69 -97 -125 0
-14 -42 -70 -98 -126 0
-15 -43 -71 -99 -127 0
-16 -44 -72 -100 -128 0
-17 -45 -73 -101 -129 0
-18 -46 -74 -102 -130 0
-19 -47 -75 -103 -131 0
-20 -48 -76 -104 -132 0
-21 -49 -77 -105 -133 0
-22 -50 -78 -106 -134 0
-23 -51 -79 -107 -135 0
-24 -52 -80 -108 -136 0
-25 -53 -81 -109 -137 0
-26 -54 -82 -110 -138 0
-27 -55 -83 -111 -139 0
-28 -56 -84 -112 -140 0
-29 -57 -85 -113 -141 0
-30 -58 -86 -114 -142 0
-31 -59 -87 -115 -143 0
-32 -60 -88 -116 -144 0
-33 -61 -89 -117 -145 0
-34 -62 -90 -118 -146 0
-35 -63 -91 -119 -147 0
-36 -64 -92 -120 -148 0
-37 -65 -93 -121 -149 0
-38 -66 -94 -122 -150 0
-39 -67 -95 -123 -151 0
-40 -68 -96 -124 -152 0
-41 -69 -97 -125 -153 0
-42 -70 -98 -126 -154 0
-43 -71 -99 -127 -155 0
-44 -72 -100 -128 -156 0
-45 -73 -101 -129 -157 0
-46 -74 -102 -130 -158 0
-47 -75 -103 -131 -159 0
-48 -76 -104 -132 -160 0
-49 -77 -105 -133 -161 0
-50 -78 -106 -134 -162 0
-51 -79 -107 -135 -163 0
-52 -80 -108 -136 -164 0
-53 -81 -109 -137 -165 0
-54 -82 -110 -138 -166 0
-55 -83 -111 -139 -167 0
-56 -84 -112 -140 -168 0
-57 -85 -113 -141 -169 0
-58 -86 -114 -142 -170 0
-59 -87 -115 -143 -171 0
-60 -88 -116 -144 -172 0
-61 -89 -117 -145 -173 0
-62 -90 -118 -146 -174 0
-63 -91 -119 -147 -175 0
-64 -92 -120 -148 -176 0
-65 -93 -121 -149 -177 0
-66 -94 -122 -150 -178 0
-67 -95 -123 -151 -179 0
-68 -96 -124 -152 -180 0
-69 -97 -125 -153 -181 0
-70 -98 -126 -154 -182 0
-71 -99 -127 -155 -183 0
-72 -100 -128 -156 -184 0
-73 -101 -129 -157 -185 0
-74 -102 -130 -158 -186 0
-75 -103 -131 -159 -187 0
-76 -104 -132 -160 -188 0
-77 -105 -133 -161 -189 0
-78 -106 -134 -162 -190 0
-79 -107 -135 -163 -191 0
-80 -108 -136 -164 -192 0
-81 -109 -137 -165 -193 0
-82 -110 -138 -166 -194 0
-83 -111 -139 -167 -195 0
-84 -112 -140 -168 -196 0
-85 -113 -141 -169 -197 0
-86 -114 -142 -170 -198 0
-87 -115 -143 -171 -199 0
-88 -116 -144 -172 -200 0
-89 -117 -145 -173 -201 0
-90 -118 -146 -174 -202 0
-91 -119 -147 -175 -203 0
-92 -120 -148 -176 -204 0
-93 -121 -149 -177 -205 0
-94 -122 -150 -178 -206 0
-95 -123 -151 -179 -207 0
-96 -124 -152 -180 -208 0
-97 -125 -153 -181 -209 0
-98 -126 -154 -182 -210 0
-99 -127 -155 -183 -211 0
-100 -128 -156 -184 -212 0
-101 -129 -157 -185 -213 0
-102 -130 -158 -186 -214 0
-103 -131 -159 -187 -215 0
-104 -132 -160 -188 -216 0
-105 -133 -161 -189 -217 0
-106 -134 -162 -190 -218 0
-107 -135 -163 -191 -219 0
-108 -136 -164 -192 -220 0
-109 -137 -165 -193 -221 0
-110 -138 -166 -194 -222 0
-111 -139 -167 -195 -223 0
-112 -140 -168 -196 -224 0
-113 -141 -169 -197 -225 0
-114 -142 -170 -198 -226 0
-115 -143 -171 -199 -227 0
-116 -144 -172 -200 -228 0
-117 -145 -173 -201 -229 0
-118 -146 -174 -202 -230 0
-119 -147 -175 -203 -231 0
-120 -148 -176 -204 -232 0
-121 -149 -177 -205 -233 0
-122 -150 -178 -206 -234 0
-123 -151 -179 -207 -235 0
-124 -152 -180 -208 -236 0
-125 -153 -181 -209 -237 0
-126 -154 -182 -210 -238 0
-127 -155 -183 -211 -239 0
-128 -156 -184 -212 -240 0
-129 -157 -185 -213 -241 0
-130 -158 -186 -214 -242 0
-131 -159 -187 -215 -243 0
-132 -160 -188 -216 -244 0
-133 -161 -189 -217 -245 0
-134 -162 -190 -218 -246 0
-135 -163 -191 -219 -247 0
-136 -164 -192 -220 -248 0
-137 -165 -193 -221 -249 0
-138 -166 -194 -222 -250 0
-139 -167 -195 -223 -251 0
-140 -168 -196 -224 -252 0
-141 -169 -197 -225 -253 0
-142 -170 -198 -226 -254 0
-143 -171 -199 -227 -255 0
-144 -172 -200 -228 -256 0
-145 -173 -201 -229 -257 0
-146 -174 -202 -230 -258 0
-147 -175 -203 -231 -259 0
-148 -176 -204 -232 -260 0
-149 -177 -205 -233 -261 0
-150 -178 -206 -234 -262 0
-151 -179 -207 -235 -263 0
-152 -180 -208 -236 -264 0
-153 -181 -209 -237 -265 0
-154 -182 -210 -238 -266 0
-155 -183 -211 -239 -267 0
-156 -184 -212 -240 -268 0
-157 -185 -213 -241 -269 0
-158 -186 -214 -242 -270 0
-159 -187 -215 -243 -271 0
-160 -188 -216 -244 -272 0
-161 -189 -217 -245 -273 0
-162 -190 -218 -246 -274 0
-163 -191 -219 -247 -275 0
-164 -192 -220 -248 -276 0
-165 -193 -221 -249 -277 0
-166 -194 -222 -250 -278 0
-167 -195 -223 -251 -279 0
-168 -196 -224 -252 -280 0
-169 -197 -225 -253 -281 0
-170 -198 -226 -254 -282 0
-171 -199 -227 -255 -283 0
-172 -200 -228 -256 -284 0
-173 -201 -229 -257 -285 0
-174 -202 -230 -258 -286 0
-175 -203 -231 -259 -287 0
-176 -204 -232 -260 -288 0
-177 -205 -233 -261 -289 0
-178 -206 -234 -262 -290 0
-179 -207 -235 -263 -291 0
-180 -208 -236 -264 -292 0
-181 -209 -237 -265 -293 0
-182 -210 -238 -266 -294 0
-183 -211 -239 -267 -295 0
-184 -212 -240 -268 -296 0
-185 -213 -241 -269 -297 0
-186 -214 -242 -270 -298 0
-187 -215 -243 -271 -299 0
-188 -216 -244 -272 -300 0
-189 -217 -245 -273 -301 0
-190 -218 -246 -274 -302 0
-191 -219 -247 -275 -303 0
-192 -220 -248 -276 -304 0
-193 -221 -249 -277 -305 0
-194 -222 -250 -278 -306 0
-195 -223 -251 -279 -307 0
-196 -224 -252 -280 -308 0
-197 -225 -253 -281 -309 0
-198 -226 -254 -282 -310 0
-199 -227 -255 -283 -311 0
-200 -228 -256 -284 -312 0
-201 -229 -257 -285 -313 0
-202 -230 -258 -286 -314 0
-203 -231 -259 -287 -315 0
-204 -232 -260 -288 -316 0
-205 -233 -261 -289 -317 0
-206 -234 -262 -290 -318 0
-207 -235 -263 -291 -319 0
-208 -236 -264 -292 -320 0
-209 -237 -265 -293 -321 0
-210 -238 -266 -294 -322 0
-211 -239 -267 -295 -323 0
-212 -240 -268 -296 -324 0
-213 -241 -269 -297 -325 0
-214 -242 -270 -298 -326 0
-215 -243 -271 -299 -327 0
-216 -244 -272 -300 -328 0
-217 -245 -273 -301 -329 0
-218 -246 -274 -302 -330 0
-219 -247 -275 -303 -331 0
-220 -248 -276 -304 -332 0
-221 -249 -277 -305 -333 0
-222 -250 -278 -306 -334 0
-223 -251 -279 -307 -335 0
-224 -252 -280 -308 -336 0
-225 -253 -281 -309 -337 0
-226 -254 -282 -310 -338 0
-227 -255 -283 -311 -339 0
-228 -256 -284 -312 -340 0
-229 -257 -285 -313 -341 0
-230 -258 -286 -314 -342 0
-231 -259 -287 -315 -343 0
-232 -260 -288 -316 -344 0
-233 -261 -289 -317 -345 0
-234 -262 -290 -318 -346 0
-235 -263 -291 -319 -347 0
-236 -264 -292 -320 -348 0
-237 -265 -293 -321 -349 0
-238 -266 -294 -322 -350 0
-239 -267 -295 -323 -351 0
-240 -268 -296 -324 -352 0
-241 -269 -297 -325 -353 0
-242 -270 -298 -326 -354 0
-243 -271 -299 -327 -355 0
-244 -272 -300 -328 -356 0
-1 -31 -61 -91 -121 0
-2 -32 -62 -92 -122 0
-3 -33 -63 -93 -123 0
-4 -34 -64 -94 -124 0
-5 -35 -65 -95 -125 0
-6 -36 -66 -96 -126 0
-7 -37 -67 -97 -127 0
-8 -38 -68 -98 -128 0
-9 -39 -69 -99 -129 0
-10 -40 -70 -100 -130 0
-11 -41 -71 -101 -131 0
-12 -42 -72 -102 -132 0
-13 -43 -73 -103 -133 0
-14 -44 -74 -104 -134 0
-15 -45 -75 -105 -135 0
-16 -46 -76 -106 -136 0
-17 -47 -77 -107 -137 0
-18 -48 -78 -108 -138 0
-19 -49 -79 -109 -139 0
-20 -50 -80 -110 -140 0
-21 -51 -81 -111 -141 0
-22 -52 -82 -112 -142 0
-23 -53 -83 -113 -143 0
-24 -54 -84 -114 -144 0
-25 -55 -85 -115 -145 0
-26 -56 -86 -116 -146 0
-27 -57 -87 -117 -147 0
-28 -58 -88 -118 -148 0
-29 -59 -89 -119 -149 0
-30 -60 -90 -120 -150 0
-31 -61 -91 -121 -151 0
-32 -62 -92 -122 -152 0
-33 -63 -93 -123 -153 0
-34 -64 -94 -124 -154 0
-35 -65 -95 -125 -155 0
-36 -66 -96 -126 -156 0
-37 -67 -97 -127 -157 0
-38 -68 -98 -128 -158 0
-39 -69 -99 -129 -159 0
-40 -70 -100 -130 -160 0
-41 -71 -101 -131 -161 0
-42 -72 -102 -132 -162 0
-43 -73 -103 -133 -163 0
-44 -74 -104 -134 -164 0
-45 -75 -105 -135 -165 0
-46 -76 -106 -136 -166 0
-47 -77 -107 -137 -167 0
-48 -78 -108 -138 -168 0
-49 -79 -109 -139 -169 0
-50 -80 -110 -140 -170 0
-51 -81 -111 -141 -171 0
-52 -82 -112 -142 -172 0
-53 -83 -113 -143 -173 0
-54 -84 -114 -144 -174 0
-55 -85 -115 -145 -175 0
-56 -86 -116 -146 -176 0
-57 -87 -117 -147 -177 0
-58 -88 -118 -148 -178 0
-59 -89 -119 -149 -179 0
-60 -90 -120 -150 -180 0
-61 -91 -121 -151 -181 0
-62 -92 -122 -152 -182 0
-63 -93 -123 -153 -183 0
-64 -94 -124 -154 -184 0
-65 -95 -125 -155 -185 0
-66 -96 -126 -156 -186 0
-67 -97 -127 -157 -187 0
-68 -98 -128 -158 -188 0
-69 -99 -129 -159 -189 0
-70 -100 -130 -160 -190 0
-71 -101 -131 -161 -191 0
-72 -102 -132 -162 -192 0
-73 -103 -133 -163 -193 0
-74 -104 -134 -164 -194 0
-75 -105 -135 -165 -195 0
-76 -106 -136 -166 -196 0
-77 -107 -137 -167 -197 0
-78 -108 -138 -168 -198 0
-79 -109 -139 -169 -199 0
-80 -110 -140 -170 -200 0
-81 -111 -141 -171 -201 0
-82 -112 -142 -172 -202 0
-83 -113 -143 -173 -203 0
-84 -114 -144 -174 -204 0
-85 -115 -145 -175 -205 0
-86 -116 -146 -176 -206 0
-87 -117 -147 -177 -207 0
-88 -118 -148 -178 -208 0
-89 -119 -149 -179 -209 0
-90 -120 -150 -180 -210 0
-91 -121 -151 -181 -211 0
-92 -122 -152 -182 -212 0
-93 -123 -153 -183 -213 0
-94 -124 -154 -184 -214 0
-95 -125 -155 -185 -215 0
-96 -126 -156 -186 -216 0
-97 -127 -157 -187 -217 0
-98 -128 -158 -188 -218 0
-99 -129 -159 -189 -219 0
-100 -130 -160 -190 -220 0
-101 -131 -161 -191 -221 0
-102 -132 -162 -192 -222 0
-103 -133 -163 -193 -223 0
-104 -134 -164 -194 -224 0
-105 -135 -165 -195 -225 0
-106 -136 -166 -196 -226 0
-107 -137 -167 -197 -227 0
-108 -138 -168 -198 -228 0
-109 -139 -169 -199 -229 0
-110 -140 -170 -200 -230 0
-111 -141 -171 -201 -231 0
-112 -142 -172 -202 -232 0
-113 -143 -173 -203 -233 0
-114 -144 -174 -204 -234 0
-115 -145 -175 -205 -235 0
-116 -146 -176 -206 -236 0
-117 -147 -177 -207 -237 0
-118 -148 -178 -208 -238 0
-119 -149 -179 -209 -239 0
-120 -150 -180 -210 -240 0
-121 -151 -181 -211 -241 0
-122 -152 -182 -212 -242 0
-123 -153 -183 -213 -243 0
-124 -154 -184 -214 -244 0
-125 -155 -185 -215 -245 0
-126 -156 -186 -216 -246 0
-127 -157 -187 -217 -247 0
-128 -158 -188 -218 -248 0
-129 -159 -189 -219 -249 0
-130 -160 -190 -220 -250 0
-131 -161 -191 -221 -251 0
-132 -162 -192 -222 -252 0
-133 -163 -193 -223 -253 0
-134 -164 -194 -224 -254 0
-135 -165 -195 -225 -255 0
-136 -166 -196 -226 -256 0
-137 -167 -197 -227 -257 0
-138 -168 -198 -228 -258 0
-139 -169 -199 -229 -259 0
-140 -170 -200 -230 -260 0
-141 -171 -201 -231 -261 0
-142 -172 -202 -232 -262 0
-143 -173 -203 -233 -263 0
-144 -174 -204 -234 -264 0
-145 -175 -205 -235 -265 0
-146 -176 -206 -236 -266 0
-147 -177 -207 -237 -267 0
-148 -178 -208 -238 -268 0
-149 -179 -209 -239 -269 0
-150 -180 -210 -240 -270 0
-151 -181 -211 -241 -271 0
-152 -182 -212 -242 -272 0
-153 -183 -213 -243 -273 0
-154 -184 -214 -244 -274 0
-155 -185 -215 -245 -275 0
-156 -186 -216 -246 -276 0
-157 -187 -217 -247 -277 0
-158 -188 -218 -248 -278 0
-159 -189 -219 -249 -279 0
-160 -190 -220 -250 -280 0
-161 -191 -221 -251 -281 0
-162 -192 -222 -252 -282 0
-163 -193 -223 -253 -283 0
-164 -194 -224 -254 -284 0
-165 -195 -225 -255 -285 0
-166 -196 -226 -256 -286 0
-167 -197 -227 -257 -287 0
-168 -198 -228 -258 -288 0
-169 -199 -229 -259 -289 0
-170 -200 -230 -260 -290 0
-171 -201 -231 -261 -291 0
-172 -202 -232 -262 -292 0
-173 -203 -233 -263 -293 0
-174 -204 -234 -264 -294 0
-175 -205 -235 -265 -295 0
-176 -206 -236 -266 -296 0
-177 -207 -237 -267 -297 0
-178 -208 -238 -268 -298 0
-179 -209 -239 -269 -299 0
-180 -210 -240 -270 -300 0
-181 -211 -241 -271 -301 0
-182 -212 -242 -272 -302 0
-183 -213 -243 -273 -303 0
-184 -214 -244 -274 -304 0
-185 -215 -245 -275 -305 0
-186 -216 -246 -276 -306 0
-187 -217 -247 -277 -307 0
-188 -218 -248 -278 -308 0
-189 -219 -249 -279 -309 0
-190 -220 -250 -280 -310 0
-191 -221 -251 -281 -311 0
-192 -222 -252 -282 -312 0
-193 -223 -253 -283 -313 0
-194 -224 -254 -284 -314 0
-195 -225 -255 -285 -315 0
-196 -226 -256 -286 -316 0
-197 -227 -257 -287 -317 0
-198 -228 -258 -288 -318 0
-199 -229 -259 -289 -319 0
-200 -230 -260 -290 -320 0
-201 -231 -261 -291 -321 0
-202 -232 -262 -292 -322 0
-203 -233 -263 -293 -323 0
-204 -234 -264 -294 -324 0
-205 -235 -265 -295 -325 0
-206 -236 -266 -296 -326 0
-207 -237 -267 -297 -327 0
-208 -238 -268 -298 -328 0
-209 -239 -269 -299 -329 0
-210 -240 -270 -300 -330 0
-211 -241 -271 -301 -331 0
-212 -242 -272 -302 -332 0
-213 -243 -273 -303 -333 0
-214 -244 -274 -304 -334 0
-215 -245 -275 -305 -335 0
-216 -246 -276 -306 -336 0
-217 -247 -277 -307 -337 0
-218 -248 -278 -308 -338 0
-219 -249 -279 -309 -339 0
-220 -250 -280 -310 -340 0
-221 -251 -281 -311 -341 0
-222 -252 -282 -312 -342 0
-223 -253 -283 -313 -343 0
-224 -254 -284 -314 -344 0
-225 -255 -285 -315 -345 0
-226 -256 -286 -316 -346 0
-227 -257 -287 -317 -347 0
-228 -258 -288 -318 -348 0
-229 -259 -289 -319 -349 0
-230 -260 -290 -320 -350 0
-231 -261 -291 -321 -351 0
-232 -262 -292 -322 -352 0
-233 -263 -293 -323 -353 0
-234 -264 -294 -324 -354 0
-235 -265 -295 -325 -355 0
-236 -266 -296 -326 -356 0
-1 -33 -65 -97 -129 0
-2 -34 -66 -98 -130 0
-3 -35 -67 -99 -131 0
-4 -36 -68 -100 -132 0
-5 -37 -69 -101 -133 0
-6 -38 -70 -102 -134 0
-7 -39 -71 -103 -135 0
-8 -40 -72 -104 -136 0
-9 -41 -73 -105 -137 0
-10 -42 -74 -106 -138 0
-11 -43 -75 -107 -139 0
-12 -44 -76 -108 -140 0
-13 -45 -77 -109 -141 0
-14 -46 -78 -110 -142 0
-15 -47 -79 -111 -143 0
-16 -48 -80 -112 -144 0
-17 -49 -81 -113 -145 0
-18 -50 -82 -114 -146 0
-19 -51 -83 -115 -147 0
-20 -52 -84 -116 -148 0
-21 -53 -85 -117 -149 0
-22 -54 -86 -118 -150 0
-23 -55 -87 -119 -151 0
-24 -56 -88 -120 -152 0
-25 -57 -89 -121 -153 0
-26 -58 -90 -122 -154 0
-27 -59 -91 -123 -155 0
-28 -60 -92 -124 -156 0
-29 -61 -93 -125 -157 0
-30 -62 -94 -126 -158 0
-31 -63 -95 -127 -159 0
-32 -64 -96 -128 -160 0
-33 -65 -97 -129 -161 0
-34 -66 -98 -130 -162 0
-35 -67 -99 -131 -163 0
-36 -68 -100 -132 -164 0
-37 -69 -101 -133 -165 0
-38 -70 -102 -134 -166 0
-39 -71 -103 -135 -167 0
-40 -72 -104 -136 -168 0
-41 -73 -105 -137 -169 0
-42 -74 -106 -138 -170 0
-43 -75 -107 -139 -171 0
-44 -76 -108 -140 -172 0
-45 -77 -109 -141 -173 0
-46 -78 -110 -142 -174 0
-47 -79 -111 -143 -175 0
-48 -80 -112 -144 -176 0
-49 -81 -113 -145 -177 0
-50 -82 -114 -146 -178 0
-51 -83 -115 -147 -179 0
-52 -84 -116 -148 -180 0
-53 -85 -117 -149 -181 0
-54 -86 -118 -150 -182 0
-55 -87 -119 -151 -183 0
-56 -88 -120 -152 -184 0
-57 -89 -121 -153 -185 0
-58 -90 -122 -154 -186 0
-59 -91 -123 -155 -187 0
-60 -92 -124 -156 -188 0
-61 -93 -125 -157 -189 0
-62 -94 -126 -158 -190 0
-63 -95 -127 -159 -191 0
-64 -96 -128 -160 -192 0
-65 -97 -129 -161 -193 0
-66 -98 -130 -162 -194 0
-67 -99 -131 -163 -195 0
-68 -100 -132 -164 -196 0
-69 -101 -133 -165 -197 0
-70 -102 -134 -166 -198 0
-71 -103 -135 -167 -199 0
-72 -104 -136 -168 -200 0
-73 -105 -137 -169 -201 0
-74 -106 -138 -170 -202 0
-75 -107 -139 -171 -203 0
-76 -108 -140 -172 -204 0
-77 -109 -141 -173 -205 0
-78 -110 -142 -174 -206 0
-79 -111 -143 -175 -207 0
-80 -112 -144 -176 -208 0
-81 -113 -145 -177 -209 0
-82 -114 -146 -178 -210 0
-83 -115 -147 -179 -211 0
-84 -116 -148 -180 -212 0
-85 -117 -149 -181 -213 0
-86 -118 -150 -182 -214 0
-87 -119 -151 -183 -215 0
-88 -120 -152 -184 -216 0
-89 -121 -153 -185 -217 0
-90 -122 -154 -186 -218 0
-91 -123 -155 -187 -219 0
-92 -124 -156 -188 -220 0
-93 -125 -157 -189 -221 0
-94 -126 -158 -190 -222 0
-95 -127 -159 -191 -223 0
-96 -128 -160 -192 -224 0
-97 -129 -161 -193 -225 0
-98 -130 -162 -194 -226 0
-99 -131 -163 -195 -227 0
-100 -132 -164 -196 -228 0
-101 -133 -165 -197 -229 0
-102 -134 -166 -198 -230 0
-103 -135 -167 -199 -231 0
-104 -136 -168 -200 -232 0
-105 -137 -169 -201 -233 0
-106 -138 -170 -202 -234 0
-107 -139 -171 -203 -235 0
-108 -140 -172 -204 -236 0
-109 -141 -173 -205 -237 0
-110 -142 -174 -206 -238 0
-111 -143 -175 -207 -239 0
-112 -144 -176 -208 -240 0
-113 -145 -177 -209 -241 0
-114 -146 -178 -210 -242 0
-115 -147 -179 -211 -243 0
-116 -148 -180 -212 -244 0
-117 -149 -181 -213 -245 0
-118 -150 -182 -214 -246 0
-119 -151 -183 -215 -247 0
-120 -152 -184 -216 -248 0
-121 -153 -185 -217 -249 0
-122 -154 -186 -218 -250 0
-123 -155 -187 -219 -251 0
-124 -156 -188 -220 -252 0
-125 -157 -189 -221 -253 0
-126 -158 -190 -222 -254 0
-127 -159 -191 -223 -255 0
-128 -160 -192 -224 -256 0
-129 -161 -193 -225 -257 0
-130 -162 -194 -226 -258 0
-131 -163 -195 -227 -259 0
-132 -164 -196 -228 -260 0
-133 -165 -197 -229 -261 0
-134 -166 -198 -230 -262 0
-135 -167 -199 -231 -263 0
-136 -168 -200 -232 -264 0
-137 -169 -201 -233 -265 0
-138 -170 -202 -234 -266 0
-139 -171 -203 -235 -267 0
-140 -172 -204 -236 -268 0
-141 -173 -205 -237 -269 0
-142 -174 -206 -238 -270 0
-143 -175 -207 -239 -271 0
-144 -176 -208 -240 -272 0
-145 -177 -209 -241 -273 0
-146 -178 -210 -242 -274 0
-147 -179 -211 -243 -275 0
-148 -180 -212 -244 -276 0
-149 -181 -213 -245 -277 0
-150 -182 -214 -246 -278 0
-151 -183 -215 -247 -279 0
-152 -184 -216 -248 -280 0
-153 -185 -217 -249 -281 0
-154 -186 -218 -250 -282 0
-155 -187 -219 -251 -283 0
-156 -188 -220 -252 -284 0
-157 -189 -221 -253 -285 0
-158 -190 -222 -254 -286 0
-159 -191 -223 -255 -287 0
-160 -192 -224 -256 -288 0
-161 -193 -225 -257 -289 0
-162 -194 -226 -258 -290 0
-163 -195 -227 -259 -291 0
-164 -196 -228 -260 -292 0
-165 -197 -229 -261 -293 0
-166 -198 -230 -262 -294 0
-167 -199 -231 -263 -295 0
-168 -200 -232 -264 -296 0
-169 -201 -233 -265 -297 0
-170 -202 -234 -266 -298 0
-171 -203 -235 -267 -299 0
-172 -204 -236 -268 -300 0
-173 -205 -237 -269 -301 0
-174 -206 -238 -270 -302 0
-175 -207 -239 -271 -303 0
-176 -208 -240 -272 -304 0
-177 -209 -241 -273 -305 0
-178 -210 -242 -274 -306 0
-179 -211 -243 -275 -307 0
-180 -212 -244 -276 -308 0
-181 -213 -245 -277 -309 0
-182 -214 -246 -278 -310 0
-183 -215 -247 -279 -311 0
-184 -216 -248 -280 -312 0
-185 -217 -249 -281 -313 0
-186 -218 -250 -282 -314 0
-187 -219 -251 -283 -315 0
-188 -220 -252 -284 -316 0
-189 -221 -253 -285 -317 0
-190 -222 -254 -286 -318 0
-191 -223 -255 -287 -319 0
-192 -224 -256 -288 -320 0
-193 -225 -257 -289 -321 0
-194 -226 -258 -290 -322 0
-195 -227 -259 -291 -323 0
-196 -228 -260 -292 -324 0
-197 -229 -261 -293 -325 0
-198 -230 -262 -294 -326 0
-199 -231 -263 -295 -327 0
-200 -232 -264 -296 -328 0
-201 -233 -265 -297 -329 0
-202 -234 -266 -298 -330 0
-203 -235 -267 -299 -331 0
-204 -236 -268 -300 -332 0
-205 -237 -269 -301 -333 0
-206 -238 -270 -302 -334 0
-207 -239 -271 -303 -335 0
-208 -240 -272 -304 -336 0
-209 -241 -273 -305 -337 0
-210 -242 -274 -306 -338 0
-211 -243 -275 -307 -339 0
-212 -244 -276 -308 -340 0
-213 -245 -277 -309 -341 0
-214 -246 -278 -310 -342 0
-215 -247 -279 -311 -343 0
-216 -248 -280 -312 -344 0
-217 -249 -281 -313 -345 0
-218 -250 -282 -314 -346 0
-219 -251 -283 -315 -347 0
-220 -252 -284 -316 -348 0
-221 -253 -285 -317 -349 0
-222 -254 -286 -318 -350 0
-223 -255 -287 -319 -351 0
-224 -256 -288 -320 -352 0
-225 -257 -289 -321 -353 0
-226 -258 -290 -322 -354 0
-227 -259 -291 -323 -355 0
-228 -260 -292 -324 -356 0
-1 -35 -69 -103 -137 0
-2 -36 -70 -104 -138 0
-3 -37 -71 -105 -139 0
-4 -38 -72 -106 -140 0
-5 -39 -73 -107 -141 0
-6 -40 -74 -108 -142 0
-7 -41 -75 -109 -143 0
-8 -42 -76 -110 -144 0
-9 -43 -77 -111 -145 0
-10 -44 -78 -112 -146 0
-11 -45 -79 -113 -147 0
-12 -46 -80 -114 -148 0
-13 -47 -81 -115 -149 0
-14 -48 -82 -116 -150 0
-15 -49 -83 -117 -151 0
-16 -50 -84 -118 -152 0
-17 -51 -85 -119 -153 0
-18 -52 -86 -120 -154 0
-19 -53 -87 -121 -155 0
-20 -54 -88 -122 -156 0
-21 -55 -89 -123 -157 0
-22 -56 -90 -124 -158 0
-23 -57 -91 -125 -159 0
-24 -58 -92 -126 -160 0
-25 -59 -93 -127 -161 0
-26 -60 -94 -128 -162 0
-27 -61 -95 -129 -163 0
-28 -62 -96 -130 -164 0
-29 -63 -97 -131 -165 0
-30 -64 -98 -132 -166 0
-31 -65 -99 -133 -167 0
-32 -66 -100 -134 -168 0
-33 -67 -101 -135 -169 0
-34 -68 -102 -136 -170 0
-35 -69 -103 -137 -171 0
-36 -70 -104 -138 -172 0
-37 -71 -105 -139 -173 0
-38 -72 -106 -140 -174 0
-39 -73 -107 -141 -175 0
-40 -74 -108 -142 -176 0
-41 -75 -109 -143 -177 0
-42 -76 -110 -144 -178 0
-43 -77 -111 -145 -179 0
-44 -78 -112 -146 -180 0
-45 -79 -113 -147 -181 0
-46 -80 -114 -148 -182 0
-47 -81 -115 -149 -183 0
-48 -82 -116 -150 -184 0
-49 -83 -117 -151 -185 0
-50 -84 -118 -152 -186 0
-51 -85 -119 -153 -187 0
-52 -86 -120 -154 -188 0
-53 -87 -121 -155 -189 0
-54 -88 -122 -156 -190 0
-55 -89 -123 -157 -191 0
-56 -90 -124 -158 -192 0
-57 -91 -125 -159 -193 0
-58 -92 -126 -160 -194 0
-59 -93 -127 -161 -195 0
-60 -94 -128 -162 -196 0
-61 -95 -129 -163 -197 0
-62 -96 -130 -164 -198 0
-63 -97 -131 -165 -199 0
-64 -98 -132 -166 -200 0
-65 -99 -133 -167 -201 0
-66 -100 -134 -168 -202 0
-67 -101 -135 -169 -203 0
-68 -102 -136 -170 -204 0
-69 -103 -137 -171 -205 0
-70 -104 -138 -172 -206 0
-71 -105 -139 -173 -207 0
-72 -106 -140 -174 -208 0
-73 -107 -141 -175 -209 0
-74 -108 -142 -176 -210 0
-75 -109 -143 -177 -211 0
-76 -110 -144 -178 -212 0
-77 -111 -145 -179 -213 0
-78 -112 -146 -180 -214 0
-79 -113 -147 -181 -215 0
-80 -114 -148 -182 -216 0
-81 -115 -149 -183 -217 0
-82 -116 -150 -184 -218 0
-83 -117 -151 -185 -219 0
-84 -118 -152 -186 -220 0
-85 -119 -153 -187 -221 0
-86 -120 -154 -188 -222 0
-87 -121 -155 -189 -223 0
-88 -122 -156 -190 -224 0
-89 -123 -157 -191 -225 0
-90 -124 -158 -192 -226 0
-91 -125 -159 -193 -227 0
-92 -126 -160 -194 -228 0
-93 -127 -161 -195 -229 0
-94 -128 -162 -196 -230 0
-95 -129 -163 -197 -231 0
-96 -130 -164 -198 -232 0
-97 -131 -165 -199 -233 0
-98 -132 -166 -200 -234 0
-99 -133 -167 -201 -235 0
-100 -134 -168 -202 -236 0
-101 -135 -169 -203 -237 0
-102 -136 -170 -204 -238 0
-103 -137 -171 -205 -239 0
-104 -138 -172 -206 -240 0
-105 -139 -173 -207 -241 0
-106 -140 -174 -208 -242 0
-107 -141 -175 -209 -243 0
-108 -142 -176 -210 -244 0
-109 -143 -177 -211 -245 0
-110 -144 -178 -212 -246 0
-111 -145 -179 -213 -247 0
-112 -146 -180 -214 -248 0
-113 -147 -181 -215 -249 0
-114 -148 -182 -216 -250 0
-115 -149 -183 -217 -251 0
-116 -150 -184 -218 -252 0
-117 -151 -185 -219 -253 0
-118 -152 -186 -220 -254 0
-119 -153 -187 -221 -255 0
-120 -154 -188 -222 -256 0
-121 -155 -189 -223 -257 0
-122 -156 -190 -224 -258 0
-123 -157 -191 -225 -259 0
-124 -158 -192 -226 -260 0
-125 -159 -193 -227 -261 0
-126 -160 -194 -228 -262 0
-127 -161 -195 -229 -263 0
-128 -162 -196 -230 -264 0
-129 -163 -197 -231 -265 0
-130 -164 -198 -232 -266 0
-131 -165 -199 -233 -267 0
-132 -166 -200 -234 -268 0
-133 -167 -201 -235 -269 0
-134 -168 -202 -236 -270 0
-135 -169 -203 -237 -271 0
-136 -170 -204 -238 -272 0
-137 -171 -205 -239 -273 0
-138 -172 -206 -240 -274 0
-139 -173 -207 -241 -275 0
-140 -174 -208 -242 -276 0
-141 -175 -209 -243 -277 0
-142 -176 -210 -244 -278 0
-143 -177 -211 -245 -279 0
-144 -178 -212 -246 -280 0
-145 -179 -213 -247 -281 0
-146 -180 -214 -248 -282 0
-147 -181 -215 -249 -283 0
-148 -182 -216 -250 -284 0
-149 -183 -217 -251 -285 0
-150 -184 -218 -252 -286 0
-151 -185 -219 -253 -287 0
-152 -186 -220 -254 -288 0
-153 -187 -221 -255 -289 0
-154 -188 -222 -256 -290 0
-155 -189 -223 -257 -291 0
-156 -190 -224 -258 -292 0
-157 -191 -225 -259 -293 0
-158 -192 -226 -260 -294 0
-159 -193 -227 -261 -295 0
-160 -194 -228 -262 -296 0
-161 -195 -229 -263 -297 0
-162 -196 -230 -264 -298 0
-163 -197 -231 -265 -299 0
-164 -198 -232 -266 -300 0
-165 -199 -233 -267 -301 0
-166 -200 -234 -268 -302 0
-167 -201 -235 -269 -303 0
-168 -202 -236 -270 -304 0
-169 -203 -237 -271 -305 0
-170 -204 -238 -272 -306 0
-171 -205 -239 -273 -307 0
-172 -206 -240 -274 -308 0
-173 -207 -241 -275 -309 0
-174 -208 -242 -276 -310 0
-175 -209 -243 -277 -311 0
-176 -210 -244 -278 -312 0
-177 -211 -245 -279 -313 0
-178 -212 -246 -280 -314 0
-179 -213 -247 -281 -315 0
-180 -214 -248 -282 -316 0
-181 -215 -249 -283 -317 0
-182 -216 -250 -284 -318 0
-183 -217 -251 -285 -319 0
-184 -218 -252 -286 -320 0
-185 -219 -253 -287 -321 0
-186 -220 -254 -288 -322 0
-187 -221 -255 -289 -323 0
-188 -222 -256 -290 -324 0
-189 -223 -257 -291 -325 0
-190 -224 -258 -292 -326 0
-191 -225 -259 -293 -327 0
-192 -226 -260 -294 -328 0
-193 -227 -261 -295 -329 0
-194 -228 -262 -296 -330 0
-195 -229 -263 -297 -331 0
-196 -230 -264 -298 -332 0
-197 -231 -265 -299 -333 0
-198 -232 -266 -300 -334 0
-199 -233 -267 -301 -335 0
-200 -234 -268 -302 -336 0
-201 -235 -269 -303 -337 0
-202 -236 -270 -304 -338 0
-203 -237 -271 -305 -339 0
-204 -238 -272 -306 -340 0
-205 -239 -273 -307 -341 0
-206 -240 -274 -308 -342 0
-207 -241 -275 -309 -343 0
-208 -242 -276 -310 -344 0
-209 -243 -277 -311 -345 0
-210 -244 -278 -312 -346 0
-211 -245 -279 -313 -347 0
-212 -246 -280 -314 -348 0
-213 -247 -281 -315 -349 0
-214 -248 -282 -316 -350 0
-215 -249 -283 -317 -351 0
-216 -250 -284 -318 -352 0
-217 -251 -285 -319 -353 0
-218 -252 -286 -320 -354 0
-219 -253 -287 -321 -355 0
-220 -254 -288 -322 -356 0
-1 -37 -73 -109 -145 0
-2 -38 -74 -110 -146 0
-3 -39 -75 -111 -147 0
-4 -40 -76 -112 -148 0
-5 -41 -77 -113 -149 0
-6 -42 -78 -114 -150 0
-7 -43 -79 -115 -151 0
-8 -44 -80 -116 -152 0
-9 -45 -81 -117 -153 0
-10 -46 -82 -118 -154 0
-11 -47 -83 -119 -155 0
-12 -48 -84 -120 -156 0
-13 -49 -85 -121 -157 0
-14 -50 -86 -122 -158 0
-15 -51 -87 -123 -159 0
-16 -52 -88 -124 -160 0
-17 -53 -89 -125 -161 0
-18 -54 -90 -126 -162 0
-19 -55 -91 -127 -163 0
-20 -56 -92 -128 -164 0
-21 -57 -93 -129 -165 0
-22 -58 -94 -130 -166 0
-23 -59 -95 -131 -167 0
-24 -60 -96 -132 -168 0
-25 -61 -97 -133 -169 0
-26 -62 -98 -134 -170 0
-27 -63 -99 -135 -171 0
-28 -64 -100 -136 -172 0
-29 -65 -101 -137 -173 0
-30 -66 -102 -138 -174 0
-31 -67 -103 -139 -175 0
-32 -68 -104 -140 -176 0
-33 -69 -105 -141 -177 0
-34 -70 -106 -142 -178 0
-35 -71 -107 -143 -179 0
-36 -72 -108 -144 -180 0
-37 -73 -109 -145 -181 0
-38 -74 -110 -146 -182 0
-39 -75 -111 -147 -183 0
-40 -76 -112 -148 -184 0
-41 -77 -113 -149 -185 0
-42 -78 -114 -150 -186 0
-43 -79 -115 -151 -187 0
-44 -80 -116 -152 -188 0
-45 -81 -117 -153 -189 0
-46 -82 -118 -154 -190 0
-47 -83 -119 -155 -191 0
-48 -84 -120 -156 -192 0
-49 -85 -121 -157 -193 0
-50 -86 -122 -158 -194 0
-51 -87 -123 -159 -195 0
-52 -88 -124 -160 -196 0
-53 -89 -125 -161 -197 0
-54 -90 -126 -162 -198 0
-55 -91 -127 -163 -199 0
-56 -92 -128 -164 -200 0
-57 -93 -129 -165 -201 0
-58 -94 -130 -166 -202 0
-59 -95 -131 -167 -203 0
-60 -96 -132 -168 -204 0
-61 -97 -133 -169 -205 0
-62 -98 -134 -170 -206 0
-63 -99 -135 -171 -207 0
-64 -100 -136 -172 -208 0
-65 -101 -137 -173 -209 0
-66 -102 -138 -174 -210 0
-67 -103 -139 -175 -211 0
-68 -104 -140 -176 -212 0
-69 -105 -141 -177 -213 0
-70 -106 -142 -178 -214 0
-71 -107 -143 -179 -215 0
-72 -108 -144 -180 -216 0
-73 -109 -145 -181 -217 0
-74 -110 -146 -182 -218 0
-75 -111 -147 -183 -219 0
-76 -112 -148 -184 -220 0
-77 -113 -149 -185 -221 0
-78 -114 -150 -186 -222 0
-79 -115 -151 -187 -223 0
-80 -116 -152 -188 -224 0
-81 -117 -153 -189 -225 0
-82 -118 -154 -190 -226 0
-83 -119 -155 -191 -227 0
-84 -120 -156 -192 -228 0
-85 -121 -157 -193 -229 0
-86 -122 -158 -194 -230 0
-87 -123 -159 -195 -231 0
-88 -124 -160 -196 -232 0
-89 -125 -161 -197 -233 0
-90 -126 -162 -198 -234 0
-91 -127 -163 -199 -235 0
-92 -128 -164 -200 -236 0
-93 -129 -165 -201 -237 0
-94 -130 -166 -202 -238 0
-95 -131 -167 -203 -239 0
-96 -132 -168 -204 -240 0
-97 -133 -169 -205 -241 0
-98 -134 -170 -206 -242 0
-99 -135 -171 -207 -243 0
-100 -136 -172 -208 -244 0
-101 -137 -173 -209 -245 0
-102 -138 -174 -210 -246 0
-103 -139 -175 -211 -247 0
-104 -140 -176 -212 -248 0
-105 -141 -177 -213 -249 0
-106 -142 -178 -214 -250 0
-107 -143 -179 -215 -251 0
-108 -144 -180 -216 -252 0
-109 -145 -181 -217 -253 0
-110 -146 -182 -218 -254 0
-111 -147 -183 -219 -255 0
-112 -148 -184 -220 -256 0
-113 -149 -185 -221 -257 0
-114 -150 -186 -222 -258 0
-115 -151 -187 -223 -259 0
-116 -152 -188 -224 -260 0
-117 -153 -189 -225 -261 0
-118 -154 -190 -226 -262 0
-119 -155 -191 -227 -263 0
-120 -156 -192 -228 -264 0
-121 -157 -193 -229 -265 0
-122 -158 -194 -230 -266 0
-123 -159 -195 -231 -267 0
-124 -160 -196 -232 -268 0
-125 -161 -197 -233 -269 0
-126 -162 -198 -234 -270 0
-127 -163 -199 -235 -271 0
-128 -164 -200 -236 -272 0
-129 -165 -201 -237 -273 0
-130 -166 -202 -238 -274 0
-131 -167 -203 -239 -275 0
-132 -168 -204 -240 -276 0
-133 -169 -205 -241 -277 0
-134 -170 -206 -242 -278 0
-135 -171 -207 -243 -279 0
-136 -172 -208 -244 -280 0
-137 -173 -209 -245 -281 0
-138 -174 -210 -246 -282 0
-139 -175 -211 -247 -283 0
-140 -176 -212 -248 -284 0
-141 -177 -213 -249 -285 0
-142 -178 -214 -250 -286 0
-143 -179 -215 -251 -287 0
-144 -180 -216 -252 -288 0
-145 -181 -217 -253 -289 0
-146 -182 -218 -254 -290 0
-147 -183 -219 -255 -291 0
-148 -184 -220 -256 -292 0
-149 -185 -221 -257 -293 0
-150 -186 -222 -258 -294 0
-151 -187 -223 -259 -295 0
-152 -188 -224 -260 -296 0
-153 -189 -225 -261 -297 0
-154 -190 -226 -262 -298 0
-155 -191 -227 -263 -299 0
-156 -192 -228 -264 -300 0
-157 -193 -229 -265 -301 0
-158 -194 -230 -266 -302 0
-159 -195 -231 -267 -303 0
-160 -196 -232 -268 -304 0
-161 -197 -233 -269 -305 0
-162 -198 -234 -270 -306 0
-163 -199 -235 -271 -307 0
-164 -200 -236 -272 -308 0
-165 -201 -237 -273 -309 0
-166 -202 -238 -274 -310 0
-167 -203 -239 -275 -311 0
-168 -204 -240 -276 -312 0
-169 -205 -241 -277 -313 0
-170 -206 -242 -278 -314 0
-171 -207 -243 -279 -315 0
-172 -208 -244 -280 -316 0
-173 -209 -245 -281 -317 0
-174 -210 -246 -282 -318 0
-175 -211 -247 -283 -319 0
-176 -212 -248 -284 -320 0
-177 -213 -249 -285 -321 0
-178 -214 -250 -286 -322 0
-179 -215 -251 -287 -323 0
-180 -216 -252 -288 -324 0
-181 -217 -253 -289 -325 0
-182 -218 -254 -290 -326 0
-183 -219 -255 -291 -327 0
-184 -220 -256 -292 -328 0
-185 -221 -257 -293 -329 0
-186 -222 -258 -294 -330 0
-187 -223 -259 -295 -331 0
-188 -224 -260 -296 -332 0
-189 -225 -261 -297 -333 0
-190 -226 -262 -298 -334 0
-191 -227 -263 -299 -335 0
-192 -228 -264 -300 -336 0
-193 -229 -265 -301 -337 0
-194 -230 -266 -302 -338 0
-195 -231 -267 -303 -339 0
-196 -232 -268 -304 -340 0
-197 -233 -269 -305 -341 0
-198 -234 -270 -306 -342 0
-199 -235 -271 -307 -343 0
-200 -236 -272 -308 -344 0
-201 -237 -273 -309 -345 0
-202 -238 -274 -310 -346 0
-203 -239 -275 -311 -347 0
-204 -240 -276 -312 -348 0
-205 -241 -277 -313 -349 0
-206 -242 -278 -314 -350 0
-207 -243 -279 -315 -351 0
-208 -244 -280 -316 -352 0
-209 -245 -281 -317 -353 0
-210 -246 -282 -318 -354 0
-211 -247 -283 -319 -355 0
-212 -248 -284 -320 -356 0
-1 -39 -77 -115 -153 0
-2 -40 -78 -116 -154 0
-3 -41 -79 -117 -155 0
-4 -42 -80 -118 -156 0
-5 -43 -81 -119 -157 0
-6 -44 -82 -120 -158 0
-7 -45 -83 -121 -159 0
-8 -46 -84 -122 -160 0
-9 -47 -85 -123 -161 0
-10 -48 -86 -124 -162 0
-11 -49 -87 -125 -163 0
-12 -50 -88 -126 -164 0
-13 -51 -89 -127 -165 0
-14 -52 -90 -128 -166 0
-15 -53 -91 -129 -167 0
-16 -54 -92 -130 -168 0
-17 -55 -93 -131 -169 0
-18 -56 -94 -132 -170 0
-19 -57 -95 -133 -171 0
-20 -58 -96 -134 -172 0
-21 -59 -97 -135 -173 0
-22 -60 -98 -136 -174 0
-23 -61 -99 -137 -175 0
-24 -62 -100 -138 -176 0
-25 -63 -101 -139 -177 0
-26 -64 -102 -140 -178 0
-27 -65 -103 -141 -179 0
-28 -66 -104 -142 -180 0
-29 -67 -105 -143 -181 0
-30 -68 -106 -144 -182 0
-31 -69 -107 -145 -183 0
-32 -70 -108 -146 -184 0
-33 -71 -109 -147 -185 0
-34 -72 -110 -148 -186 0
-35 -73 -111 -149 -187 0
-36 -74 -112 -150 -188 0
-37 -75 -113 -151 -189 0
-38 -76 -114 -152 -190 0
-39 -77 -115 -153 -191 0
-40 -78 -116 -154 -192 0
-41 -79 -117 -155 -193 0
-42 -80 -118 -156 -194 0
-43 -81 -119 -157 -195 0
-44 -82 -120 -158 -196 0
-45 -83 -121 -159 -197 0
-46 -84 -122 -160 -198 0
-47 -85 -123 -161 -199 0
-48 -86 -124 -162 -200 0
-49 -87 -125 -163 -201 0
-50 -88 -126 -164 -202 0
-51 -89 -127 -165 -203 0
-52 -90 -128 -166 -204 0
-53 -91 -129 -167 -205 0
-54 -92 -130 -168 -206 0
-55 -93 -131 -169 -207 0
-56 -94 -132 -170 -208 0
-57 -95 -133 -171 -209 0
-58 -96 -134 -172 -210 0
-59 -97 -135 -173 -211 0
-60 -98 -136 -174 -212 0
-61 -99 -137 -175 -213 0
-62 -100 -138 -176 -214 0
-63 -101 -139 -177 -215 0
-64 -102 -140 -178 -216 0
-65 -103 -141 -179 -217 0
-66 -104 -142 -180 -218 0
-67 -105 -143 -181 -219 0
-68 -106 -144 -182 -220 0
-69 -107 -145 -183 -221 0
-70 -108 -146 -184 -222 0
-71 -109 -147 -185 -223 0
-72 -110 -148 -186 -224 0
-73 -111 -149 -187 -225 0
-74 -112 -150 -188 -226 0
-75 -113 -151 -189 -227 0
-76 -114 -152 -190 -228 0
-77 -115 -153 -191 -229 0
-78 -116 -154 -192 -230 0
-79 -117 -155 -193 -231 0
-80 -118 -156 -194 -232 0
-81 -119 -157 -195 -233 0
-82 -120 -158 -196 -234 0
-83 -121 -159 -197 -235 0
-84 -122 -160 -198 -236 0
-85 -123 -161 -199 -237 0
-86 -124 -162 -200 -238 0
-87 -125 -163 -201 -239 0
-88 -126 -164 -202 -240 0
-89 -127 -165 -203 -241 0
-90 -128 -166 -204 -242 0
-91 -129 -167 -205 -243 0
-92 -130 -168 -206 -244 0
-93 -131 -169 -207 -245 0
-94 -132 -170 -208 -246 0
-95 -133 -171 -209 -247 0
-96 -134 -172 -210 -248 0
-97 -135 -173 -211 -249 0
-98 -136 -174 -212 -250 0
-99 -137 -175 -213 -251 0
-100 -138 -176 -214 -252 0
-101 -139 -177 -215 -253 0
-102 -140 -178 -216 -254 0
-103 -141 -179 -217 -255 0
-104 -142 -180 -218 -256 0
-105 -143 -181 -219 -257 0
-106 -144 -182 -220 -258 0
-107 -145 -183 -221 -259 0
-108 -146 -184 -222 -260 0
-109 -147 -185 -223 -261 0
-110 -148 -186 -224 -262 0
-111 -149 -187 -225 -263 0
-112 -150 -188 -226 -264 0
-113 -151 -189 -227 -265 0
-114 -152 -190 -228 -266 0
-115 -153 -191 -229 -267 0
-116 -154 -192 -230 -268 0
-117 -155 -193 -231 -269 0
-118 -156 -194 -232 -270 0
-119 -157 -195 -233 -271 0
-120 -158 -196 -234 -272 0
-121 -159 -197 -235 -273 0
-122 -160 -198 -236 -274 0
-123 -161 -199 -237 -275 0
-124 -162 -200 -238 -276 0
-125 -163 -201 -239 -277 0
-126 -164 -202 -240 -278 0
-127 -165 -203 -241 -279 0
-128 -166 -204 -242 -280 0
-129 -167 -205 -243 -281 0
-130 -168 -206 -244 -282 0
-131 -169 -207 -245 -283 0
-132 -170 -208 -246 -284 0
-133 -171 -209 -247 -285 0
-134 -172 -210 -248 -286 0
-135 -173 -211 -249 -287 0
-136 -174 -212 -250 -288 0
-137 -175 -213 -251 -289 0
-138 -176 -214 -252 -290 0
-139 -177 -215 -253 -291 0
-140 -178 -216 -254 -292 0
-141 -179 -217 -255 -293 0
-142 -180 -218 -256 -294 0
-143 -181 -219 -257 -295 0
-144 -182 -220 -258 -296 0
-145 -183 -221 -259 -297 0
-146 -184 -222 -260 -298 0
-147 -185 -223 -261 -299 0
-148 -186 -224 -262 -300 0
-149 -187 -225 -263 -301 0
-150 -188 -226 -264 -302 0
-151 -189 -227 -265 -303 0
-152 -190 -228 -266 -304 0
-153 -191 -229 -267 -305 0
-154 -192 -230 -268 -306 0
-155 -193 -231 -269 -307 0
-156 -194 -232 -270 -308 0
-157 -195 -233 -271 -309 0
-158 -196 -234 -272 -310 0
-159 -197 -235 -273 -311 0
-160 -198 -236 -274 -312 0
-161 -199 -237 -275 -313 0
-162 -200 -238 -276 -314 0
-163 -201 -239 -277 -315 0
-164 -202 -240 -278 -316 0
-165 -203 -241 -279 -317 0
-166 -204 -242 -280 -318 0
-167 -205 -243 -281 -319 0
-168 -206 -244 -282 -320 0
-169 -207 -245 -283 -321 0
-170 -208 -246 -284 -322 0
-171 -209 -247 -285 -323 0
-172 -210 -248 -286 -324 0
-173 -211 -249 -287 -325 0
-174 -212 -250 -288 -326 0
-175 -213 -251 -289 -327 0
-176 -214 -252 -290 -328 0
-177 -215 -253 -291 -329 0
-178 -216 -254 -292 -330 0
-179 -217 -255 -293 -331 0
-180 -218 -256 -294 -332 0
-181 -219 -257 -295 -333 0
-182 -220 -258 -296 -334 0
-183 -221 -259 -297 -335 0
-184 -222 -260 -298 -336 0
-185 -223 -261 -299 -337 0
-186 -224 -262 -300 -338 0
-187 -225 -263 -301 -339 0
-188 -226 -264 -302 -340 0
-189 -227 -265 -303 -341 0
-190 -228 -266 -304 -342 0
-191 -229 -267 -305 -343 0
-192 -230 -268 -306 -344 0
-193 -231 -269 -307 -345 0
-194 -232 -270 -308 -346 0
-195 -233 -271 -309 -347 0
-196 -234 -272 -310 -348 0
-197 -235 -273 -311 -349 0
-198 -236 -274 -312 -350 0
-199 -237 -275 -313 -351 0
-200 -238 -276 -314 -352 0
-201 -239 -277 -315 -353 0
-202 -240 -278 -316 -354 0
-203 -241 -279 -317 -355 0
-204 -242 -280 -318 -356 0
-1 -41 -81 -121 -161 0
-2 -42 -82 -122 -162 0
-3 -43 -83 -123 -163 0
-4 -44 -84 -124 -164 0
-5 -45 -85 -125 -165 0
-6 -46 -86 -126 -166 0
-7 -47 -87 -127 -167 0
-8 -48 -88 -128 -168 0
-9 -49 -89 -129 -169 0
-10 -50 -90 -130 -170 0
-11 -51 -91 -131 -171 0
-12 -52 -92 -132 -172 0
-13 -53 -93 -133 -173 0
-14 -54 -94 -134 -174 0
-15 -55 -95 -135 -175 0
-16 -56 -96 -136 -176 0
-17 -57 -97 -137 -177 0
-18 -58 -98 -138 -178 0
-19 -59 -99 -139 -179 0
-20 -60 -100 -140 -180 0
-21 -61 -101 -141 -181 0
-22 -62 -102 -142 -182 0
-23 -63 -103 -143 -183 0
-24 -64 -104 -144 -184 0
-25 -65 -105 -145 -185 0
-26 -66 -106 -146 -186 0
-27 -67 -107 -147 -187 0
-28 -68 -108 -148 -188 0
-29 -69 -109 -149 -189 0
-30 -70 -110 -150 -190 0
-31 -71 -111 -151 -191 0
-32 -72 -112 -152 -192 0
-33 -73 -113 -153 -193 0
-34 -74 -114 -154 -194 0
-35 -75 -115 -155 -195 0
-36 -76 -116 -156 -196 0
-37 -77 -117 -157 -197 0
-38 -78 -118 -158 -198 0
-39 -79 -119 -159 -199 0
-40 -80 -120 -160 -200 0
-41 -81 -121 -161 -201 0
-42 -82 -122 -162 -202 0
-43 -83 -123 -163 -203 0
-44 -84 -124 -164 -204 0
-45 -85 -125 -165 -205 0
-46 -86 -126 -166 -206 0
-47 -87 -127 -167 -207 0
-48 -88 -128 -168 -208 0
-49 -89 -129 -169 -209 0
-50 -90 -130 -170 -210 0
-51 -91 -131 -171 -211 0
-52 -92 -132 -172 -212 0
-53 -93 -133 -173 -213 0
-54 -94 -134 -174 -214 0
-55 -95 -135 -175 -215 0
-56 -96 -136 -176 -216 0
-57 -97 -137 -177 -217 0
-58 -98 -138 -178 -218 0
-59 -99 -139 -179 -219 0
-60 -100 -140 -180 -220 0
-61 -101 -141 -181 -221 0
-62 -102 -142 -182 -222 0
-63 -103 -143 -183 -223 0
-64 -104 -144 -184 -224 0
-65 -105 -145 -185 -225 0
-66 -106 -146 -186 -226 0
-67 -107 -147 -187 -227 0
-68 -108 -148 -188 -228 0
-69 -109 -149 -189 -229 0
-70 -110 -150 -190 -230 0
-71 -111 -151 -191 -231 0
-72 -112 -152 -192 -232 0
-73 -113 -153 -193 -233 0
-74 -114 -154 -194 -234 0
-75 -115 -155 -195 -235 0
-76 -116 -156 -196 -236 0
-77 -117 -157 -197 -237 0
-78 -118 -158 -198 -238 0
-79 -119 -159 -199 -239 0
-80 -120 -160 -200 -240 0
-81 -121 -161 -201 -241 0
-82 -122 -162 -202 -242 0
-83 -123 -163 -203 -243 0
-84 -124 -164 -204 -244 0
-85 -125 -165 -205 -245 0
-86 -126 -166 -206 -246 0
-87 -127 -167 -207 -247 0
-88 -128 -168 -208 -248 0
-89 -129 -169 -209 -249 0
-90 -130 -170 -210 -250 0
-91 -131 -171 -211 -251 0
-92 -132 -172 -212 -252 0
-93 -133 -173 -213 -253 0
-94 -134 -174 -214 -254 0
-95 -135 -175 -215 -255 0
-96 -136 -176 -216 -256 0
-97 -137 -177 -217 -257 0
-98 -138 -178 -218 -258 0
-99 -139 -179 -219 -259 0
-100 -140 -180 -220 -260 0
-101 -141 -181 -221 -261 0
-102 -142 -182 -222 -262 0
-103 -143 -183 -223 -263 0
-104 -144 -184 -224 -264 0
-105 -145 -185 -225 -265 0
-106 -146 -186 -226 -266 0
-107 -147 -187 -227 -267 0
-108 -148 -188 -228 -268 0
-109 -149 -189 -229 -269 0
-110 -150 -190 -230 -270 0
-111 -151 -191 -231 -271 0
-112 -152 -192 -232 -272 0
-113 -153 -193 -233 -273 0
-114 -154 -194 -234 -274 0
-115 -155 -195 -235 -275 0
-116 -156 -196 -236 -276 0
-117 -157 -197 -237 -277 0
-118 -158 -198 -238 -278 0
-119 -159 -199 -239 -279 0
-120 -160 -200 -240 -280 0
-121 -161 -201 -241 -281 0
-122 -162 -202 -242 -282 0
-123 -163 -203 -243 -283 0
-124 -164 -204 -244 -284 0
-125 -165 -205 -245 -285 0
-126 -166 -206 -246 -286 0
-127 -167 -207 -247 -287 0
-128 -168 -208 -248 -288 0
-129 -169 -209 -249 -289 0
-130 -170 -210 -250 -290 0
-131 -171 -211 -251 -291 0
-132 -172 -212 -252 -292 0
-133 -173 -213 -253 -293 0
-134 -174 -214 -254 -294 0
-135 -175 -215 -255 -295 0
-136 -176 -216 -256 -296 0
-137 -177 -217 -257 -297 0
-138 -178 -218 -258 -298 0
-139 -179 -219 -259 -299 0
-140 -180 -220 -260 -300 0
-141 -181 -221 -261 -301 0
-142 -182 -222 -262 -302 0
-143 -183 -223 -263 -303 0
-144 -184 -224 -264 -304 0
-145 -185 -225 -265 -305 0
-146 -186 -226 -266 -306 0
-147 -187 -227 -267 -307 0
-148 -188 -228 -268 -308 0
-149 -189 -229 -269 -309 0
-150 -190 -230 -270 -310 0
-151 -191 -231 -271 -311 0
-152 -192 -232 -272 -312 0
-153 -193 -233 -273 -313 0
-154 -194 -234 -274 -314 0
-155 -195 -235 -275 -315 0
-156 -196 -236 -276 -316 0
-157 -197 -237 -277 -317 0
-158 -198 -238 -278 -318 0
-159 -199 -239 -279 -319 0
-160 -200 -240 -280 -320 0
-161 -201 -241 -281 -321 0
-162 -202 -242 -282 -322 0
-163 -203 -243 -283 -323 0
-164 -204 -244 -284 -324 0
-165 -205 -245 -285 -325 0
-166 -206 -246 -286 -326 0
-167 -207 -247 -287 -327 0
-168 -208 -248 -288 -328 0
-169 -209 -249 -289 -329 0
-170 -210 -250 -290 -330 0
-171 -211 -251 -291 -331 0
-172 -212 -252 -292 -332 0
-173 -213 -253 -293 -333 0
-174 -214 -254 -294 -334 0
-175 -215 -255 -295 -335 0
-176 -216 -256 -296 -336 0
-177 -217 -257 -297 -337 0
-178 -218 -258 -298 -338 0
-179 -219 -259 -299 -339 0
-180 -220 -260 -300 -340 0
-181 -221 -261 -301 -341 0
-182 -222 -262 -302 -342 0
-183 -223 -263 -303 -343 0
-184 -224 -264 -304 -344 0
-185 -225 -265 -305 -345 0
-186 -226 -266 -306 -346 0
-187 -227 -267 -307 -347 0
-188 -228 -268 -308 -348 0
-189 -229 -269 -309 -349 0
-190 -230 -270 -310 -350 0
-191 -231 -271 -311 -351 0
-192 -232 -272 -312 -352 0
-193 -233 -273 -313 -353 0
-194 -234 -274 -314 -354 0
-195 -235 -275 -315 -355 0
-196 -236 -276 -316 -356 0
-1 -43 -85 -127 -169 0
-2 -44 -86 -128 -170 0
-3 -45 -87 -129 -171 0
-4 -46 -88 -130 -172 0
-5 -47 -89 -131 -173 0
-6 -48 -90 -132 -174 0
-7 -49 -91 -133 -175 0
-8 -50 -92 -134 -176 0
-9 -51 -93 -135 -177 0
-10 -52 -94 -136 -178 0
-11 -53 -95 -137 -179 0
-12 -54 -96 -138 -180 0
-13 -55 -97 -139 -181 0
-14 -56 -98 -140 -182 0
-15 -57 -99 -141 -183 0
-16 -58 -100 -142 -184 0
-17 -59 -101 -143 -185 0
-18 -60 -102 -144 -186 0
-19 -61 -103 -145 -187 0
-20 -62 -104 -146 -188 0
-21 -63 -105 -147 -189 0
-22 -64 -106 -148 -190 0
-23 -65 -107 -149 -191 0
-24 -66 -108 -150 -192 0
-25 -67 -109 -151 -193 0
-26 -68 -110 -152 -194 0
-27 -69 -111 -153 -195 0
-28 -70 -112 -154 -196 0
-29 -71 -113 -155 -197 0
-30 -72 -114 -156 -198 0
-31 -73 -115 -157 -199 0
-32 -74 -116 -158 -200 0
-33 -75 -117 -159 -201 0
-34 -76 -118 -160 -202 0
-35 -77 -119 -161 -203 0
-36 -78 -120 -162 -204 0
-37 -79 -121 -163 -205 0
-38 -80 -122 -164 -206 0
-39 -81 -123 -165 -207 0
-40 -82 -124 -166 -208 0
-41 -83 -125 -167 -209 0
-42 -84 -126 -168 -210 0
-43 -85 -127 -169 -211 0
-44 -86 -128 -170 -212 0
-45 -87 -129 -171 -213 0
-46 -88 -130 -172 -214 0
-47 -89 -131 -173 -215 0
-48 -90 -132 -174 -216 0
-49 -91 -133 -175 -217 0
-50 -92 -134 -176 -218 0
-51 -93 -135 -177 -219 0
-52 -94 -136 -178 -220 0
-53 -95 -137 -179 -221 0
-54 -96 -138 -180 -222 0
-55 -97 -139 -181 -223 0
-56 -98 -140 -182 -224 0
-57 -99 -141 -183 -225 0
-58 -100 -142 -184 -226 0
-59 -101 -143 -185 -227 0
-60 -102 -144 -186 -228 0
-61 -103 -145 -187 -229 0
-62 -104 -146 -188 -230 0
-63 -105 -147 -189 -231 0
-64 -106 -148 -190 -232 0
-65 -107 -149 -191 -233 0
-66 -108 -150 -192 -234 0
-67 -109 -151 -193 -235 0
-68 -110 -152 -194 -236 0
-69 -111 -153 -195 -237 0
-70 -112 -154 -196 -238 0
-71 -113 -155 -197 -239 0
-72 -114 -156 -198 -240 0
-73 -115 -157 -199 -241 0
-74 -116 -158 -200 -242 0
-75 -117 -159 -201 -243 0
-76 -118 -160 -202 -244 0
-77 -119 -161 -203 -245 0
-78 -120 -162 -204 -246 0
-79 -121 -163 -205 -247 0
-80 -122 -164 -206 -248 0
-81 -123 -165 -207 -249 0
-82 -124 -166 -208 -250 0
-83 -125 -167 -209 -251 0
-84 -126 -168 -210 -252 0
-85 -127 -169 -211 -253 0
-86 -128 -170 -212 -254 0
-87 -129 -171 -213 -255 0
-88 -130 -172 -214 -256 0
-89 -131 -173 -215 -257 0
-90 -132 -174 -216 -258 0
-91 -133 -175 -217 -259 0
-92 -134 -176 -218 -260 0
-93 -135 -177 -219 -261 0
-94 -136 -178 -220 -262 0
-95 -137 -179 -221 -263 0
-96 -138 -180 -222 -264 0
-97 -139 -181 -223 -265 0
-98 -140 -182 -224 -266 0
-99 -141 -183 -225 -267 0
-100 -142 -184 -226 -268 0
-101 -143 -185 -227 -269 0
-102 -144 -186 -228 -270 0
-103 -145 -187 -229 -271 0
-104 -146 -188 -230 -272 0
-105 -147 -189 -231 -273 0
-106 -148 -190 -232 -274 0
-107 -149 -191 -233 -275 0
-108 -150 -192 -234 -276 0
-109 -151 -193 -235 -277 0
-110 -152 -194 -236 -278 0
-111 -153 -195 -237 -279 0
-112 -154 -196 -238 -280 0
-113 -155 -197 -239 -281 0
-114 -156 -198 -240 -282 0
-115 -157 -199 -241 -283 0
-116 -158 -200 -242 -284 0
-117 -159 -201 -243 -285 0
-118 -160 -202 -244 -286 0
-119 -161 -203 -245 -287 0
-120 -162 -204 -246 -288 0
-121 -163 -205 -247 -289 0
-122 -164 -206 -248 -290 0
-123 -165 -207 -249 -291 0
-124 -166 -208 -250 -292 0
-125 -167 -209 -251 -293 0
-126 -168 -210 -252 -294 0
-127 -169 -211 -253 -295 0
-128 -170 -212 -254 -296 0
-129 -171 -213 -255 -297 0
-130 -172 -214 -256 -298 0
-131 -173 -215 -257 -299 0
-132 -174 -216 -258 -300 0
-133 -175 -217 -259 -301 0
-134 -176 -218 -260 -302 0
-135 -177 -219 -261 -303 0
-136 -178 -220 -262 -304 0
-137 -179 -221 -263 -305 0
-138 -180 -222 -264 -306 0
-139 -181 -223 -265 -307 0
-140 -182 -224 -266 -308 0
-141 -183 -225 -267 -309 0
-142 -184 -226 -268 -310 0
-143 -185 -227 -269 -311 0
-144 -186 -228 -270 -312 0
-145 -187 -229 -271 -313 0
-146 -188 -230 -272 -314 0
-147 -189 -231 -273 -315 0
-148 -190 -232 -274 -316 0
-149 -191 -233 -275 -317 0
-150 -192 -234 -276 -318 0
-151 -193 -235 -277 -319 0
-152 -194 -236 -278 -320 0
-153 -195 -237 -279 -321 0
-154 -196 -238 -280 -322 0
-155 -197 -239 -281 -323 0
-156 -198 -240 -282 -324 0
-157 -199 -241 -283 -325 0
-158 -200 -242 -284 -326 0
-159 -201 -243 -285 -327 0
-160 -202 -244 -286 -328 0
-161 -203 -245 -287 -329 0
-162 -204 -246 -288 -330 0
-163 -205 -247 -289 -331 0
-164 -206 -248 -290 -332 0
-165 -207 -249 -291 -333 0
-166 -208 -250 -292 -334 0
-167 -209 -251 -293 -335 0
-168 -210 -252 -294 -336 0
-169 -211 -253 -295 -337 0
-170 -212 -254 -296 -338 0
-171 -213 -255 -297 -339 0
-172 -214 -256 -298 -340 0
-173 -215 -257 -299 -341 0
-174 -216 -258 -300 -342 0
-175 -217 -259 -301 -343 0
-176 -218 -260 -302 -344 0
-177 -219 -261 -303 -345 0
-178 -220 -262 -304 -346 0
-179 -221 -263 -305 -347 0
-180 -222 -264 -306 -348 0
-181 -223 -265 -307 -349 0
-182 -224 -266 -308 -350 0
-183 -225 -267 -309 -351 0
-184 -226 -268 -310 -352 0
-185 -227 -269 -311 -353 0
-186 -228 -270 -312 -354 0
-187 -229 -271 -313 -355 0
-188 -230 -272 -314 -356 0
-1 -45 -89 -133 -177 0
-2 -46 -90 -134 -178 0
-3 -47 -91 -135 -179 0
-4 -48 -92 -136 -180 0
-5 -49 -93 -137 -181 0
-6 -50 -94 -138 -182 0
-7 -51 -95 -139 -183 0
-8 -52 -96 -140 -184 0
-9 -53 -97 -141 -185 0
-10 -54 -98 -142 -186 0
-11 -55 -99 -143 -187 0
-12 -56 -100 -144 -188 0
-13 -57 -101 -145 -189 0
-14 -58 -102 -146 -190 0
-15 -59 -103 -147 -191 0
-16 -60 -104 -148 -192 0
-17 -61 -105 -149 -193 0
-18 -62 -106 -150 -194 0
-19 -63 -107 -151 -195 0
-20 -64 -108 -152 -196 0
-21 -65 -109 -153 -197 0
-22 -66 -110 -154 -198 0
-23 -67 -111 -155 -199 0
-24 -68 -112 -156 -200 0
-25 -69 -113 -157 -201 0
-26 -70 -114 -158 -202 0
-27 -71 -115 -159 -203 0
-28 -72 -116 -160 -204 0
-29 -73 -117 -161 -205 0
-30 -74 -118 -162 -206 0
-31 -75 -119 -163 -207 0
-32 -76 -120 -164 -208 0
-33 -77 -121 -165 -209 0
-34 -78 -122 -166 -210 0
-35 -79 -123 -167 -211 0
-36 -80 -124 -168 -212 0
-37 -81 -125 -169 -213 0
-38 -82 -126 -170 -214 0
-39 -83 -127 -171 -215 0
-40 -84 -128 -172 -216 0
-41 -85 -129 -173 -217 0
-42 -86 -130 -174 -218 0
-43 -87 -131 -175 -219 0
-44 -88 -132 -176 -220 0
-45 -89 -133 -177 -221 0
-46 -90 -134 -178 -222 0
-47 -91 -135 -179 -223 0
-48 -92 -136 -180 -224 0
-49 -93 -137 -181 -225 0
-50 -94 -138 -182 -226 0
-51 -95 -139 -183 -227 0
-52 -96 -140 -184 -228 0
-53 -97 -141 -185 -229 0
-54 -98 -142 -186 -230 0
-55 -99 -143 -187 -231 0
-56 -100 -144 -188 -232 0
-57 -101 -145 -189 -233 0
-58 -102 -146 -190 -234 0
-59 -103 -147 -191 -235 0
-60 -104 -148 -192 -236 0
-61 -105 -149 -193 -237 0
-62 -106 -150 -194 -238 0
-63 -107 -151 -195 -239 0
-64 -108 -152 -196 -240 0
-65 -109 -153 -197 -241 0
-66 -110 -154 -198 -242 0
-67 -111 -155 -199 -243 0
-68 -112 -156 -200 -244 0
-69 -113 -157 -201 -245 0
-70 -114 -158 -202 -246 0
-71 -115 -159 -203 -247 0
-72 -116 -160 -204 -248 0
-73 -117 -161 -205 -249 0
-74 -118 -162 -206 -250 0
-75 -119 -163 -207 -251 0
-76 -120 -164 -208 -252 0
-77 -121 -165 -209 -253 0
-78 -122 -166 -210 -254 0
-79 -123 -167 -211 -255 0
-80 -124 -168 -212 -256 0
-81 -125 -169 -213 -257 0
-82 -126 -170 -214 -258 0
-83 -127 -171 -215 -259 0
-84 -128 -172 -216 -260 0
-85 -129 -173 -217 -261 0
-86 -130 -174 -218 -262 0
-87 -131 -175 -219 -263 0
-88 -132 -176 -220 -264 0
-89 -133 -177 -221 -265 0
-90 -134 -178 -222 -266 0
-91 -135 -179 -223 -267 0
-92 -136 -180 -224 -268 0
-93 -137 -181 -225 -269 0
-94 -138 -182 -226 -270 0
-95 -139 -183 -227 -271 0
-96 -140 -184 -228 -272 0
-97 -141 -185 -229 -273 0
-98 -142 -186 -230 -274 0
-99 -143 -187 -231 -275 0
-100 -144 -188 -232 -276 0
-101 -145 -189 -233 -277 0
-102 -146 -190 -234 -278 0
-103 -147 -191 -235 -279 0
-104 -148 -192 -236 -280 0
-105 -149 -193 -237 -281 0
-106 -150 -194 -238 -282 0
-107 -151 -195 -239 -283 0
-108 -152 -196 -240 -284 0
-109 -153 -197 -241 -285 0
-110 -154 -198 -242 -286 0
-111 -155 -199 -243 -287 0
-112 -156 -200 -244 -288 0
-113 -157 -201 -245 -289 0
-114 -158 -202 -246 -290 0
-115 -159 -203 -247 -291 0
-116 -160 -204 -248 -292 0
-117 -161 -205 -249 -293 0
-118 -162 -206 -250 -294 0
-119 -163 -207 -251 -295 0
-120 -164 -208 -252 -296 0
-121 -165 -209 -253 -297 0
-122 -166 -210 -254 -298 0
-123 -167 -211 -255 -299 0
-124 -168 -212 -256 -300 0
-125 -169 -213 -257 -301 0
-126 -170 -214 -258 -302 0
-127 -171 -215 -259 -303 0
-128 -172 -216 -260 -304 0
-129 -173 -217 -261 -305 0
-130 -174 -218 -262 -306 0
-131 -175 -219 -263 -307 0
-132 -176 -220 -264 -308 0
-133 -177 -221 -265 -309 0
-134 -178 -222 -266 -310 0
-135 -179 -223 -267 -311 0
-136 -180 -224 -268 -312 0
-137 -181 -225 -269 -313 0
-138 -182 -226 -270 -314 0
-139 -183 -227 -271 -315 0
-140 -184 -228 -272 -316 0
-141 -185 -229 -273 -317 0
-142 -186 -230 -274 -318 0
-143 -187 -231 -275 -319 0
-144 -188 -232 -276 -320 0
-145 -189 -233 -277 -321 0
-146 -190 -234 -278 -322 0
-147 -191 -235 -279 -323 0
-148 -192 -236 -280 -324 0
-149 -193 -237 -281 -325 0
-150 -194 -238 -282 -326 0
-151 -195 -239 -283 -327 0
-152 -196 -240 -284 -328 0
-153 -197 -241 -285 -329 0
-154 -198 -242 -286 -330 0
-155 -199 -243 -287 -331 0
-156 -200 -244 -288 -332 0
-157 -201 -245 -289 -333 0
-158 -202 -246 -290 -334 0
-159 -203 -247 -291 -335 0
-160 -204 -248 -292 -336 0
-161 -205 -249 -293 -337 0
-162 -206 -250 -294 -338 0
-163 -207 -251 -295 -339 0
-164 -208 -252 -296 -340 0
-165 -209 -253 -297 -341 0
-166 -210 -254 -298 -342 0
-167 -211 -255 -299 -343 0
-168 -212 -256 -300 -344 0
-169 -213 -257 -301 -345 0
-170 -214 -258 -302 -346 0
-171 -215 -259 -303 -347 0
-172 -216 -260 -304 -348 0
-173 -217 -261 -305 -349 0
-174 -218 -262 -306 -350 0
-175 -219 -263 -307 -351 0
-176 -220 -264 -308 -352 0
-177 -221 -265 -309 -353 0
-178 -222 -266 -310 -354 0
-179 -223 -267 -311 -355 0
-180 -224 -268 -312 -356 0
-1 -47 -93 -139 -185 0
-2 -48 -94 -140 -186 0
-3 -49 -95 -141 -187 0
-4 -50 -96 -142 -188 0
-5 -51 -97 -143 -189 0
-6 -52 -98 -144 -190 0
-7 -53 -99 -145 -191 0
-8 -54 -100 -146 -192 0
-9 -55 -101 -147 -193 0
-10 -56 -102 -148 -194 0
-11 -57 -103 -149 -195 0
-12 -58 -104 -150 -196 0
-13 -59 -105 -151 -197 0
-14 -60 -106 -152 -198 0
-15 -61 -107 -153 -199 0
-16 -62 -108 -154 -200 0
-17 -63 -109 -155 -201 0
-18 -64 -110 -156 -202 0
-19 -65 -111 -157 -203 0
-20 -66 -112 -158 -204 0
-21 -67 -113 -159 -205 0
-22 -68 -114 -160 -206 0
-23 -69 -115 -161 -207 0
-24 -70 -116 -162 -208 0
-25 -71 -117 -163 -209 0
-26 -72 -118 -164 -210 0
-27 -73 -119 -165 -211 0
-28 -74 -120 -166 -212 0
-29 -75 -121 -167 -213 0
-30 -76 -122 -168 -214 0
-31 -77 -123 -169 -215 0
-32 -78 -124 -170 -216 0
-33 -79 -125 -171 -217 0
-34 -80 -126 -172 -218 0
-35 -81 -127 -173 -219 0
-36 -82 -128 -174 -220 0
-37 -83 -129 -175 -221 0
-38 -84 -130 -176 -222 0
-39 -85 -131 -177 -223 0
-40 -86 -132 -178 -224 0
-41 -87 -133 -179 -225 0
-42 -88 -134 -180 -226 0
-43 -89 -135 -181 -227 0
-44 -90 -136 -182 -228 0
-45 -91 -137 -183 -229 0
-46 -92 -138 -184 -230 0
-47 -93 -139 -185 -231 0
-48 -94 -140 -186 -232 0
-49 -95 -141 -187 -233 0
-50 -96 -142 -188 -234 0
-51 -97 -143 -189 -235 0
-52 -98 -144 -190 -236 0
-53 -99 -145 -191 -237 0
-54 -100 -146 -192 -238 0
-55 -101 -147 -193 -239 0
-56 -102 -148 -194 -240 0
-57 -103 -149 -195 -241 0
-58 -104 -150 -196 -242 0
-59 -105 -151 -197 -243 0
-60 -106 -152 -198 -244 0
-61 -107 -153 -199 -245 0
-62 -108 -154 -200 -246 0
-63 -109 -155 -201 -247 0
-64 -110 -156 -202 -248 0
-65 -111 -157 -203 -249 0
-66 -112 -158 -204 -250 0
-67 -113 -159 -205 -251 0
-68 -114 -160 -206 -252 0
-69 -115 -161 -207 -253 0
-70 -116 -162 -208 -254 0
-71 -117 -163 -209 -255 0
-72 -118 -164 -210 -256 0
-73 -119 -165 -211 -257 0
-74 -120 -166 -212 -258 0
-75 -121 -167 -213 -259 0
-76 -122 -168 -214 -260 0
-77 -123 -169 -215 -261 0
-78 -124 -170 -216 -262 0
-79 -125 -171 -217 -263 0
-80 -126 -172 -218 -264 0
-81 -127 -173 -219 -265 0
-82 -128 -174 -220 -266 0
-83 -129 -175 -221 -267 0
-84 -130 -176 -222 -268 0
-85 -131 -177 -223 -269 0
-86 -132 -178 -224 -270 0
-87 -133 -179 -225 -271 0
-88 -134 -180 -226 -272 0
-89 -135 -181 -227 -273 0
-90 -136 -182 -228 -274 0
-91 -137 -183 -229 -275 0
-92 -138 -184 -230 -276 0
-93 -139 -185 -231 -277 0
-94 -140 -186 -232 -278 0
-95 -141 -187 -233 -279 0
-96 -142 -188 -234 -280 0
-97 -143 -189 -235 -281 0
-98 -144 -190 -236 -282 0
-99 -145 -191 -237 -283 0
-100 -146 -192 -238 -284 0
-101 -147 -193 -239 -285 0
-102 -148 -194 -240 -286 0
-103 -149 -195 -241 -287 0
-104 -150 -196 -242 -288 0
-105 -151 -197 -243 -289 0
-106 -152 -198 -244 -290 0
-107 -153 -199 -245 -291 0
-108 -154 -200 -246 -292 0
-109 -155 -201 -247 -293 0
-110 -156 -202 -248 -294 0
-111 -157 -203 -249 -295 0
-112 -158 -204 -250 -296 0
-113 -159 -205 -251 -297 0
-114 -160 -206 -252 -298 0
-115 -161 -207 -253 -299 0
-116 -162 -208 -254 -300 0
-117 -163 -209 -255 -301 0
-118 -164 -210 -256 -302 0
-119 -165 -211 -257 -303 0
-120 -166 -212 -258 -304 0
-121 -167 -213 -259 -305 0
-122 -168 -214 -260 -306 0
-123 -169 -215 -261 -307 0
-124 -170 -216 -262 -308 0
-125 -171 -217 -263 -309 0
-126 -172 -218 -264 -310 0
-127 -173 -219 -265 -311 0
-128 -174 -220 -266 -312 0
-129 -175 -221 -267 -313 0
-130 -176 -222 -268 -314 0
-131 -177 -223 -269 -315 0
-132 -178 -224 -270 -316 0
-133 -179 -225 -271 -317 0
-134 -180 -226 -272 -318 0
-135 -181 -227 -273 -319 0
-136 -182 -228 -274 -320 0
-137 -183 -229 -275 -321 0
-138 -184 -230 -276 -322 0
-139 -185 -231 -277 -323 0
-140 -186 -232 -278 -324 0
-141 -187 -233 -279 -325 0
-142 -188 -234 -280 -326 0
-143 -189 -235 -281 -327 0
-144 -190 -236 -282 -328 0
-145 -191 -237 -283 -329 0
-146 -192 -238 -284 -330 0
-147 -193 -239 -285 -331 0
-148 -194 -240 -286 -332 0
-149 -195 -241 -287 -333 0
-150 -196 -242 -288 -334 0
-151 -197 -243 -289 -335 0
-152 -198 -244 -290 -336 0
-153 -199 -245 -291 -337 0
-154 -200 -246 -292 -338 0
-155 -201 -247 -293 -339 0
-156 -202 -248 -294 -340 0
-157 -203 -249 -295 -341 0
-158 -204 -250 -296 -342 0
-159 -205 -251 -297 -343 0
-160 -206 -252 -298 -344 0
-161 -207 -253 -299 -345 0
-162 -208 -254 -300 -346 0
-163 -209 -255 -301 -347 0
-164 -210 -256 -302 -348 0
-165 -211 -257 -303 -349 0
-166 -212 -258 -304 -350 0
-167 -213 -259 -305 -351 0
-168 -214 -260 -306 -352 0
-169 -215 -261 -307 -353 0
-170 -216 -262 -308 -354 0
-171 -217 -263 -309 -355 0
-172 -218 -264 -310 -356 0
-1 -49 -97 -145 -193 0
-2 -50 -98 -146 -194 0
-3 -51 -99 -147 -195 0
-4 -52 -100 -148 -196 0
-5 -53 -101 -149 -197 0
-6 -54 -102 -150 -198 0
-7 -55 -103 -151 -199 0
-8 -56 -104 -152 -200 0
-9 -57 -105 -153 -201 0
-10 -58 -106 -154 -202 0
-11 -59 -107 -155 -203 0
-12 -60 -108 -156 -204 0
-13 -61 -109 -157 -205 0
-14 -62 -110 -158 -206 0
-15 -63 -111 -159 -207 0
-16 -64 -112 -160 -208 0
-17 -65 -113 -161 -209 0
-18 -66 -114 -162 -210 0
-19 -67 -115 -163 -211 0
-20 -68 -116 -164 -212 0
-21 -69 -117 -165 -213 0
-22 -70 -118 -166 -214 0
-23 -71 -119 -167 -215 0
-24 -72 -120 -168 -216 0
-25 -73 -121 -169 -217 0
-26 -74 -122 -170 -218 0
-27 -75 -123 -171 -219 0
-28 -76 -124 -172 -220 0
-29 -77 -125 -173 -221 0
-30 -78 -126 -174 -222 0
-31 -79 -127 -175 -223 0
-32 -80 -128 -176 -224 0
-33 -81 -129 -177 -225 0
-34 -82 -130 -178 -226 0
-35 -83 -131 -179 -227 0
-36 -84 -132 -180 -228 0
-37 -85 -133 -181 -229 0
-38 -86 -134 -182 -230 0
-39 -87 -135 -183 -231 0
-40 -88 -136 -184 -232 0
-41 -89 -137 -185 -233 0
-42 -90 -138 -186 -234 0
-43 -91 -139 -187 -235 0
-44 -92 -140 -188 -236 0
-45 -93 -141 -189 -237 0
-46 -94 -142 -190 -238 0
-47 -95 -143 -191 -239 0
-48 -96 -144 -192 -240 0
-49 -97 -145 -193 -241 0
-50 -98 -146 -194 -242 0
-51 -99 -147 -195 -243 0
-52 -100 -148 -196 -244 0
-53 -101 -149 -197 -245 0
-54 -102 -150 -198 -246 0
-55 -103 -151 -199 -247 0
-56 -104 -152 -200 -248 0
-57 -105 -153 -201 -249 0
-58 -106 -154 -202 -250 0
-59 -107 -155 -203 -251 0
-60 -108 -156 -204 -252 0
-61 -109 -157 -205 -253 0
-62 -110 -158 -206 -254 0
-63 -111 -159 -207 -255 0
-64 -112 -160 -208 -256 0
-65 -113 -161 -209 -257 0
-66 -114 -162 -210 -258 0
-67 -115 -163 -211 -259 0
-68 -116 -164 -212 -260 0
-69 -117 -165 -213 -261 0
-70 -118 -166 -214 -262 0
-71 -119 -167 -215 -263 0
-72 -120 -168 -216 -264 0
-73 -121 -169 -217 -265 0
-74 -122 -170 -218 -266 0
-75 -123 -171 -219 -267 0
-76 -124 -172 -220 -268 0
-77 -125 -173 -221 -269 0
-78 -126 -174 -222 -270 0
-79 -127 -175 -223 -271 0
-80 -128 -176 -224 -272 0
-81 -129 -177 -225 -273 0
-82 -130 -178 -226 -274 0
-83 -131 -179 -227 -275 0
-84 -132 -180 -228 -276 0
-85 -133 -181 -229 -277 0
-86 -134 -182 -230 -278 0
-87 -135 -183 -231 -279 0
-88 -136 -184 -232 -280 0
-89 -137 -185 -233 -281 0
-90 -138 -186 -234 -282 0
-91 -139 -187 -235 -283 0
-92 -140 -188 -236 -284 0
-93 -141 -189 -237 -285 0
-94 -142 -190 -238 -286 0
-95 -143 -191 -239 -287 0
-96 -144 -192 -240 -288 0
-97 -145 -193 -241 -289 0
-98 -146 -194 -242 -290 0
-99 -147 -195 -243 -291 0
-100 -148 -196 -244 -292 0
-101 -149 -197 -245 -293 0
-102 -150 -198 -246 -294 0
-103 -151 -199 -247 -295 0
-104 -152 -200 -248 -296 0
-105 -153 -201 -249 -297 0
-106 -154 -202 -250 -298 0
-107 -155 -203 -251 -299 0
-108 -156 -204 -252 -300 0
-109 -157 -205 -253 -301 0
-110 -158 -206 -254 -302 0
-111 -159 -207 -255 -303 0
-112 -160 -208 -256 -304 0
-113 -161 -209 -257 -305 0
-114 -162 -210 -258 -306 0
-115 -163 -211 -259 -307 0
-116 -164 -212 -260 -308 0
-117 -165 -213 -261 -309 0
-118 -166 -214 -262 -310 0
-119 -167 -215 -263 -311 0
-120 -168 -216 -264 -312 0
-121 -169 -217 -265 -313 0
-122 -170 -218 -266 -314 0
-123 -171 -219 -267 -315 0
-124 -172 -220 -268 -316 0
-125 -173 -221 -269 -317 0
-126 -174 -222 -270 -318 0
-127 -175 -223 -271 -319 0
-128 -176 -224 -272 -320 0
-129 -177 -225 -273 -321 0
-130 -178 -226 -274 -322 0
-131 -179 -227 -275 -323 0
-132 -180 -228 -276 -324 0
-133 -181 -229 -277 -325 0
-134 -182 -230 -278 -326 0
-135 -183 -231 -279 -327 0
-136 -184 -232 -280 -328 0
-137 -185 -233 -281 -329 0
-138 -186 -234 -282 -330 0
-139 -187 -235 -283 -331 0
-140 -188 -236 -284 -332 0
-141 -189 -237 -285 -333 0
-142 -190 -238 -286 -334 0
-143 -191 -239 -287 -335 0
-144 -192 -240 -288 -336 0
-145 -193 -241 -289 -337 0
-146 -194 -242 -290 -338 0
-147 -195 -243 -291 -339 0
-148 -196 -244 -292 -340 0
-149 -197 -245 -293 -341 0
-150 -198 -246 -294 -342 0
-151 -199 -247 -295 -343 0
-152 -200 -248 -296 -344 0
-153 -201 -249 -297 -345 0
-154 -202 -250 -298 -346 0
-155 -203 -251 -299 -347 0
-156 -204 -252 -300 -348 0
-157 -205 -253 -301 -349 0
-158 -206 -254 -302 -350 0
-159 -207 -255 -303 -351 0
-160 -208 -256 -304 -352 0
-161 -209 -257 -305 -353 0
-162 -210 -258 -306 -354 0
-163 -211 -259 -307 -355 0
-164 -212 -260 -308 -356 0
-1 -51 -101 -151 -201 0
-2 -52 -102 -152 -202 0
-3 -53 -103 -153 -203 0
-4 -54 -104 -154 -204 0
-5 -55 -105 -155 -205 0
-6 -56 -106 -156 -206 0
-7 -57 -107 -157 -207 0
-8 -58 -108 -158 -208 0
-9 -59 -109 -159 -209 0
-10 -60 -110 -160 -210 0
-11 -61 -111 -161 -211 0
-12 -62 -112 -162 -212 0
-13 -63 -113 -163 -213 0
-14 -64 -114 -164 -214 0
-15 -65 -115 -165 -215 0
-16 -66 -116 -166 -216 0
-17 -67 -117 -167 -217 0
-18 -68 -118 -168 -218 0
-19 -69 -119 -169 -219 0
-20 -70 -120 -170 -220 0
-21 -71 -121 -171 -221 0
-22 -72 -122 -172 -222 0
-23 -73 -123 -173 -223 0
-24 -74 -124 -174 -224 0
-25 -75 -125 -175 -225 0
-26 -76 -126 -176 -226 0
-27 -77 -127 -177 -227 0
-28 -78 -128 -178 -228 0
-29 -79 -129 -179 -229 0
-30 -80 -130 -180 -230 0
-31 -81 -131 -181 -231 0
-32 -82 -132 -182 -232 0
-33 -83 -133 -183 -233 0
-34 -84 -134 -184 -234 0
-35 -85 -135 -185 -235 0
-36 -86 -136 -186 -236 0
-37 -87 -137 -187 -237 0
-38 -88 -138 -188 -238 0
-39 -89 -139 -189 -239 0
-40 -90 -140 -190 -240 0
-41 -91 -141 -191 -241 0
-42 -92 -142 -192 -242 0
-43 -93 -143 -193 -243 0
-44 -94 -144 -194 -244 0
-45 -95 -145 -195 -245 0
-46 -96 -146 -196 -246 0
-47 -97 -147 -197 -247 0
-48 -98 -148 -198 -248 0
-49 -99 -149 -199 -249 0
-50 -100 -150 -200 -250 0
-51 -101 -151 -201 -251 0
-52 -102 -152 -202 -252 0
-53 -103 -153 -203 -253 0
-54 -104 -154 -204 -254 0
-55 -105 -155 -205 -255 0
-56 -106 -156 -206 -256 0
-57 -107 -157 -207 -257 0
-58 -108 -158 -208 -258 0
-59 -109 -159 -209 -259 0
-60 -110 -160 -210 -260 0
-61 -111 -161 -211 -261 0
-62 -112 -162 -212 -262 0
-63 -113 -163 -213 -263 0
-64 -114 -164 -214 -264 0
-65 -115 -165 -215 -265 0
-66 -116 -166 -216 -266 0
-67 -117 -167 -217 -267 0
-68 -118 -168 -218 -268 0
-69 -119 -169 -219 -269 0
-70 -120 -170 -220 -270 0
-71 -121 -171 -221 -271 0
-72 -122 -172 -222 -272 0
-73 -123 -173 -223 -273 0
-74 -124 -174 -224 -274 0
-75 -125 -175 -225 -275 0
-76 -126 -176 -226 -276 0
-77 -127 -177 -227 -277 0
-78 -128 -178 -228 -278 0
-79 -129 -179 -229 -279 0
-80 -130 -180 -230 -280 0
-81 -131 -181 -231 -281 0
-82 -132 -182 -232 -282 0
-83 -133 -183 -233 -283 0
-84 -134 -184 -234 -284 0
-85 -135 -185 -235 -285 0
-86 -136 -186 -236 -286 0
-87 -137 -187 -237 -287 0
-88 -138 -188 -238 -288 0
-89 -139 -189 -239 -289 0
-90 -140 -190 -240 -290 0
-91 -141 -191 -241 -291 0
-92 -142 -192 -242 -292 0
-93 -143 -193 -243 -293 0
-94 -144 -194 -244 -294 0
-95 -145 -195 -245 -295 0
-96 -146 -196 -246 -296 0
-97 -147 -197 -247 -297 0
-98 -148 -198 -248 -298 0
-99 -149 -199 -249 -299 0
-100 -150 -200 -250 -300 0
-101 -151 -201 -251 -301 0
-102 -152 -202 -252 -302 0
-103 -153 -203 -253 -303 0
-104 -154 -204 -254 -304 0
-105 -155 -205 -255 -305 0
-106 -156 -206 -256 -306 0
-107 -157 -207 -257 -307 0
-108 -158 -208 -258 -308 0
-109 -159 -209 -259 -309 0
-110 -160 -210 -260 -310 0
-111 -161 -211 -261 -311 0
-112 -162 -212 -262 -312 0
-113 -163 -213 -263 -313 0
-114 -164 -214 -264 -314 0
-115 -165 -215 -265 -315 0
-116 -166 -216 -266 -316 0
-117 -167 -217 -267 -317 0
-118 -168 -218 -268 -318 0
-119 -169 -219 -269 -319 0
-120 -170 -220 -270 -320 0
-121 -171 -221 -271 -321 0
-122 -172 -222 -272 -322 0
-123 -173 -223 -273 -323 0
-124 -174 -224 -274 -324 0
-125 -175 -225 -275 -325 0
-126 -176 -226 -276 -326 0
-127 -177 -227 -277 -327 0
-128 -178 -228 -278 -328 0
-129 -179 -229 -279 -329 0
-130 -180 -230 -280 -330 0
-131 -181 -231 -281 -331 0
-132 -182 -232 -282 -332 0
-133 -183 -233 -283 -333 0
-134 -184 -234 -284 -334 0
-135 -185 -235 -285 -335 0
-136 -186 -236 -286 -336 0
-137 -187 -237 -287 -337 0
-138 -188 -238 -288 -338 0
-139 -189 -239 -289 -339 0
-140 -190 -240 -290 -340 0
-141 -191 -241 -291 -341 0
-142 -192 -242 -292 -342 0
-143 -193 -243 -293 -343 0
-144 -194 -244 -294 -344 0
-145 -195 -245 -295 -345 0
-146 -196 -246 -296 -346 0
-147 -197 -247 -297 -347 0
-148 -198 -248 -298 -348 0
-149 -199 -249 -299 -349 0
-150 -200 -250 -300 -350 0
-151 -201 -251 -301 -351 0
-152 -202 -252 -302 -352 0
-153 -203 -253 -303 -353 0
-154 -204 -254 -304 -354 0
-155 -205 -255 -305 -355 0
-156 -206 -256 -306 -356 0
-1 -53 -105 -157 -209 0
-2 -54 -106 -158 -210 0
-3 -55 -107 -159 -211 0
-4 -56 -108 -160 -212 0
-5 -57 -109 -161 -213 0
-6 -58 -110 -162 -214 0
-7 -59 -111 -163 -215 0
-8 -60 -112 -164 -216 0
-9 -61 -113 -165 -217 0
-10 -62 -114 -166 -218 0
-11 -63 -115 -167 -219 0
-12 -64 -116 -168 -220 0
-13 -65 -117 -169 -221 0
-14 -66 -118 -170 -222 0
-15 -67 -119 -171 -223 0
-16 -68 -120 -172 -224 0
-17 -69 -121 -173 -225 0
-18 -70 -122 -174 -226 0
-19 -71 -123 -175 -227 0
-20 -72 -124 -176 -228 0
-21 -73 -125 -177 -229 0
-22 -74 -126 -178 -230 0
-23 -75 -127 -179 -231 0
-24 -76 -128 -180 -232 0
-25 -77 -129 -181 -233 0
-26 -78 -130 -182 -234 0
-27 -79 -131 -183 -235 0
-28 -80 -132 -184 -236 0
-29 -81 -133 -185 -237 0
-30 -82 -134 -186 -238 0
-31 -83 -135 -187 -239 0
-32 -84 -136 -188 -240 0
-33 -85 -137 -189 -241 0
-34 -86 -138 -190 -242 0
-35 -87 -139 -191 -243 0
-36 -88 -140 -192 -244 0
-37 -89 -141 -193 -245 0
-38 -90 -142 -194 -246 0
-39 -91 -143 -195 -247 0
-40 -92 -144 -196 -248 0
-41 -93 -145 -197 -249 0
-42 -94 -146 -198 -250 0
-43 -95 -147 -199 -251 0
-44 -96 -148 -200 -252 0
-45 -97 -149 -201 -253 0
-46 -98 -150 -202 -254 0
-47 -99 -151 -203 -255 0
-48 -100 -152 -204 -256 0
-49 -101 -153 -205 -257 0
-50 -102 -154 -206 -258 0
-51 -103 -155 -207 -259 0
-52 -104 -156 -208 -260 0
-53 -105 -157 -209 -261 0
-54 -106 -158 -210 -262 0
-55 -107 -159 -211 -263 0
-56 -108 -160 -212 -264 0
-57 -109 -161 -213 -265 0
-58 -110 -162 -214 -266 0
-59 -111 -163 -215 -267 0
-60 -112 -164 -216 -268 0
-61 -113 -165 -217 -269 0
-62 -114 -166 -218 -270 0
-63 -115 -167 -219 -271 0
-64 -116 -168 -220 -272 0
-65 -117 -169 -221 -273 0
-66 -118 -170 -222 -274 0
-67 -119 -171 -223 -275 0
-68 -120 -172 -224 -276 0
-69 -121 -173 -225 -277 0
-70 -122 -174 -226 -278 0
-71 -123 -175 -227 -279 0
-72 -124 -176 -228 -280 0
-73 -125 -177 -229 -281 0
-74 -126 -178 -230 -282 0
-75 -127 -179 -231 -283 0
-76 -128 -180 -232 -284 0
-77 -129 -181 -233 -285 0
-78 -130 -182 -234 -286 0
-79 -131 -183 -235 -287 0
-80 -132 -184 -236 -288 0
-81 -133 -185 -237 -289 0
-82 -134 -186 -238 -290 0
-83 -135 -187 -239 -291 0
-84 -136 -188 -240 -292 0
-85 -137 -189 -241 -293 0
-86 -138 -190 -242 -294 0
-87 -139 -191 -243 -295 0
-88 -140 -192 -244 -296 0
-89 -141 -193 -245 -297 0
-90 -142 -194 -246 -298 0
-91 -143 -195 -247 -299 0
-92 -144 -196 -248 -300 0
-93 -145 -197 -249 -301 0
-94 -146 -198 -250 -302 0
-95 -147 -199 -251 -303 0
-96 -148 -200 -252 -304 0
-97 -149 -201 -253 -305 0
-98 -150 -202 -254 -306 0
-99 -151 -203 -255 -307 0
-100 -152 -204 -256 -308 0
-101 -153 -205 -257 -309 0
-102 -154 -206 -258 -310 0
-103 -155 -207 -259 -311 0
-104 -156 -208 -260 -312 0
-105 -157 -209 -261 -313 0
-106 -158 -210 -262 -314 0
-107 -159 -211 -263 -315 0
-108 -160 -212 -264 -316 0
-109 -161 -213 -265 -317 0
-110 -162 -214 -266 -318 0
-111 -163 -215 -267 -319 0
-112 -164 -216 -268 -320 0
-113 -165 -217 -269 -321 0
-114 -166 -218 -270 -322 0
-115 -167 -219 -271 -323 0
-116 -168 -220 -272 -324 0
-117 -169 -221 -273 -325 0
-118 -170 -222 -274 -326 0
-119 -171 -223 -275 -327 0
-120 -172 -224 -276 -328 0
-121 -173 -225 -277 -329 0
-122 -174 -226 -278 -330 0
-123 -175 -227 -279 -331 0
-124 -176 -228 -280 -332 0
-125 -177 -229 -281 -333 0
-126 -178 -230 -282 -334 0
-127 -179 -231 -283 -335 0
-128 -180 -232 -284 -336 0
-129 -181 -233 -285 -337 0
-130 -182 -234 -286 -338 0
-131 -183 -235 -287 -339 0
-132 -184 -236 -288 -340 0
-133 -185 -237 -289 -341 0
-134 -186 -238 -290 -342 0
-135 -187 -239 -291 -343 0
-136 -188 -240 -292 -344 0
-137 -189 -241 -293 -345 0
-138 -190 -242 -294 -346 0
-139 -191 -243 -295 -347 0
-140 -192 -244 -296 -348 0
-141 -193 -245 -297 -349 0
-142 -194 -246 -298 -350 0
-143 -195 -247 -299 -351 0
-144 -196 -248 -300 -352 0
-145 -197 -249 -301 -353 0
-146 -198 -250 -302 -354 0
-147 -199 -251 -303 -355 0
-148 -200 -252 -304 -356 0
-1 -55 -109 -163 -217 0
-2 -56 -110 -164 -218 0
-3 -57 -111 -165 -219 0
-4 -58 -112 -166 -220 0
-5 -59 -113 -167 -221 0
-6 -60 -114 -168 -222 0
-7 -61 -115 -169 -223 0
-8 -62 -116 -170 -224 0
-9 -63 -117 -171 -225 0
-10 -64 -118 -172 -226 0
-11 -65 -119 -173 -227 0
-12 -66 -120 -174 -228 0
-13 -67 -121 -175 -229 0
-14 -68 -122 -176 -230 0
-15 -69 -123 -177 -231 0
-16 -70 -124 -178 -232 0
-17 -71 -125 -179 -233 0
-18 -72 -126 -180 -234 0
-19 -73 -127 -181 -235 0
-20 -74 -128 -182 -236 0
-21 -75 -129 -183 -237 0
-22 -76 -130 -184 -238 0
-23 -77 -131 -185 -239 0
-24 -78 -132 -186 -240 0
-25 -79 -133 -187 -241 0
-26 -80 -134 -188 -242 0
-27 -81 -135 -189 -243 0
-28 -82 -136 -190 -244 0
-29 -83 -137 -191 -245 0
-30 -84 -138 -192 -246 0
-31 -85 -139 -193 -247 0
-32 -86 -140 -194 -248 0
-33 -87 -141 -195 -249 0
-34 -88 -142 -196 -250 0
-35 -89 -143 -197 -251 0
-36 -90 -144 -198 -252 0
-37 -91 -145 -199 -253 0
-38 -92 -146 -200 -254 0
-39 -93 -147 -201 -255 0
-40 -94 -148 -202 -256 0
-41 -95 -149 -203 -257 0
-42 -96 -150 -204 -258 0
-43 -97 -151 -205 -259 0
-44 -98 -152 -206 -260 0
-45 -99 -153 -207 -261 0
-46 -100 -154 -208 -262 0
-47 -101 -155 -209 -263 0
-48 -102 -156 -210 -264 0
-49 -103 -157 -211 -265 0
-50 -104 -158 -212 -266 0
-51 -105 -159 -213 -267 0
-52 -106 -160 -214 -268 0
-53 -107 -161 -215 -269 0
-54 -108 -162 -216 -270 0
-55 -109 -163 -217 -271 0
-56 -110 -164 -218 -272 0
-57 -111 -165 -219 -273 0
-58 -112 -166 -220 -274 0
-59 -113 -167 -221 -275 0
-60 -114 -168 -222 -276 0
-61 -115 -169 -223 -277 0
-62 -116 -170 -224 -278 0
-63 -117 -171 -225 -279 0
-64 -118 -172 -226 -280 0
-65 -119 -173 -227 -281 0
-66 -120 -174 -228 -282 0
-67 -121 -175 -229 -283 0
-68 -122 -176 -230 -284 0
-69 -123 -177 -231 -285 0
-70 -124 -178 -232 -286 0
-71 -125 -179 -233 -287 0
-72 -126 -180 -234 -288 0
-73 -127 -181 -235 -289 0
-74 -128 -182 -236 -290 0
-75 -129 -183 -237 -291 0
-76 -130 -184 -238 -292 0
-77 -131 -185 -239 -293 0
-78 -132 -186 -240 -294 0
-79 -133 -187 -241 -295 0
-80 -134 -188 -242 -296 0
-81 -135 -189 -243 -297 0
-82 -136 -190 -244 -298 0
-83 -137 -191 -245 -299 0
-84 -138 -192 -246 -300 0
-85 -139 -193 -247 -301 0
-86 -140 -194 -248 -302 0
-87 -141 -195 -249 -303 0
-88 -142 -196 -250 -304 0
-89 -143 -197 -251 -305 0
-90 -144 -198 -252 -306 0
-91 -145 -199 -253 -307 0
-92 -146 -200 -254 -308 0
-93 -147 -201 -255 -309 0
-94 -148 -202 -256 -310 0
-95 -149 -203 -257 -311 0
-96 -150 -204 -258 -312 0
-97 -151 -205 -259 -313 0
-98 -152 -206 -260 -314 0
-99 -153 -207 -261 -315 0
-100 -154 -208 -262 -316 0
-101 -155 -209 -263 -317 0
-102 -156 -210 -264 -318 0
-103 -157 -211 -265 -319 0
-104 -158 -212 -266 -320 0
-105 -159 -213 -267 -321 0
-106 -160 -214 -268 -322 0
-107 -161 -215 -269 -323 0
-108 -162 -216 -270 -324 0
-109 -163 -217 -271 -325 0
-110 -164 -218 -272 -326 0
-111 -165 -219 -273 -327 0
-112 -166 -220 -274 -328 0
-113 -167 -221 -275 -329 0
-114 -168 -222 -276 -330 0
-115 -169 -223 -277 -331 0
-116 -170 -224 -278 -332 0
-117 -171 -225 -279 -333 0
-118 -172 -226 -280 -334 0
-119 -173 -227 -281 -335 0
-120 -174 -228 -282 -336 0
-121 -175 -229 -283 -337 0
-122 -176 -230 -284 -338 0
-123 -177 -231 -285 -339 0
-124 -178 -232 -286 -340 0
-125 -179 -233 -287 -341 0
-126 -180 -234 -288 -342 0
-127 -181 -235 -289 -343 0
-128 -182 -236 -290 -344 0
-129 -183 -237 -291 -345 0
-130 -184 -238 -292 -346 0
-131 -185 -239 -293 -347 0
-132 -186 -240 -294 -348 0
-133 -187 -241 -295 -349 0
-134 -188 -242 -296 -350 0
-135 -189 -243 -297 -351 0
-136 -190 -244 -298 -352 0
-137 -191 -245 -299 -353 0
-138 -192 -246 -300 -354 0
-139 -193 -247 -301 -355 0
-140 -194 -248 -302 -356 0
-1 -57 -113 -169 -225 0
-2 -58 -114 -170 -226 0
-3 -59 -115 -171 -227 0
-4 -60 -116 -172 -228 0
-5 -61 -117 -173 -229 0
-6 -62 -118 -174 -230 0
-7 -63 -119 -175 -231 0
-8 -64 -120 -176 -232 0
-9 -65 -121 -177 -233 0
-10 -66 -122 -178 -234 0
-11 -67 -123 -179 -235 0
-12 -68 -124 -180 -236 0
-13 -69 -125 -181 -237 0
-14 -70 -126 -182 -238 0
-15 -71 -127 -183 -239 0
-16 -72 -128 -184 -240 0
-17 -73 -129 -185 -241 0
-18 -74 -130 -186 -242 0
-19 -75 -131 -187 -243 0
-20 -76 -132 -188 -244 0
-21 -77 -133 -189 -245 0
-22 -78 -134 -190 -246 0
-23 -79 -135 -191 -247 0
-24 -80 -136 -192 -248 0
-25 -81 -137 -193 -249 0
-26 -82 -138 -194 -250 0
-27 -83 -139 -195 -251 0
-28 -84 -140 -196 -252 0
-29 -85 -141 -197 -253 0
-30 -86 -142 -198 -254 0
-31 -87 -143 -199 -255 0
-32 -88 -144 -200 -256 0
-33 -89 -145 -201 -257 0
-34 -90 -146 -202 -258 0
-35 -91 -147 -203 -259 0
-36 -92 -148 -204 -260 0
-37 -93 -149 -205 -261 0
-38 -94 -150 -206 -262 0
-39 -95 -151 -207 -263 0
-40 -96 -152 -208 -264 0
-41 -97 -153 -209 -265 0
-42 -98 -154 -210 -266 0
-43 -99 -155 -211 -267 0
-44 -100 -156 -212 -268 0
-45 -101 -157 -213 -269 0
-46 -102 -158 -214 -270 0
-47 -103 -159 -215 -271 0
-48 -104 -160 -216 -272 0
-49 -105 -161 -217 -273 0
-50 -106 -162 -218 -274 0
-51 -107 -163 -219 -275 0
-52 -108 -164 -220 -276 0
-53 -109 -165 -221 -277 0
-54 -110 -166 -222 -278 0
-55 -111 -167 -223 -279 0
-56 -112 -168 -224 -280 0
-57 -113 -169 -225 -281 0
-58 -114 -170 -226 -282 0
-59 -115 -171 -227 -283 0
-60 -116 -172 -228 -284 0
-61 -117 -173 -229 -285 0
-62 -118 -174 -230 -286 0
-63 -119 -175 -231 -287 0
-64 -120 -176 -232 -288 0
-65 -121 -177 -233 -289 0
-66 -122 -178 -234 -290 0
-67 -123 -179 -235 -291 0
-68 -124 -180 -236 -292 0
-69 -125 -181 -237 -293 0
-70 -126 -182 -238 -294 0
-71 -127 -183 -239 -295 0
-72 -128 -184 -240 -296 0
-73 -129 -185 -241 -297 0
-74 -130 -186 -242 -298 0
-75 -131 -187 -243 -299 0
-76 -132 -188 -244 -300 0
-77 -133 -189 -245 -301 0
-78 -134 -190 -246 -302 0
-79 -135 -191 -247 -303 0
-80 -136 -192 -248 -304 0
-81 -137 -193 -249 -305 0
-82 -138 -194 -250 -306 0
-83 -139 -195 -251 -307 0
-84 -140 -196 -252 -308 0
-85 -141 -197 -253 -309 0
-86 -142 -198 -254 -310 0
-87 -143 -199 -255 -311 0
-88 -144 -200 -256 -312 0
-89 -145 -201 -257 -313 0
-90 -146 -202 -258 -314 0
-91 -147 -203 -259 -315 0
-92 -148 -204 -260 -316 0
-93 -149 -205 -261 -317 0
-94 -150 -206 -262 -318 0
-95 -151 -207 -263 -319 0
-96 -152 -208 -264 -320 0
-97 -153 -209 -265 -321 0
-98 -154 -210 -266 -322 0
-99 -155 -211 -267 -323 0
-100 -156 -212 -268 -324 0
-101 -157 -213 -269 -325 0
-102 -158 -214 -270 -326 0
-103 -159 -215 -271 -327 0
-104 -160 -216 -272 -328 0
-105 -161 -217 -273 -329 0
-106 -162 -218 -274 -330 0
-107 -163 -219 -275 -331 0
-108 -164 -220 -276 -332 0
-109 -165 -221 -277 -333 0
-110 -166 -222 -278 -334 0
-111 -167 -223 -279 -335 0
-112 -168 -224 -280 -336 0
-113 -169 -225 -281 -337 0
-114 -170 -226 -282 -338 0
-115 -171 -227 -283 -339 0
-116 -172 -228 -284 -340 0
-117 -173 -229 -285 -341 0
-118 -174 -230 -286 -342 0
-119 -175 -231 -287 -343 0
-120 -176 -232 -288 -344 0
-121 -177 -233 -289 -345 0
-122 -178 -234 -290 -346 0
-123 -179 -235 -291 -347 0
-124 -180 -236 -292 -348 0
-125 -181 -237 -293 -349 0
-126 -182 -238 -294 -350 0
-127 -183 -239 -295 -351 0
-128 -184 -240 -296 -352 0
-129 -185 -241 -297 -353 0
-130 -186 -242 -298 -354 0
-131 -187 -243 -299 -355 0
-132 -188 -244 -300 -356 0
-1 -59 -117 -175 -233 0
-2 -60 -118 -176 -234 0
-3 -61 -119 -177 -235 0
-4 -62 -120 -178 -236 0
-5 -63 -121 -179 -237 0
-6 -64 -122 -180 -238 0
-7 -65 -123 -181 -239 0
-8 -66 -124 -182 -240 0
-9 -67 -125 -183 -241 0
-10 -68 -126 -184 -242 0
-11 -69 -127 -185 -243 0
-12 -70 -128 -186 -244 0
-13 -71 -129 -187 -245 0
-14 -72 -130 -188 -246 0
-15 -73 -131 -189 -247 0
-16 -74 -132 -190 -248 0
-17 -75 -133 -191 -249 0
-18 -76 -134 -192 -250 0
-19 -77 -135 -193 -251 0
-20 -78 -136 -194 -252 0
-21 -79 -137 -195 -253 0
-22 -80 -138 -196 -254 0
-23 -81 -139 -197 -255 0
-24 -82 -140 -198 -256 0
-25 -83 -141 -199 -257 0
-26 -84 -142 -200 -258 0
-27 -85 -143 -201 -259 0
-28 -86 -144 -202 -260 0
-29 -87 -145 -203 -261 0
-30 -88 -146 -204 -262 0
-31 -89 -147 -205 -263 0
-32 -90 -148 -206 -264 0
-33 -91 -149 -207 -265 0
-34 -92 -150 -208 -266 0
-35 -93 -151 -209 -267 0
-36 -94 -152 -210 -268 0
-37 -95 -153 -211 -269 0
-38 -96 -154 -212 -270 0
-39 -97 -155 -213 -271 0
-40 -98 -156 -214 -272 0
-41 -99 -157 -215 -273 0
-42 -100 -158 -216 -274 0
-43 -101 -159 -217 -275 0
-44 -102 -160 -218 -276 0
-45 -103 -161 -219 -277 0
-46 -104 -162 -220 -278 0
-47 -105 -163 -221 -279 0
-48 -106 -164 -222 -280 0
-49 -107 -165 -223 -281 0
-50 -108 -166 -224 -282 0
-51 -109 -167 -225 -283 0
-52 -110 -168 -226 -284 0
-53 -111 -169 -227 -285 0
-54 -112 -170 -228 -286 0
-55 -113 -171 -229 -287 0
-56 -114 -172 -230 -288 0
-57 -115 -173 -231 -289 0
-58 -116 -174 -232 -290 0
-59 -117 -175 -233 -291 0
-60 -118 -176 -234 -292 0
-61 -119 -177 -235 -293 0
-62 -120 -178 -236 -294 0
-63 -121 -179 -237 -295 0
-64 -122 -180 -238 -296 0
-65 -123 -181 -239 -297 0
-66 -124 -182 -240 -298 0
-67 -125 -183 -241 -299 0
-68 -126 -184 -242 -300 0
-69 -127 -185 -243 -301 0
-70 -128 -186 -244 -302 0
-71 -129 -187 -245 -303 0
-72 -130 -188 -246 -304 0
-73 -131 -189 -247 -305 0
-74 -132 -190 -248 -306 0
-75 -133 -191 -249 -307 0
-76 -134 -192 -250 -308 0
-77 -135 -193 -251 -309 0
-78 -136 -194 -252 -310 0
-79 -137 -195 -253 -311 0
-80 -138 -196 -254 -312 0
-81 -139 -197 -255 -313 0
-82 -140 -198 -256 -314 0
-83 -141 -199 -257 -315 0
-84 -142 -200 -258 -316 0
-85 -143 -201 -259 -317 0
-86 -144 -202 -260 -318 0
-87 -145 -203 -261 -319 0
-88 -146 -204 -262 -320 0
-89 -147 -205 -263 -321 0
-90 -148 -206 -264 -322 0
-91 -149 -207 -265 -323 0
-92 -150 -208 -266 -324 0
-93 -151 -209 -267 -325 0
-94 -152 -210 -268 -326 0
-95 -153 -211 -269 -327 0
-96 -154 -212 -270 -328 0
-97 -155 -213 -271 -329 0
-98 -156 -214 -272 -330 0
-99 -157 -215 -273 -331 0
-100 -158 -216 -274 -332 0
-101 -159 -217 -275 -333 0
-102 -160 -218 -276 -334 0
-103 -161 -219 -277 -335 0
-104 -162 -220 -278 -336 0
-105 -163 -221 -279 -337 0
-106 -164 -222 -280 -338 0
-107 -165 -223 -281 -339 0
-108 -166 -224 -282 -340 0
-109 -167 -225 -283 -341 0
-110 -168 -226 -284 -342 0
-111 -169 -227 -285 -343 0
-112 -170 -228 -286 -344 0
-113 -171 -229 -287 -345 0
-114 -172 -230 -288 -346 0
-115 -173 -231 -289 -347 0
-116 -174 -232 -290 -348 0
-117 -175 -233 -291 -349 0
-118 -176 -234 -292 -350 0
-119 -177 -235 -293 -351 0
-120 -178 -236 -294 -352 0
-121 -179 -237 -295 -353 0
-122 -180 -238 -296 -354 0
-123 -181 -239 -297 -355 0
-124 -182 -240 -298 -356 0
-1 -61 -121 -181 -241 0
-2 -62 -122 -182 -242 0
-3 -63 -123 -183 -243 0
-4 -64 -124 -184 -244 0
-5 -65 -125 -185 -245 0
-6 -66 -126 -186 -246 0
-7 -67 -127 -187 -247 0
-8 -68 -128 -188 -248 0
-9 -69 -129 -189 -249 0
-10 -70 -130 -190 -250 0
-11 -71 -131 -191 -251 0
-12 -72 -132 -192 -252 0
-13 -73 -133 -193 -253 0
-14 -74 -134 -194 -254 0
-15 -75 -135 -195 -255 0
-16 -76 -136 -196 -256 0
-17 -77 -137 -197 -257 0
-18 -78 -138 -198 -258 0
-19 -79 -139 -199 -259 0
-20 -80 -140 -200 -260 0
-21 -81 -141 -201 -261 0
-22 -82 -142 -202 -262 0
-23 -83 -143 -203 -263 0
-24 -84 -144 -204 -264 0
-25 -85 -145 -205 -265 0
-26 -86 -146 -206 -266 0
-27 -87 -147 -207 -267 0
-28 -88 -148 -208 -268 0
-29 -89 -149 -209 -269 0
-30 -90 -150 -210 -270 0
-31 -91 -151 -211 -271 0
-32 -92 -152 -212 -272 0
-33 -93 -153 -213 -273 0
-34 -94 -154 -214 -274 0
-35 -95 -155 -215 -275 0
-36 -96 -156 -216 -276 0
-37 -97 -157 -217 -277 0
-38 -98 -158 -218 -278 0
-39 -99 -159 -219 -279 0
-40 -100 -160 -220 -280 0
-41 -101 -161 -221 -281 0
-42 -102 -162 -222 -282 0
-43 -103 -163 -223 -283 0
-44 -104 -164 -224 -284 0
-45 -105 -165 -225 -285 0
-46 -106 -166 -226 -286 0
-47 -107 -167 -227 -287 0
-48 -108 -168 -228 -288 0
-49 -109 -169 -229 -289 0
-50 -110 -170 -230 -290 0
-51 -111 -171 -231 -291 0
-52 -112 -172 -232 -292 0
-53 -113 -173 -233 -293 0
-54 -114 -174 -234 -294 0
-55 -115 -175 -235 -295 0
-56 -116 -176 -236 -296 0
-57 -117 -177 -237 -297 0
-58 -118 -178 -238 -298 0
-59 -119 -179 -239 -299 0
-60 -120 -180 -240 -300 0
-61 -121 -181 -241 -301 0
-62 -122 -182 -242 -302 0
-63 -123 -183 -243 -303 0
-64 -124 -184 -244 -304 0
-65 -125 -185 -245 -305 0
-66 -126 -186 -246 -306 0
-67 -127 -187 -247 -307 0
-68 -128 -188 -248 -308 0
-69 -129 -189 -249 -309 0
-70 -130 -190 -250 -310 0
-71 -131 -191 -251 -311 0
-72 -132 -192 -252 -312 0
-73 -133 -193 -253 -313 0
-74 -134 -194 -254 -314 0
-75 -135 -195 -255 -315 0
-76 -136 -196 -256 -316 0
-77 -137 -197 -257 -317 0
-78 -138 -198 -258 -318 0
-79 -139 -199 -259 -319 0
-80 -140 -200 -260 -320 0
-81 -141 -201 -261 -321 0
-82 -142 -202 -262 -322 0
-83 -143 -203 -263 -323 0
-84 -144 -204 -264 -324 0
-85 -145 -205 -265 -325 0
-86 -146 -206 -266 -326 0
-87 -147 -207 -267 -327 0
-88 -148 -208 -268 -328 0
-89 -149 -209 -269 -329 0
-90 -150 -210 -270 -330 0
-91 -151 -211 -271 -331 0
-92 -152 -212 -272 -332 0
-93 -153 -213 -273 -333 0
-94 -154 -214 -274 -334 0
-95 -155 -215 -275 -335 0
-96 -156 -216 -276 -336 0
-97 -157 -217 -277 -337 0
-98 -158 -218 -278 -338 0
-99 -159 -219 -279 -339 0
-100 -160 -220 -280 -340 0
-101 -161 -221 -281 -341 0
-102 -162 -222 -282 -342 0
-103 -163 -223 -283 -343 0
-104 -164 -224 -284 -344 0
-105 -165 -225 -285 -345 0
-106 -166 -226 -286 -346 0
-107 -167 -227 -287 -347 0
-108 -168 -228 -288 -348 0
-109 -169 -229 -289 -349 0
-110 -170 -230 -290 -350 0
-111 -171 -231 -291 -351 0
-112 -172 -232 -292 -352 0
-113 -173 -233 -293 -353 0
-114 -174 -234 -294 -354 0
-115 -175 -235 -295 -355 0
-116 -176 -236 -296 -356 0
-1 -63 -125 -187 -249 0
-2 -64 -126 -188 -250 0
-3 -65 -127 -189 -251 0
-4 -66 -128 -190 -252 0
-5 -67 -129 -191 -253 0
-6 -68 -130 -192 -254 0
-7 -69 -131 -193 -255 0
-8 -70 -132 -194 -256 0
-9 -71 -133 -195 -257 0
-10 -72 -134 -196 -258 0
-11 -73 -135 -197 -259 0
-12 -74 -136 -198 -260 0
-13 -75 -137 -199 -261 0
-14 -76 -138 -200 -262 0
-15 -77 -139 -201 -263 0
-16 -78 -140 -202 -264 0
-17 -79 -141 -203 -265 0
-18 -80 -142 -204 -266 0
-19 -81 -143 -205 -267 0
-20 -82 -144 -206 -268 0
-21 -83 -145 -207 -269 0
-22 -84 -146 -208 -270 0
-23 -85 -147 -209 -271 0
-24 -86 -148 -210 -272 0
-25 -87 -149 -211 -273 0
-26 -88 -150 -212 -274 0
-27 -89 -151 -213 -275 0
-28 -90 -152 -214 -276 0
-29 -91 -153 -215 -277 0
-30 -92 -154 -216 -278 0
-31 -93 -155 -217 -279 0
-32 -94 -156 -218 -280 0
-33 -95 -157 -219 -281 0
-34 -96 -158 -220 -282 0
-35 -97 -159 -221 -283 0
-36 -98 -160 -222 -284 0
-37 -99 -161 -223 -285 0
-38 -100 -162 -224 -286 0
-39 -101 -163 -225 -287 0
-40 -102 -164 -226 -288 0
-41 -103 -165 -227 -289 0
-42 -104 -166 -228 -290 0
-43 -105 -167 -229 -291 0
-44 -106 -168 -230 -292 0
-45 -107 -169 -231 -293 0
-46 -108 -170 -232 -294 0
-47 -109 -171 -233 -295 0
-48 -110 -172 -234 -296 0
-49 -111 -173 -235 -297 0
-50 -112 -174 -236 -298 0
-51 -113 -175 -237 -299 0
-52 -114 -176 -238 -300 0
-53 -115 -177 -239 -301 0
-54 -116 -178 -240 -302 0
-55 -117 -179 -241 -303 0
-56 -118 -180 -242 -304 0
-57 -119 -181 -243 -305 0
-58 -120 -182 -244 -306 0
-59 -121 -183 -245 -307 0
-60 -122 -184 -246 -308 0
-61 -123 -185 -247 -309 0
-62 -124 -186 -248 -310 0
-63 -125 -187 -249 -311 0
-64 -126 -188 -250 -312 0
-65 -127 -189 -251 -313 0
-66 -128 -190 -252 -314 0
-67 -129 -191 -253 -315 0
-68 -130 -192 -254 -316 0
-69 -131 -193 -255 -317 0
-70 -132 -194 -256 -318 0
-71 -133 -195 -257 -319 0
-72 -134 -196 -258 -320 0
-73 -135 -197 -259 -321 0
-74 -136 -198 -260 -322 0
-75 -137 -199 -261 -323 0
-76 -138 -200 -262 -324 0
-77 -139 -201 -263 -325 0
-78 -140 -202 -264 -326 0
-79 -141 -203 -265 -327 0
-80 -142 -204 -266 -328 0
-81 -143 -205 -267 -329 0
-82 -144 -206 -268 -330 0
-83 -145 -207 -269 -331 0
-84 -146 -208 -270 -332 0
-85 -147 -209 -271 -333 0
-86 -148 -210 -272 -334 0
-87 -149 -211 -273 -335 0
-88 -150 -212 -274 -336 0
-89 -151 -213 -275 -337 0
-90 -152 -214 -276 -338 0
-91 -153 -215 -277 -339 0
-92 -154 -216 -278 -340 0
-93 -155 -217 -279 -341 0
-94 -156 -218 -280 -342 0
-95 -157 -219 -281 -343 0
-96 -158 -220 -282 -344 0
-97 -159 -221 -283 -345 0
-98 -160 -222 -284 -346 0
-99 -161 -223 -285 -347 0
-100 -162 -224 -286 -348 0
-101 -163 -225 -287 -349 0
-102 -164 -226 -288 -350 0
-103 -165 -227 -289 -351 0
-104 -166 -228 -290 -352 0
-105 -167 -229 -291 -353 0
-106 -168 -230 -292 -354 0
-107 -169 -231 -293 -355 0
-108 -170 -232 -294 -356 0
-1 -65 -129 -193 -257 0
-2 -66 -130 -194 -258 0
-3 -67 -131 -195 -259 0
-4 -68 -132 -196 -260 0
-5 -69 -133 -197 -261 0
-6 -70 -134 -198 -262 0
-7 -71 -135 -199 -263 0
-8 -72 -136 -200 -264 0
-9 -73 -137 -201 -265 0
-10 -74 -138 -202 -266 0
-11 -75 -139 -203 -267 0
-12 -76 -140 -204 -268 0
-13 -77 -141 -205 -269 0
-14 -78 -142 -206 -270 0
-15 -79 -143 -207 -271 0
-16 -80 -144 -208 -272 0
-17 -81 -145 -209 -273 0
-18 -82 -146 -210 -274 0
-19 -83 -147 -211 -275 0
-20 -84 -148 -212 -276 0
-21 -85 -149 -213 -277 0
-22 -86 -150 -214 -278 0
-23 -87 -151 -215 -279 0
-24 -88 -152 -216 -280 0
-25 -89 -153 -217 -281 0
-26 -90 -154 -218 -282 0
-27 -91 -155 -219 -283 0
-28 -92 -156 -220 -284 0
-29 -93 -157 -221 -285 0
-30 -94 -158 -222 -286 0
-31 -95 -159 -223 -287 0
-32 -96 -160 -224 -288 0
-33 -97 -161 -225 -289 0
-34 -98 -162 -226 -290 0
-35 -99 -163 -227 -291 0
-36 -100 -164 -228 -292 0
-37 -101 -165 -229 -293 0
-38 -102 -166 -230 -294 0
-39 -103 -167 -231 -295 0
-40 -104 -168 -232 -296 0
-41 -105 -169 -233 -297 0
-42 -106 -170 -234 -298 0
-43 -107 -171 -235 -299 0
-44 -108 -172 -236 -300 0
-45 -109 -173 -237 -301 0
-46 -110 -174 -238 -302 0
-47 -111 -175 -239 -303 0
-48 -112 -176 -240 -304 0
-49 -113 -177 -241 -305 0
-50 -114 -178 -242 -306 0
-51 -115 -179 -243 -307 0
-52 -116 -180 -244 -308 0
-53 -117 -181 -245 -309 0
-54 -118 -182 -246 -310 0
-55 -119 -183 -247 -311 0
-56 -120 -184 -248 -312 0
-57 -121 -185 -249 -313 0
-58 -122 -186 -250 -314 0
-59 -123 -187 -251 -315 0
-60 -124 -188 -252 -316 0
-61 -125 -189 -253 -317 0
-62 -126 -190 -254 -318 0
-63 -127 -191 -255 -319 0
-64 -128 -192 -256 -320 0
-65 -129 -193 -257 -321 0
-66 -130 -194 -258 -322 0
-67 -131 -195 -259 -323 0
-68 -132 -196 -260 -324 0
-69 -133 -197 -261 -325 0
-70 -134 -198 -262 -326 0
-71 -135 -199 -263 -327 0
-72 -136 -200 -264 -328 0
-73 -137 -201 -265 -329 0
-74 -138 -202 -266 -330 0
-75 -139 -203 -267 -331 0
-76 -140 -204 -268 -332 0
-77 -141 -205 -269 -333 0
-78 -142 -206 -270 -334 0
-79 -143 -207 -271 -335 0
-80 -144 -208 -272 -336 0
-81 -145 -209 -273 -337 0
-82 -146 -210 -274 -338 0
-83 -147 -211 -275 -339 0
-84 -148 -212 -276 -340 0
-85 -149 -213 -277 -341 0
-86 -150 -214 -278 -342 0
-87 -151 -215 -279 -343 0
-88 -152 -216 -280 -344 0
-89 -153 -217 -281 -345 0
-90 -154 -218 -282 -346 0
-91 -155 -219 -283 -347 0
-92 -156 -220 -284 -348 0
-93 -157 -221 -285 -349 0
-94 -158 -222 -286 -350 0
-95 -159 -223 -287 -351 0
-96 -160 -224 -288 -352 0
-97 -161 -225 -289 -353 0
-98 -162 -226 -290 -354 0
-99 -163 -227 -291 -355 0
-100 -164 -228 -292 -356 0
-1 -67 -133 -199 -265 0
-2 -68 -134 -200 -266 0
-3 -69 -135 -201 -267 0
-4 -70 -136 -202 -268 0
-5 -71 -137 -203 -269 0
-6 -72 -138 -204 -270 0
-7 -73 -139 -205 -271 0
-8 -74 -140 -206 -272 0
-9 -75 -141 -207 -273 0
-10 -76 -142 -208 -274 0
-11 -77 -143 -209 -275 0
-12 -78 -144 -210 -276 0
-13 -79 -145 -211 -277 0
-14 -80 -146 -212 -278 0
-15 -81 -147 -213 -279 0
-16 -82 -148 -214 -280 0
-17 -83 -149 -215 -281 0
-18 -84 -150 -216 -282 0
-19 -85 -151 -217 -283 0
-20 -86 -152 -218 -284 0
-21 -87 -153 -219 -285 0
-22 -88 -154 -220 -286 0
-23 -89 -155 -221 -287 0
-24 -90 -156 -222 -288 0
-25 -91 -157 -223 -289 0
-26 -92 -158 -224 -290 0
-27 -93 -159 -225 -291 0
-28 -94 -160 -226 -292 0
-29 -95 -161 -227 -293 0
-30 -96 -162 -228 -294 0
-31 -97 -163 -229 -295 0
-32 -98 -164 -230 -296 0
-33 -99 -165 -231 -297 0
-34 -100 -166 -232 -298 0
-35 -101 -167 -233 -299 0
-36 -102 -168 -234 -300 0
-37 -103 -169 -235 -301 0
-38 -104 -170 -236 -302 0
-39 -105 -171 -237 -303 0
-40 -106 -172 -238 -304 0
-41 -107 -173 -239 -305 0
-42 -108 -174 -240 -306 0
-43 -109 -175 -241 -307 0
-44 -110 -176 -242 -308 0
-45 -111 -177 -243 -309 0
-46 -112 -178 -244 -310 0
-47 -113 -179 -245 -311 0
-48 -114 -180 -246 -312 0
-49 -115 -181 -247 -313 0
-50 -116 -182 -248 -314 0
-51 -117 -183 -249 -315 0
-52 -118 -184 -250 -316 0
-53 -119 -185 -251 -317 0
-54 -120 -186 -252 -318 0
-55 -121 -187 -253 -319 0
-56 -122 -188 -254 -320 0
-57 -123 -189 -255 -321 0
-58 -124 -190 -256 -322 0
-59 -125 -191 -257 -323 0
-60 -126 -192 -258 -324 0
-61 -127 -193 -259 -325 0
-62 -128 -194 -260 -326 0
-63 -129 -195 -261 -327 0
-64 -130 -196 -262 -328 0
-65 -131 -197 -263 -329 0
-66 -132 -198 -264 -330 0
-67 -133 -199 -265 -331 0
-68 -134 -200 -266 -332 0
-69 -135 -201 -267 -333 0
-70 -136 -202 -268 -334 0
-71 -137 -203 -269 -335 0
-72 -138 -204 -270 -336 0
-73 -139 -205 -271 -337 0
-74 -140 -206 -272 -338 0
-75 -141 -207 -273 -339 0
-76 -142 -208 -274 -340 0
-77 -143 -209 -275 -341 0
-78 -144 -210 -276 -342 0
-79 -145 -211 -277 -343 0
-80 -146 -212 -278 -344 0
-81 -147 -213 -279 -345 0
-82 -148 -214 -280 -346 0
-83 -149 -215 -281 -347 0
-84 -150 -216 -282 -348 0
-85 -151 -217 -283 -349 0
-86 -152 -218 -284 -350 0
-87 -153 -219 -285 -351 0
-88 -154 -220 -286 -352 0
-89 -155 -221 -287 -353 0
-90 -156 -222 -288 -354 0
-91 -157 -223 -289 -355 0
-92 -158 -224 -290 -356 0
-1 -69 -137 -205 -273 0
-2 -70 -138 -206 -274 0
-3 -71 -139 -207 -275 0
-4 -72 -140 -208 -276 0
-5 -73 -141 -209 -277 0
-6 -74 -142 -210 -278 0
-7 -75 -143 -211 -279 0
-8 -76 -144 -212 -280 0
-9 -77 -145 -213 -281 0
-10 -78 -146 -214 -282 0
-11 -79 -147 -215 -283 0
-12 -80 -148 -216 -284 0
-13 -81 -149 -217 -285 0
-14 -82 -150 -218 -286 0
-15 -83 -151 -219 -287 0
-16 -84 -152 -220 -288 0
-17 -85 -153 -221 -289 0
-18 -86 -154 -222 -290 0
-19 -87 -155 -223 -291 0
-20 -88 -156 -224 -292 0
-21 -89 -157 -225 -293 0
-22 -90 -158 -226 -294 0
-23 -91 -159 -227 -295 0
-24 -92 -160 -228 -296 0
-25 -93 -161 -229 -297 0
-26 -94 -162 -230 -298 0
-27 -95 -163 -231 -299 0
-28 -96 -164 -232 -300 0
-29 -97 -165 -233 -301 0
-30 -98 -166 -234 -302 0
-31 -99 -167 -235 -303 0
-32 -100 -168 -236 -304 0
-33 -101 -169 -237 -305 0
-34 -102 -170 -238 -306 0
-35 -103 -171 -239 -307 0
-36 -104 -172 -240 -308 0
-37 -105 -173 -241 -309 0
-38 -106 -174 -242 -310 0
-39 -107 -175 -243 -311 0
-40 -108 -176 -244 -312 0
-41 -109 -177 -245 -313 0
-42 -110 -178 -246 -314 0
-43 -111 -179 -247 -315 0
-44 -112 -180 -248 -316 0
-45 -113 -181 -249 -317 0
-46 -114 -182 -250 -318 0
-47 -115 -183 -251 -319 0
-48 -116 -184 -252 -320 0
-49 -117 -185 -253 -321 0
-50 -118 -186 -254 -322 0
-51 -119 -187 -255 -323 0
-52 -120 -188 -256 -324 0
-53 -121 -189 -257 -325 0
-54 -122 -190 -258 -326 0
-55 -123 -191 -259 -327 0
-56 -124 -192 -260 -328 0
-57 -125 -193 -261 -329 0
-58 -126 -194 -262 -330 0
-59 -127 -195 -263 -331 0
-60 -128 -196 -264 -332 0
-61 -129 -197 -265 -333 0
-62 -130 -198 -266 -334 0
-63 -131 -199 -267 -335 0
-64 -132 -200 -268 -336 0
-65 -133 -201 -269 -337 0
-66 -134 -202 -270 -338 0
-67 -135 -203 -271 -339 0
-68 -136 -204 -272 -340 0
-69 -137 -205 -273 -341 0
-70 -138 -206 -274 -342 0
-71 -139 -207 -275 -343 0
-72 -140 -208 -276 -344 0
-73 -141 -209 -277 -345 0
-74 -142 -210 -278 -346 0
-75 -143 -211 -279 -347 0
-76 -144 -212 -280 -348 0
-77 -145 -213 -281 -349 0
-78 -146 -214 -282 -350 0
-79 -147 -215 -283 -351 0
-80 -148 -216 -284 -352 0
-81 -149 -217 -285 -353 0
-82 -150 -218 -286 -354 0
-83 -151 -219 -287 -355 0
-84 -152 -220 -288 -356 0
-1 -71 -141 -211 -281 0
-2 -72 -142 -212 -282 0
-3 -73 -143 -213 -283 0
-4 -74 -144 -214 -284 0
-5 -75 -145 -215 -285 0
-6 -76 -146 -216 -286 0
-7 -77 -147 -217 -287 0
-8 -78 -148 -218 -288 0
-9 -79 -149 -219 -289 0
-10 -80 -150 -220 -290 0
-11 -81 -151 -221 -291 0
-12 -82 -152 -222 -292 0
-13 -83 -153 -223 -293 0
-14 -84 -154 -224 -294 0
-15 -85 -155 -225 -295 0
-16 -86 -156 -226 -296 0
-17 -87 -157 -227 -297 0
-18 -88 -158 -228 -298 0
-19 -89 -159 -229 -299 0
-20 -90 -160 -230 -300 0
-21 -91 -161 -231 -301 0
-22 -92 -162 -232 -302 0
-23 -93 -163 -233 -303 0
-24 -94 -164 -234 -304 0
-25 -95 -165 -235 -305 0
-26 -96 -166 -236 -306 0
-27 -97 -167 -237 -307 0
-28 -98 -168 -238 -308 0
-29 -99 -169 -239 -309 0
-30 -100 -170 -240 -310 0
-31 -101 -171 -241 -311 0
-32 -102 -172 -242 -312 0
-33 -103 -173 -243 -313 0
-34 -104 -174 -244 -314 0
-35 -105 -175 -245 -315 0
-36 -106 -176 -246 -316 0
-37 -107 -177 -247 -317 0
-38 -108 -178 -248 -318 0
-39 -109 -179 -249 -319 0
-40 -110 -180 -250 -320 0
-41 -111 -181 -251 -321 0
-42 -112 -182 -252 -322 0
-43 -113 -183 -253 -323 0
-44 -114 -184 -254 -324 0
-45 -115 -185 -255 -325 0
-46 -116 -186 -256 -326 0
-47 -117 -187 -257 -327 0
-48 -118 -188 -258 -328 0
-49 -119 -189 -259 -329 0
-50 -120 -190 -260 -330 0
-51 -121 -191 -261 -331 0
-52 -122 -192 -262 -332 0
-53 -123 -193 -263 -333 0
-54 -124 -194 -264 -334 0
-55 -125 -195 -265 -335 0
-56 -126 -196 -266 -336 0
-57 -127 -197 -267 -337 0
-58 -128 -198 -268 -338 0
-59 -129 -199 -269 -339 0
-60 -130 -200 -270 -340 0
-61 -131 -201 -271 -341 0
-62 -132 -202 -272 -342 0
-63 -133 -203 -273 -343 0
-64 -134 -204 -274 -344 0
-65 -135 -205 -275 -345 0
-66 -136 -206 -276 -346 0
-67 -137 -207 -277 -347 0
-68 -138 -208 -278 -348 0
-69 -139 -209 -279 -349 0
-70 -140 -210 -280 -350 0
-71 -141 -211 -281 -351 0
-72 -142 -212 -282 -352 0
-73 -143 -213 -283 -353 0
-74 -144 -214 -284 -354 0
-75 -145 -215 -285 -355 0
-76 -146 -216 -286 -356 0
-1 -73 -145 -217 -289 0
-2 -74 -146 -218 -290 0
-3 -75 -147 -219 -291 0
-4 -76 -148 -220 -292 0
-5 -77 -149 -221 -293 0
-6 -78 -150 -222 -294 0
-7 -79 -151 -223 -295 0
-8 -80 -152 -224 -296 0
-9 -81 -153 -225 -297 0
-10 -82 -154 -226 -298 0
-11 -83 -155 -227 -299 0
-12 -84 -156 -228 -300 0
-13 -85 -157 -229 -301 0
-14 -86 -158 -230 -302 0
-15 -87 -159 -231 -303 0
-16 -88 -160 -232 -304 0
-17 -89 -161 -233 -305 0
-18 -90 -162 -234 -306 0
-19 -91 -163 -235 -307 0
-20 -92 -164 -236 -308 0
-21 -93 -165 -237 -309 0
-22 -94 -166 -238 -310 0
-23 -95 -167 -239 -311 0
-24 -96 -168 -240 -312 0
-25 -97 -169 -241 -313 0
-26 -98 -170 -242 -314 0
-27 -99 -171 -243 -315 0
-28 -100 -172 -244 -316 0
-29 -101 -173 -245 -317 0
-30 -102 -174 -246 -318 0
-31 -103 -175 -247 -319 0
-32 -104 -176 -248 -320 0
-33 -105 -177 -249 -321 0
-34 -106 -178 -250 -322 0
-35 -107 -179 -251 -323 0
-36 -108 -180 -252 -324 0
-37 -109 -181 -253 -325 0
-38 -110 -182 -254 -326 0
-39 -111 -183 -255 -327 0
-40 -112 -184 -256 -328 0
-41 -113 -185 -257 -329 0
-42 -114 -186 -258 -330 0
-43 -115 -187 -259 -331 0
-44 -116 -188 -260 -332 0
-45 -117 -189 -261 -333 0
-46 -118 -190 -262 -334 0
-47 -119 -191 -263 -335 0
-48 -120 -192 -264 -336 0
-49 -121 -193 -265 -337 0
-50 -122 -194 -266 -338 0
-51 -123 -195 -267 -339 0
-52 -124 -196 -268 -340 0
-53 -125 -197 -269 -341 0
-54 -126 -198 -270 -342 0
-55 -127 -199 -271 -343 0
-56 -128 -200 -272 -344 0
-57 -129 -201 -273 -345 0
-58 -130 -202 -274 -346 0
-59 -131 -203 -275 -347 0
-60 -132 -204 -276 -348 0
-61 -133 -205 -277 -349 0
-62 -134 -206 -278 -350 0
-63 -135 -207 -279 -351 0
-64 -136 -208 -280 -352 0
-65 -137 -209 -281 -353 0
-66 -138 -210 -282 -354 0
-67 -139 -211 -283 -355 0
-68 -140 -212 -284 -356 0
-1 -75 -149 -223 -297 0
-2 -76 -150 -224 -298 0
-3 -77 -151 -225 -299 0
-4 -78 -152 -226 -300 0
-5 -79 -153 -227 -301 0
-6 -80 -154 -228 -302 0
-7 -81 -155 -229 -303 0
-8 -82 -156 -230 -304 0
-9 -83 -157 -231 -305 0
-10 -84 -158 -232 -306 0
-11 -85 -159 -233 -307 0
-12 -86 -160 -234 -308 0
-13 -87 -161 -235 -309 0
-14 -88 -162 -236 -310 0
-15 -89 -163 -237 -311 0
-16 -90 -164 -238 -312 0
-17 -91 -165 -239 -313 0
-18 -92 -166 -240 -314 0
-19 -93 -167 -241 -315 0
-20 -94 -168 -242 -316 0
-21 -95 -169 -243 -317 0
-22 -96 -170 -244 -318 0
-23 -97 -171 -245 -319 0
-24 -98 -172 -246 -320 0
-25 -99 -173 -247 -321 0
-26 -100 -174 -248 -322 0
-27 -101 -175 -249 -323 0
-28 -102 -176 -250 -324 0
-29 -103 -177 -251 -325 0
-30 -104 -178 -252 -326 0
-31 -105 -179 -253 -327 0
-32 -106 -180 -254 -328 0
-33 -107 -181 -255 -329 0
-34 -108 -182 -256 -330 0
-35 -109 -183 -257 -331 0
-36 -110 -184 -258 -332 0
-37 -111 -185 -259 -333 0
-38 -112 -186 -260 -334 0
-39 -113 -187 -261 -335 0
-40 -114 -188 -262 -336 0
-41 -115 -189 -263 -337 0
-42 -116 -190 -264 -338 0
-43 -117 -191 -265 -339 0
-44 -118 -192 -266 -340 0
-45 -119 -193 -267 -341 0
-46 -120 -194 -268 -342 0
-47 -121 -195 -269 -343 0
-48 -122 -196 -270 -344 0
-49 -123 -197 -271 -345 0
-50 -124 -198 -272 -346 0
-51 -125 -199 -273 -347 0
-52 -126 -200 -274 -348 0
-53 -127 -201 -275 -349 0
-54 -128 -202 -276 -350 0
-55 -129 -203 -277 -351 0
-56 -130 -204 -278 -352 0
-57 -131 -205 -279 -353 0
-58 -132 -206 -280 -354 0
-59 -133 -207 -281 -355 0
-60 -134 -208 -282 -356 0
-1 -77 -153 -229 -305 0
-2 -78 -154 -230 -306 0
-3 -79 -155 -231 -307 0
-4 -80 -156 -232 -308 0
-5 -81 -157 -233 -309 0
-6 -82 -158 -234 -310 0
-7 -83 -159 -235 -311 0
-8 -84 -160 -236 -312 0
-9 -85 -161 -237 -313 0
-10 -86 -162 -238 -314 0
-11 -87 -163 -239 -315 0
-12 -88 -164 -240 -316 0
-13 -89 -165 -241 -317 0
-14 -90 -166 -242 -318 0
-15 -91 -167 -243 -319 0
-16 -92 -168 -244 -320 0
-17 -93 -169 -245 -321 0
-18 -94 -170 -246 -322 0
-19 -95 -171 -247 -323 0
-20 -96 -172 -248 -324 0
-21 -97 -173 -249 -325 0
-22 -98 -174 -250 -326 0
-23 -99 -175 -251 -327 0
-24 -100 -176 -252 -328 0
-25 -101 -177 -253 -329 0
-26 -102 -178 -254 -330 0
-27 -103 -179 -255 -331 0
-28 -104 -180 -256 -332 0
-29 -105 -181 -257 -333 0
-30 -106 -182 -258 -334 0
-31 -107 -183 -259 -335 0
-32 -108 -184 -260 -336 0
-33 -109 -185 -261 -337 0
-34 -110 -186 -262 -338 0
-35 -111 -187 -263 -339 0
-36 -112 -188 -264 -340 0
-37 -113 -189 -265 -341 0
-38 -114 -190 -266 -342 0
-39 -115 -191 -267 -343 0
-40 -116 -192 -268 -344 0
-41 -117 -193 -269 -345 0
-42 -118 -194 -270 -346 0
-43 -119 -195 -271 -347 0
-44 -120 -196 -272 -348 0
-45 -121 -197 -273 -349 0
-46 -122 -198 -274 -350 0
-47 -123 -199 -275 -351 0
-48 -124 -200 -276 -352 0
-49 -125 -201 -277 -353 0
-50 -126 -202 -278 -354 0
-51 -127 -203 -279 -355 0
-52 -128 -204 -280 -356 0
-1 -79 -157 -235 -313 0
-2 -80 -158 -236 -314 0
-3 -81 -159 -237 -315 0
-4 -82 -160 -238 -316 0
-5 -83 -161 -239 -317 0
-6 -84 -162 -240 -318 0
-7 -85 -163 -241 -319 0
-8 -86 -164 -242 -320 0
-9 -87 -165 -243 -321 0
-10 -88 -166 -244 -322 0
-11 -89 -167 -245 -323 0
-12 -90 -168 -246 -324 0
-13 -91 -169 -247 -325 0
-14 -92 -170 -248 -326 0
-15 -93 -171 -249 -327 0
-16 -94 -172 -250 -328 0
-17 -95 -173 -251 -329 0
-18 -96 -174 -252 -330 0
-19 -97 -175 -253 -331 0
-20 -98 -176 -254 -332 0
-21 -99 -177 -255 -333 0
-22 -100 -178 -256 -334 0
-23 -101 -179 -257 -335 0
-24 -102 -180 -258 -336 0
-25 -103 -181 -259 -337 0
-26 -104 -182 -260 -338 0
-27 -105 -183 -261 -339 0
-28 -106 -184 -262 -340 0
-29 -107 -185 -263 -341 0
-30 -108 -186 -264 -342 0
-31 -109 -187 -265 -343 0
-32 -110 -188 -266 -344 0
-33 -111 -189 -267 -345 0
-34 -112 -190 -268 -346 0
-35 -113 -191 -269 -347 0
-36 -114 -192 -270 -348 0
-37 -115 -193 -271 -349 0
-38 -116 -194 -272 -350 0
-39 -117 -195 -273 -351 0
-40 -118 -196 -274 -352 0
-41 -119 -197 -275 -353 0
-42 -120 -198 -276 -354 0
-43 -121 -199 -277 -355 0
-44 -122 -200 -278 -356 0
-1 -81 -161 -241 -321 0
-2 -82 -162 -242 -322 0
-3 -83 -163 -243 -323 0
-4 -84 -164 -244 -324 0
-5 -85 -165 -245 -325 0
-6 -86 -166 -246 -326 0
-7 -87 -167 -247 -327 0
-8 -88 -168 -248 -328 0
-9 -89 -169 -249 -329 0
-10 -90 -170 -250 -330 0
-11 -91 -171 -251 -331 0
-12 -92 -172 -252 -332 0
-13 -93 -173 -253 -333 0
-14 -94 -174 -254 -334 0
-15 -95 -175 -255 -335 0
-16 -96 -176 -256 -336 0
-17 -97 -177 -257 -337 0
-18 -98 -178 -258 -338 0
-19 -99 -179 -259 -339 0
-20 -100 -180 -260 -340 0
-21 -101 -181 -261 -341 0
-22 -102 -182 -262 -342 0
-23 -103 -183 -263 -343 0
-24 -104 -184 -264 -344 0
-25 -105 -185 -265 -345 0
-26 -106 -186 -266 -346 0
-27 -107 -187 -267 -347 0
-28 -108 -188 -268 -348 0
-29 -109 -189 -269 -349 0
-30 -110 -190 -270 -350 0
-31 -111 -191 -271 -351 0
-32 -112 -192 -272 -352 0
-33 -113 -193 -273 -353 0
-34 -114 -194 -274 -354 0
-35 -115 -195 -275 -355 0
-36 -116 -196 -276 -356 0
-1 -83 -165 -247 -329 0
-2 -84 -166 -248 -330 0
-3 -85 -167 -249 -331 0
-4 -86 -168 -250 -332 0
-5 -87 -169 -251 -333 0
-6 -88 -170 -252 -334 0
-7 -89 -171 -253 -335 0
-8 -90 -172 -254 -336 0
-9 -91 -173 -255 -337 0
-10 -92 -174 -256 -338 0
-11 -93 -175 -257 -339 0
-12 -94 -176 -258 -340 0
-13 -95 -177 -259 -341 0
-14 -96 -178 -260 -342 0
-15 -97 -179 -261 -343 0
-16 -98 -180 -262 -344 0
-17 -99 -181 -263 -345 0
-18 -100 -182 -264 -346 0
-19 -101 -183 -265 -347 0
-20 -102 -184 -266 -348 0
-21 -103 -185 -267 -349 0
-22 -104 -186 -268 -350 0
-23 -105 -187 -269 -351 0
-24 -106 -188 -270 -352 0
-25 -107 -189 -271 -353 0
-26 -108 -190 -272 -354 0
-27 -109 -191 -273 -355 0
-28 -110 -192 -274 -356 0
-1 -85 -169 -253 -337 0
-2 -86 -170 -254 -338 0
-3 -87 -171 -255 -339 0
-4 -88 -172 -256 -340 0
-5 -89 -173 -257 -341 0
-6 -90 -174 -258 -342 0
-7 -91 -175 -259 -343 0
-8 -92 -176 -260 -344 0
-9 -93 -177 -261 -345 0
-10 -94 -178 -262 -346 0
-11 -95 -179 -263 -347 0
-12 -96 -180 -264 -348 0
-13 -97 -181 -265 -349 0
-14 -98 -182 -266 -350 0
-15 -99 -183 -267 -351 0
-16 -100 -184 -268 -352 0
-17 -101 -185 -269 -353 0
-18 -102 -186 -270 -354 0
-19 -103 -187 -271 -355 0
-20 -104 -188 -272 -356 0
-1 -87 -173 -259 -345 0
-2 -88 -174 -260 -346 0
-3 -89 -175 -261 -347 0
-4 -90 -176 -262 -348 0
-5 -91 -177 -263 -349 0
-6 -92 -178 -264 -350 0
-7 -93 -179 -265 -351 0
-8 -94 -180 -266 -352 0
-9 -95 -181 -267 -353 0
-10 -96 -182 -268 -354 0
-11 -97 -183 -269 -355 0
-12 -98 -184 -270 -356 0
-1 -89 -177 -265 -353 0
-2 -90 -178 -266 -354 0
-3 -91 -179 -267 -355 0
-4 -92 -180 -268 -356 0
-1 -2 0
-3 -4 0
-5 -6 0
-7 -8 0
-9 -10 0
-11 -12 0
-13 -14 0
-15 -16 0
-17 -18 0
-19 -20 0
-21 -22 0
-23 -24 0
-25 -26 0
-27 -28 0
-29 -30 0
-31 -32 0
-33 -34 0
-35 -36 0
-37 -38 0
-39 -40 0
-41 -42 0
-43 -44 0
-45 -46 0
-47 -48 0
-49 -50 0
-51 -52 0
-53 -54 0
-55 -56 0
-57 -58 0
-59 -60 0
-61 -62 0
-63 -64 0
-65 -66 0
-67 -68 0
-69 -70 0
-71 -72 0
-73 -74 0
-75 -76 0
-77 -78 0
-79 -80 0
-81 -82 0
-83 -84 0
-85 -86 0
-87 -88 0
-89 -90 0
-91 -92 0
-93 -94 0
-95 -96 0
-97 -98 0
-99 -100 0
-101 -102 0
-103 -104 0
-105 -106 0
-107 -108 0
-109 -110 0
-111 -112 0
-113 -114 0
-115 -116 0
-117 -118 0
-119 -120 0
-121 -122 0
-123 -124 0
-125 -126 0
-127 -128 0
-129 -130 0
-131 -132 0
-133 -134 0
-135 -136 0
-137 -138 0
-139 -140 0
-141 -142 0
-143 -144 0
-145 -146 0
-147 -148 0
-149 -150 0
-151 -152 0
-153 -154 0
-155 -156 0
-157 -158 0
-159 -160 0
-161 -162 0
-163 -164 0
-165 -166 0
-167 -168 0
-169 -170 0
-171 -172 0
-173 -174 0
-175 -176 0
-177 -178 0
-179 -180 0
-181 -182 0
-183 -184 0
-185 -186 0
-187 -188 0
-189 -190 0
-191 -192 0
-193 -194 0
-195 -196 0
-197 -198 0
-199 -200 0
-201 -202 0
-203 -204 0
-205 -206 0
-207 -208 0
-209 -210 0
-211 -212 0
-213 -214 0
-215 -216 0
-217 -218 0
-219 -220 0
-221 -222 0
-223 -224 0
-225 -226 0
-227 -228 0
-229 -230 0
-231 -232 0
-233 -234 0
-235 -236 0
-237 -238 0
-239 -240 0
-241 -242 0
-243 -244 0
-245 -246 0
-247 -248 0
-249 -250 0
-251 -252 0
-253 -254 0
-255 -256 0
-257 -258 0
-259 -260 0
-261 -262 0
-263 -264 0
-265 -266 0
-267 -268 0
-269 -270 0
-271 -272 0
-273 -274 0
-275 -276 0
-277 -278 0
-279 -280 0
-281 -282 0
-283 -284 0
-285 -286 0
-287 -288 0
-289 -290 0
-291 -292 0
-293 -294 0
-295 -296 0
-297 -298 0
-299 -300 0
-301 -302 0
-303 -304 0
-305 -306 0
-307 -308 0
-309 -310 0
-311 -312 0
-313 -314 0
-315 -316 0
-317 -318 0
-319 -320 0
-321 -322 0
-323 -324 0
-325 -326 0
-327 -328 0
-329 -330 0
-331 -332 0
-333 -334 0
-335 -336 0
-337 -338 0
-339 -340 0
-341 -342 0
-343 -344 0
-345 -346 0
-347 -348 0
-349 -350 0
-351 -352 0
-353 -354 0
-355 -356 0
1 0
-4 1 0
-6 1 3 0
-8 1 3 5 0
-10 1 3 5 7 0
-12 1 3 5 7 9 0
-14 1 3 5 7 9 11 0
-16 1 3 5 7 9 11 13 0
-18 1 3 5 7 9 11 13 15 0
-20 1 3 5 7 9 11 13 15 17 0
-22 1 3 5 7 9 11 13 15 17 19 0
-24 1 3 5 7 9 11 13 15 17 19 21 0
-26 1 3 5 7 9 11 13 15 17 19 21 23 0
-28 1 3 5 7 9 11 13 15 17 19 21 23 25 0
-30 1 3 5 7 9 11 13 15 17 19 21 23 25 27 0
-32 1 3 5 7 9 11 13 15 17 19 21 23 25 27 29 0
-34 1 3 5 7 9 11 13 15 17 19 21 23 25 27 29 31 0
-36 1 3 5 7 9 11 13 15 17 19 21 23 25 27 29 31 33 0
-38 1 3 5 7 9 11 13 15 17 19 21 23 25 27 29 31 33 35 0
-40 1 3 5 7 9 11 13 15 17 19 21 23 25 27 29 31 33 35 37 0
-42 1 3 5 7 9 11 13 15 17 19 21 23 25 27 29 31 33 35 37 39 0
-44 1 3 5 7 9 11 13 15 17 19 21 23 25 27 29 31 33 35 37 39 41 0
-46 1 3 5 7 9 11 13 15 17 19 21 23 25 27 29 31 33 35 37 39 41 43 0
-48 1 3 5 7 9 11 13 15 17 19 21 23 25 27 29 31 33 35 37 39 41 43 45 0
-50 1 3 5 7 9 11 13 15 17 19 21 23 25 27 29 31 33 35 37 39 41 43 45 47 0
-52 1 3 5 7 9 11 13 15 17 19 21 23 25 27 29 31 33 35 37 39 41 43 45 47 49 0
-54 1 3 5 7 9 11 13 15 17 19 21 23 25 27 29 31 33 35 37 39 41 43 45 47 49 51 0
-56 1 3 5 7 9 11 13 15 17 19 21 23 25 27 29 31 33 35 37 39 41 43 45 47 49 51 53 0
-58 1 3 5 7 9 11 13 15 17 19 21 23 25 27 29 31 33 35 37 39 41 43 45 47 49 51 53 55 0
-60 1 3 5 7 9 11 13 15 17 19 21 23 25 27 29 31 33 35 37 39 41 43 45 47 49 51 53 55 57 0
-62 1 3 5 7 9 11 13 15 17 19 21 23 25 27 29 31 33 35 37 39 41 43 45 47 49 51 53 55 57 59 0
-64 1 3 5 7 9 11 13 15 17 19 21 23 25 27 29 31 33 35 37 39 41 43 45 47 49 51 53 55 57 59 61 0
-66 1 3 5 7 9 11 13 15 17 19 21 23 25 27 29 31 33 35 37 39 41 43 45 47 49 51 53 55 57 59 61 63 0
-68 1 3 5 7 9 11 13 15 17 19 21 23 25 27 29 31 33 35 37 39 41 43 45 47 49 51 53 55 57 59 61 63 65 0
-70 1 3 5 7 9 11 13 15 17 19 21 23 25 27 29 31 33 35 37 39 41 43 45 47 49 51 53 55 57 59 61 63 65 67 0
-72 1 3 5 7 9 11 13 15 17 19 21 23 25 27 29 31 33 35 37 39 41 43 45 47 49 51 53 55 57 59 61 63 65 67 69 0
-74 1 3 5 7 9 11 13 15 17 19 21 23 25 27 29 31 33 35 37 39 41 43 45 47 49 51 53 55 57 59 61 63 65 67 69 71 0
-76 1 3 5 7 9 11 13 15 17 19 21 23 25 27 29 31 33 35 37 39 41 43 45 47 49 51 53 55 57 59 61 63 65 67 69 71 73 0
-78 1 3 5 7 9 11 13 15 17 19 21 23 25 27 29 31 33 35 37 39 41 43 45 47 49 51 53 55 57 59 61 63 65 67 69 71 73 75 0
-80 1 3 5 7 9 11 13 15 17 19 21 23 25 27 29 31 33 35 37 39 41 43 45 47 49 51 53 55 57 59 61 63 65 67 69 71 73 75 77 0
-82 1 3 5 7 9 11 13 15 17 19 21 23 25 27 29 31 33 35 37 39 41 43 45 47 49 51 53 55 57 59 61 63 65 67 69 71 73 75 77 79 0
-84 1 3 5 7 9 11 13 15 17 19 21 23 25 27 29 31 33 35 37 39 41 43 45 47 49 51 53 55 57 59 61 63 65 67 69 71 73 75 77 79 81 0
-86 1 3 5 7 9 11 13 15 17 19 21 23 25 27 29 31 33 35 37 39 41 43 45 47 49 51 53 55 57 59 61 63 65 67 69 71 73 75 77 79 81 83 0
-88 1 3 5 7 9 11 13 15 17 19 21 23 25 27 29 31 33 35 37 39 41 43 45 47 49 51 53 55 57 59 61 63 65 67 69 71 73 75 77 79 81 83 85 0
-90 1 3 5 7 9 11 13 15 17 19 21 23 25 27 29 31 33 35 37 39 41 43 45 47 49 51 53 55 57 59 61 63 65 67 69 71 73 75 77 79 81 83 85 87 0
-92 1 3 5 7 9 11 13 15 17 19 21 23 25 27 29 31 33 35 37 39 41 43 45 47 49 51 53 55 57 59 61 63 65 67 69 71 73 75 77 79 81 83 85 87 89 0
-94 1 3 5 7 9 11 13 15 17 19 21 23 25 27 29 31 33 35 37 39 41 43 45 47 49 51 53 55 57 59 61 63 65 67 69 71 73 75 77 79 81 83 85 87 89 91 0
-96 1 3 5 7 9 11 13 15 17 19 21 23 25 27 29 31 33 35 37 39 41 43 45 47 49 51 53 55 57 59 61 63 65 67 69 71 73 75 77 79 81 83 85 87 89 91 93 0
-98 1 3 5 7 9 11 13 15 17 19 21 23 25 27 29 31 33 35 37 39 41 43 45 47 49 51 53 55 57 59 61 63 65 67 69 71 73 75 77 79 81 83 85 87 89 91 93 95 0
-100 1 3 5 7 9 11 13 15 17 19 21 23 25 27 29 31 33 35 37 39 41 43 45 47 49 51 53 55 57 59 61 63 65 67 69 71 73 75 77 79 81 83 85 87 89 91 93 95 97 0
-102 1 3 5 7 9 11 13 15 17 19 21 23 25 27 29 31 33 35 37 39 41 43 45 47 49 51 53 55 57 59 61 63 65 67 69 71 73 75 77 79 81 83 85 87 89 91 93 95 97 99 0
-104 1 3 5 7 9 11 13 15 17 19 21 23 25 27 29 31 33 35 37 39 41 43 45 47 49 51 53 55 57 59 61 63 65 67 69 71 73 75 77 79 81 83 85 87 89 91 93 95 97 99 101 0
-106 1 3 5 7 9 11 13 15 17 19 21 23 25 27 29 31 33 35 37 39 41 43 45 47 49 51 53 55 57 59 61 63 65 67 69 71 73 75 77 79 81 83 85 87 89 91 93 95 97 99 101 103 0
-108 1 3 5 7 9 11 13 15 17 19 21 23 25 27 29 31 33 35 37 39 41 43 45 47 49 51 53 55 57 59 61 63 65 67 69 71 73 75 77 79 81 83 85 87 89 91 93 95 97 99 101 103 105 0
-110 1 3 5 7 9 11 13 15 17 19 21 23 25 27 29 31 33 35 37 39 41 43 45 47 49 51 53 55 57 59 61 63 65 67 69 71 73 75 77 79 81 83 85 87 89 91 93 95 97 99 101 103 105 107 0
-112 1 3 5 7 9 11 13 15 17 19 21 23 25 27 29 31 33 35 37 39 41 43 45 47 49 51 53 55 57 59 61 63 65 67 69 71 73 75 77 79 81 83 85 87 89 91 93 95 97 99 101 103 105 107 109 0
-114 1 3 5 7 9 11 13 15 17 19 21 23 25 27 29 31 33 35 37 39 41 43 45 47 49 51 53 55 57 59 61 63 65 67 69 71 73 75 77 79 81 83 85 87 89 91 93 95 97 99 101 103 105 107 109 111 0
-116 1 3 5 7 9 11 13 15 17 19 21 23 25 27 29 31 33 35 37 39 41 43 45 47 49 51 53 55 57 59 61 63 65 67 69 71 73 75 77 79 81 83 85 87 89 91 93 95 97 99 101 103 105 107 109 111 113 0
-118 1 3 5 7 9 11 13 15 17 19 21 23 25 27 29 31 33 35 37 39 41 43 45 47 49 51 53 55 57 59 61 63 65 67 69 71 73 75 77 79 81 83 85 87 89 91 93 95 97 99 101 103 105 107 109 111 113 115 0
-120 1 3 5 7 9 11 13 15 17 19 21 23 25 27 29 31 33 35 37 39 41 43 45 47 49 51 53 55 57 59 61 63 65 67 69 71 73 75 77 79 81 83 85 87 89 91 93 95 97 99 101 103 105 107 109 111 113 115 117 0
-122 1 3 5 7 9 11 13 15 17 19 21 23 25 27 29 31 33 35 37 39 41 43 45 47 49 51 53 55 57 59 61 63 65 67 69 71 73 75 77 79 81 83 85 87 89 91 93 95 97 99 101 103 105 107 109 111 113 115 117 119 0
-124 1 3 5 7 9 11 13 15 17 19 21 23 25 27 29 31 33 35 37 39 41 43 45 47 49 51 53 55 57 59 61 63 65 67 69 71 73 75 77 79 81 83 85 87 89 91 93 95 97 99 101 103 105 107 109 111 113 115 117 119 121 0
-126 1 3 5 7 9 11 13 15 17 19 21 23 25 27 29 31 33 35 37 39 41 43 45 47 49 51 53 55 57 59 61 63 65 67 69 71 73 75 77 79 81 83 85 87 89 91 93 95 97 99 101 103 105 107 109 111 113 115 117 119 121 123 0
-128 1 3 5 7 9 11 13 15 17 19 21 23 25 27 29 31 33 35 37 39 41 43 45 47 49 51 53 55 57 59 61 63 65 67 69 71 73 75 77 79 81 83 85 87 89 91 93 95 97 99 101 103 105 107 109 111 113 115 117 119 121 123 125 0
-130 1 3 5 7 9 11 13 15 17 19 21 23 25 27 29 31 33 35 37 39 41 43 45 47 49 51 53 55 57 59 61 63 65 67 69 71 73 75 77 79 81 83 85 87 89 91 93 95 97 99 101 103 105 107 109 111 113 115 117 119 121 123 125 127 0
-132 1 3 5 7 9 11 13 15 17 19 21 23 25 27 29 31 33 35 37 39 41 43 45 47 49 51 53 55 57 59 61 63 65 67 69 71 73 75 77 79 81 83 85 87 89 91 93 95 97 99 101 103 105 107 109 111 113 115 117 119 121 123 125 127 129 0
-134 1 3 5 7 9 11 13 15 17 19 21 23 25 27 29 31 33 35 37 39 41 43 45 47 49 51 53 55 57 59 61 63 65 67 69 71 73 75 77 79 81 83 85 87 89 91 93 95 97 99 101 103 105 107 109 111 113 115 117 119 121 123 125 127 129 131 0
-136 1 3 5 7 9 11 13 15 17 19 21 23 25 27 29 31 33 35 37 39 41 43 45 47 49 51 53 55 57 59 61 63 65 67 69 71 73 75 77 79 81 83 85 87 89 91 93 95 97 99 101 103 105 107 109 111 113 115 117 119 121 123 125 127 129 131 133 0
-138 1 3 5 7 9 11 13 15 17 19 21 23 25 27 29 31 33 35 37 39 41 43 45 47 49 51 53 55 57 59 61 63 65 67 69 71 73 75 77 79 81 83 85 87 89 91 93 95 97 99 101 103 105 107 109 111 113 115 117 119 121 123 125 127 129 131 133 135 0
-140 1 3 5 7 9 11 13 15 17 19 21 23 25 27 29 31 33 35 37 39 41 43 45 47 49 51 53 55 57 59 61 63 65 67 69 71 73 75 77 79 81 83 85 87 89 91 93 95 97 99 101 103 105 107 109 111 113 115 117 119 121 123 125 127 129 131 133 135 137 0
-142 1 3 5 7 9 11 13 15 17 19 21 23 25 27 29 31 33 35 37 39 41 43 45 47 49 51 53 55 57 59 61 63 65 67 69 71 73 75 77 79 81 83 85 87 89 91 93 95 97 99 101 103 105 107 109 111 113 115 117 119 121 123 125 127 129 131 133 135 137 139 0
-144 1 3 5 7 9 11 13 15 17 19 21 23 25 27 29 31 33 35 37 39 41 43 45 47 49 51 53 55 57 59 61 63 65 67 69 71 73 75 77 79 81 83 85 87 89 91 93 95 97 99 101 103 105 107 109 111 113 115 117 119 121 123 125 127 129 131 133 135 137 139 141 0
-146 1 3 5 7 9 11 13 15 17 19 21 23 25 27 29 31 33 35 37 39 41 43 45 47 49 51 53 55 57 59 61 63 65 67 69 71 73 75 77 79 81 83 85 87 89 91 93 95 97 99 101 103 105 107 109 111 113 115 117 119 121 123 125 127 129 131 133 135 137 139 141 143 0
-148 1 3 5 7 9 11 13 15 17 19 21 23 25 27 29 31 33 35 37 39 41 43 45 47 49 51 53 55 57 59 61 63 65 67 69 71 73 75 77 79 81 83 85 87 89 91 93 95 97 99 101 103 105 107 109 111 113 115 117 119 121 123 125 127 129 131 133 135 137 139 141 143 145 0
-150 1 3 5 7 9 11 13 15 17 19 21 23 25 27 29 31 33 35 37 39 41 43 45 47 49 51 53 55 57 59 61 63 65 67 69 71 73 75 77 79 81 83 85 87 89 91 93 95 97 99 101 103 105 107 109 111 113 115 117 119 121 123 125 127 129 131 133 135 137 139 141 143 145 147 0
-152 1 3 5 7 9 11 13 15 17 19 21 23 25 27 29 31 33 35 37 39 41 43 45 47 49 51 53 55 57 59 61 63 65 67 69 71 73 75 77 79 81 83 85 87 89 91 93 95 97 99 101 103 105 107 109 111 113 115 117 119 121 123 125 127 129 131 133 135 137 139 141 143 145 147 149 0
-154 1 3 5 7 9 11 13 15 17 19 21 23 25 27 29 31 33 35 37 39 41 43 45 47 49 51 53 55 57 59 61 63 65 67 69 71 73 75 77 79 81 83 85 87 89 91 93 95 97 99 101 103 105 107 109 111 113 115 117 119 121 123 125 127 129 131 133 135 137 139 141 143 145 147 149 151 0
-156 1 3 5 7 9 11 13 15 17 19 21 23 25 27 29 31 33 35 37 39 41 43 45 47 49 51 53 55 57 59 61 63 65 67 69 71 73 75 77 79 81 83 85 87 89 91 93 95 97 99 101 103 105 107 109 111 113 115 117 119 121 123 125 127 129 131 133 135 137 139 141 143 145 147 149 151 153 0
-158 1 3 5 7 9 11 13 15 17 19 21 23 25 27 29 31 33 35 37 39 41 43 45 47 49 51 53 55 57 59 61 63 65 67 69 71 73 75 77 79 81 83 85 87 89 91 93 95 97 99 101 103 105 107 109 111 113 115 117 119 121 123 125 127 129 131 133 135 137 139 141 143 145 147 149 151 153 155 0
-160 1 3 5 7 9 11 13 15 17 19 21 23 25 27 29 31 33 35 37 39 41 43 45 47 49 51 53 55 57 59 61 63 65 67 69 71 73 75 77 79 81 83 85 87 89 91 93 95 97 99 101 103 105 107 109 111 113 115 117 119 121 123 125 127 129 131 133 135 137 139 141 143 145 147 149 151 153 155 157 0
-162 1 3 5 7 9 11 13 15 17 19 21 23 25 27 29 31 33 35 37 39 41 43 45 47 49 51 53 55 57 59 61 63 65 67 69 71 73 75 77 79 81 83 85 87 89 91 93 95 97 99 101 103 105 107 109 111 113 115 117 119 121 123 125 127 129 131 133 135 137 139 141 143 145 147 149 151 153 155 157 159 0
-164 1 3 5 7 9 11 13 15 17 19 21 23 25 27 29 31 33 35 37 39 41 43 45 47 49 51 53 55 57 59 61 63 65 67 69 71 73 75 77 79 81 83 85 87 89 91 93 95 97 99 101 103 105 107 109 111 113 115 117 119 121 123 125 127 129 131 133 135 137 139 141 143 145 147 149 151 153 155 157 159 161 0
-166 1 3 5 7 9 11 13 15 17 19 21 23 25 27 29 31 33 35 37 39 41 43 45 47 49 51 53 55 57 59 61 63 65 67 69 71 73 75 77 79 81 83 85 87 89 91 93 95 97 99 101 103 105 107 109 111 113 115 117 119 121 123 125 127 129 131 133 135 137 139 141 143 145 147 149 151 153 155 157 159 161 163 0
-168 1 3 5 7 9 11 13 15 17 19 21 23 25 27 29 31 33 35 37 39 41 43 45 47 49 51 53 55 57 59 61 63 65 67 69 71 73 75 77 79 81 83 85 87 89 91 93 95 97 99 101 103 105 107 109 111 113 115 117 119 121 123 125 127 129 131 133 135 137 139 141 143 145 147 149 151 153 155 157 159 161 163 165 0
-170 1 3 5 7 9 11 13 15 17 19 21 23 25 27 29 31 33 35 37 39 41 43 45 47 49 51 53 55 57 59 61 63 65 67 69 71 73 75 77 79 81 83 85 87 89 91 93 95 97 99 101 103 105 107 109 111 113 115 117 119 121 123 125 127 129 131 133 135 137 139 141 143 145 147 149 151 153 155 157 159 161 163 165 167 0
-172 1 3 5 7 9 11 13 15 17 19 21 23 25 27 29 31 33 35 37 39 41 43 45 47 49 51 53 55 57 59 61 63 65 67 69 71 73 75 77 79 81 83 85 87 89 91 93 95 97 99 101 103 105 107 109 111 113 115 117 119 121 123 125 127 129 131 133 135 137 139 141 143 145 147 149 151 153 155 157 159 161 163 165 167 169 0
-174 1 3 5 7 9 11 13 15 17 19 21 23 25 27 29 31 33 35 37 39 41 43 45 47 49 51 53 55 57 59 61 63 65 67 69 71 73 75 77 79 81 83 85 87 89 91 93 95 97 99 101 103 105 107 109 111 113 115 117 119 121 123 125 127 129 131 133 135 137 139 141 143 145 147 149 151 153 155 157 159 161 163 165 167 169 171 0
-176 1 3 5 7 9 11 13 15 17 19 21 23 25 27 29 31 33 35 37 39 41 43 45 47 49 51 53 55 57 59 61 63 65 67 69 71 73 75 77 79 81 83 85 87 89 91 93 95 97 99 101 103 105 107 109 111 113 115 117 119 121 123 125 127 129 131 133 135 137 139 141 143 145 147 149 151 153 155 157 159 161 163 165 167 169 171 173 0
-178 1 3 5 7 9 11 13 15 17 19 21 23 25 27 29 31 33 35 37 39 41 43 45 47 49 51 53 55 57 59 61 63 65 67 69 71 73 75 77 79 81 83 85 87 89 91 93 95 97 99 101 103 105 107 109 111 113 115 117 119 121 123 125 127 129 131 133 135 137 139 141 143 145 147 149 151 153 155 157 159 161 163 165 167 169 171 173 175 0
-180 1 3 5 7 9 11 13 15 17 19 21 23 25 27 29 31 33 35 37 39 41 43 45 47 49 51 53 55 57 59 61 63 65 67 69 71 73 75 77 79 81 83 85 87 89 91 93 95 97 99 101 103 105 107 109 111 113 115 117 119 121 123 125 127 129 131 133 135 137 139 141 143 145 147 149 151 153 155 157 159 161 163 165 167 169 171 173 175 177 0
-182 1 3 5 7 9 11 13 15 17 19 21 23 25 27 29 31 33 35 37 39 41 43 45 47 49 51 53 55 57 59 61 63 65 67 69 71 73 75 77 79 81 83 85 87 89 91 93 95 97 99 101 103 105 107 109 111 113 115 117 119 121 123 125 127 129 131 133 135 137 139 141 143 145 147 149 151 153 155 157 159 161 163 165 167 169 171 173 175 177 179 0
-184 1 3 5 7 9 11 13 15 17 19 21 23 25 27 29 31 33 35 37 39 41 43 45 47 49 51 53 55 57 59 61 63 65 67 69 71 73 75 77 79 81 83 85 87 89 91 93 95 97 99 101 103 105 107 109 111 113 115 117 119 121 123 125 127 129 131 133 135 137 139 141 143 145 147 149 151 153 155 157 159 161 163 165 167 169 171 173 175 177 179 181 0
-186 1 3 5 7 9 11 13 15 17 19 21 23 25 27 29 31 33 35 37 39 41 43 45 47 49 51 53 55 57 59 61 63 65 67 69 71 73 75 77 79 81 83 85 87 89 91 93 95 97 99 101 103 105 107 109 111 113 115 117 119 121 123 125 127 129 131 133 135 137 139 141 143 145 147 149 151 153 155 157 159 161 163 165 167 169 171 173 175 177 179 181 183 0
-188 1 3 5 7 9 11 13 15 17 19 21 23 25 27 29 31 33 35 37 39 41 43 45 47 49 51 53 55 57 59 61 63 65 67 69 71 73 75 77 79 81 83 85 87 89 91 93 95 97 99 101 103 105 107 109 111 113 115 117 119 121 123 125 127 129 131 133 135 137 139 141 143 145 147 149 151 153 155 157 159 161 163 165 167 169 171 173 175 177 179 181 183 185 0
-190 1 3 5 7 9 11 13 15 17 19 21 23 25 27 29 31 33 35 37 39 41 43 45 47 49 51 53 55 57 59 61 63 65 67 69 71 73 75 77 79 81 83 85 87 89 91 93 95 97 99 101 103 105 107 109 111 113 115 117 119 121 123 125 127 129 131 133 135 137 139 141 143 145 147 149 151 153 155 157 159 161 163 165 167 169 171 173 175 177 179 181 183 185 187 0
-192 1 3 5 7 9 11 13 15 17 19 21 23 25 27 29 31 33 35 37 39 41 43 45 47 49 51 53 55 57 59 61 63 65 67 69 71 73 75 77 79 81 83 85 87 89 91 93 95 97 99 101 103 105 107 109 111 113 115 117 119 121 123 125 127 129 131 133 135 137 139 141 143 145 147 149 151 153 155 157 159 161 163 165 167 169 171 173 175 177 179 181 183 185 187 189 0
-194 1 3 5 7 9 11 13 15 17 19 21 23 25 27 29 31 33 35 37 39 41 43 45 47 49 51 53 55 57 59 61 63 65 67 69 71 73 75 77 79 81 83 85 87 89 91 93 95 97 99 101 103 105 107 109 111 113 115 117 119 121 123 125 127 129 131 133 135 137 139 141 143 145 147 149 151 153 155 157 159 161 163 165 167 169 171 173 175 177 179 181 183 185 187 189 191 0
-196 1 3 5 7 9 11 13 15 17 19 21 23 25 27 29 31 33 35 37 39 41 43 45 47 49 51 53 55 57 59 61 63 65 67 69 71 73 75 77 79 81 83 85 87 89 91 93 95 97 99 101 103 105 107 109 111 113 115 117 119 121 123 125 127 129 131 133 135 137 139 141 143 145 147 149 151 153 155 157 159 161 163 165 167 169 171 173 175 177 179 181 183 185 187 189 191 193 0
-198 1 3 5 7 9 11 13 15 17 19 21 23 25 27 29 31 33 35 37 39 41 43 45 47 49 51 53 55 57 59 61 63 65 67 69 71 73 75 77 79 81 83 85 87 89 91 93 95 97 99 101 103 105 107 109 111 113 115 117 119 121 123 125 127 129 131 133 135 137 139 141 143 145 147 149 151 153 155 157 159 161 163 165 167 169 171 173 175 177 179 181 183 185 187 189 191 193 195 0
-200 1 3 5 7 9 11 13 15 17 19 21 23 25 27 29 31 33 35 37 39 41 43 45 47 49 51 53 55 57 59 61 63 65 67 69 71 73 75 77 79 81 83 85 87 89 91 93 95 97 99 101 103 105 107 109 111 113 115 117 119 121 123 125 127 129 131 133 135 137 139 141 143 145 147 149 151 153 155 157 159 161 163 165 167 169 171 173 175 177 179 181 183 185 187 189 191 193 195 197 0
-202 1 3 5 7 9 11 13 15 17 19 21 23 25 27 29 31 33 35 37 39 41 43 45 47 49 51 53 55 57 59 61 63 65 67 69 71 73 75 77 79 81 83 85 87 89 91 93 95 97 99 101 103 105 107 109 111 113 115 117 119 121 123 125 127 129 131 133 135 137 139 141 143 145 147 149 151 153 155 157 159 161 163 165 167 169 171 173 175 177 179 181 183 185 187 189 191 193 195 197 199 0
-204 1 3 5 7 9 11 13 15 17 19 21 23 25 27 29 31 33 35 37 39 41 43 45 47 49 51 53 55 57 59 61 63 65 67 69 71 73 75 77 79 81 83 85 87 89 91 93 95 97 99 101 103 105 107 109 111 113 115 117 119 121 123 125 127 129 131 133 135 137 139 141 143 145 147 149 151 153 155 157 159 161 163 165 167 169 171 173 175 177 179 181 183 185 187 189 191 193 195 197 199 201 0
-206 1 3 5 7 9 11 13 15 17 19 21 23 25 27 29 31 33 35 37 39 41 43 45 47 49 51 53 55 57 59 61 63 65 67 69 71 73 75 77 79 81 83 85 87 89 91 93 95 97 99 101 103 105 107 109 111 113 115 117 119 121 123 125 127 129 131 133 135 137 139 141 143 145 147 149 151 153 155 157 159 161 163 165 167 169 171 173 175 177 179 181 183 185 187 189 191 193 195 197 199 201 203 0
-208 1 3 5 7 9 11 13 15 17 19 21 23 25 27 29 31 33 35 37 39 41 43 45 47 49 51 53 55 57 59 61 63 65 67 69 71 73 75 77 79 81 83 85 87 89 91 93 95 97 99 101 103 105 107 109 111 113 115 117 119 121 123 125 127 129 131 133 135 137 139 141 143 145 147 149 151 153 155 157 159 161 163 165 167 169 171 173 175 177 179 181 183 185 187 189 191 193 195 197 199 201 203 205 0
-210 1 3 5 7 9 11 13 15 17 19 21 23 25 27 29 31 33 35 37 39 41 43 45 47 49 51 53 55 57 59 61 63 65 67 69 71 73 75 77 79 81 83 85 87 89 91 93 95 97 99 101 103 105 107 109 111 113 115 117 119 121 123 125 127 129 131 133 135 137 139 141 143 145 147 149 151 153 155 157 159 161 163 165 167 169 171 173 175 177 179 181 183 185 187 189 191 193 195 197 199 201 203 205 207 0
-212 1 3 5 7 9 11 13 15 17 19 21 23 25 27 29 31 33 35 37 39 41 43 45 47 49 51 53 55 57 59 61 63 65 67 69 71 73 75 77 79 81 83 85 87 89 91 93 95 97 99 101 103 105 107 109 111 113 115 117 119 121 123 125 127 129 131 133 135 137 139 141 143 145 147 149 151 153 155 157 159 161 163 165 167 169 171 173 175 177 179 181 183 185 187 189 191 193 195 197 199 201 203 205 207 209 0
-214 1 3 5 7 9 11 13 15 17 19 21 23 25 27 29 31 33 35 37 39 41 43 45 47 49 51 53 55 57 59 61 63 65 67 69 71 73 75 77 79 81 83 85 87 89 91 93 95 97 99 101 103 105 107 109 111 113 115 117 119 121 123 125 127 129 131 133 135 137 139 141 143 145 147 149 151 153 155 157 159 161 163 165 167 169 171 173 175 177 179 181 183 185 187 189 191 193 195 197 199 201 203 205 207 209 211 0
-216 1 3 5 7 9 11 13 15 17 19 21 23 25 27 29 31 33 35 37 39 41 43 45 47 49 51 53 55 57 59 61 63 65 67 69 71 73 75 77 79 81 83 85 87 89 91 93 95 97 99 101 103 105 107 109 111 113 115 117 119 121 123 125 127 129 131 133 135 137 139 141 143 145 147 149 151 153 155 157 159 161 163 165 167 169 171 173 175 177 179 181 183 185 187 189 191 193 195 197 199 201 203 205 207 209 211 213 0
-218 1 3 5 7 9 11 13 15 17 19 21 23 25 27 29 31 33 35 37 39 41 43 45 47 49 51 53 55 57 59 61 63 65 67 69 71 73 75 77 79 81 83 85 87 89 91 93 95 97 99 101 103 105 107 109 111 113 115 117 119 121 123 125 127 129 131 133 135 137 139 141 143 145 147 149 151 153 155 157 159 161 163 165 167 169 171 173 175 177 179 181 183 185 187 189 191 193 195 197 199 201 203 205 207 209 211 213 215 0
-220 1 3 5 7 9 11 13 15 17 19 21 23 25 27 29 31 33 35 37 39 41 43 45 47 49 51 53 55 57 59 61 63 65 67 69 71 73 75 77 79 81 83 85 87 89 91 93 95 97 99 101 103 105 107 109 111 113 115 117 119 121 123 125 127 129 131 133 135 137 139 141 143 145 147 149 151 153 155 157 159 161 163 165 167 169 171 173 175 177 179 181 183 185 187 189 191 193 195 197 199 201 203 205 207 209 211 213 215 217 0
-222 1 3 5 7 9 11 13 15 17 19 21 23 25 27 29 31 33 35 37 39 41 43 45 47 49 51 53 55 57 59 61 63 65 67 69 71 73 75 77 79 81 83 85 87 89 91 93 95 97 99 101 103 105 107 109 111 113 115 117 119 121 123 125 127 129 131 133 135 137 139 141 143 145 147 149 151 153 155 157 159 161 163 165 167 169 171 173 175 177 179 181 183 185 187 189 191 193 195 197 199 201 203 205 207 209 211 213 215 217 219 0
-224 1 3 5 7 9 11 13 15 17 19 21 23 25 27 29 31 33 35 37 39 41 43 45 47 49 51 53 55 57 59 61 63 65 67 69 71 73 75 77 79 81 83 85 87 89 91 93 95 97 99 101 103 105 107 109 111 113 115 117 119 121 123 125 127 129 131 133 135 137 139 141 143 145 147 149 151 153 155 157 159 161 163 165 167 169 171 173 175 177 179 181 183 185 187 189 191 193 195 197 199 201 203 205 207 209 211 213 215 217 219 221 0
-226 1 3 5 7 9 11 13 15 17 19 21 23 25 27 29 31 33 35 37 39 41 43 45 47 49 51 53 55 57 59 61 63 65 67 69 71 73 75 77 79 81 83 85 87 89 91 93 95 97 99 101 103 105 107 109 111 113 115 117 119 121 123 125 127 129 131 133 135 137 139 141 143 145 147 149 151 153 155 157 159 161 163 165 167 169 171 173 175 177 179 181 183 185 187 189 191 193 195 197 199 201 203 205 207 209 211 213 215 217 219 221 223 0
-228 1 3 5 7 9 11 13 15 17 19 21 23 25 27 29 31 33 35 37 39 41 43 45 47 49 51 53 55 57 59 61 63 65 67 69 71 73 75 77 79 81 83 85 87 89 91 93 95 97 99 101 103 105 107 109 111 113 115 117 119 121 123 125 127 129 131 133 135 137 139 141 143 145 147 149 151 153 155 157 159 161 163 165 167 169 171 173 175 177 179 181 183 185 187 189 191 193 195 197 199 201 203 205 207 209 211 213 215 217 219 221 223 225 0
-230 1 3 5 7 9 11 13 15 17 19 21 23 25 27 29 31 33 35 37 39 41 43 45 47 49 51 53 55 57 59 61 63 65 67 69 71 73 75 77 79 81 83 85 87 89 91 93 95 97 99 101 103 105 107 109 111 113 115 117 119 121 123 125 127 129 131 133 135 137 139 141 143 145 147 149 151 153 155 157 159 161 163 165 167 169 171 173 175 177 179 181 183 185 187 189 191 193 195 197 199 201 203 205 207 209 211 213 215 217 219 221 223 225 227 0
-232 1 3 5 7 9 11 13 15 17 19 21 23 25 27 29 31 33 35 37 39 41 43 45 47 49 51 53 55 57 59 61 63 65 67 69 71 73 75 77 79 81 83 85 87 89 91 93 95 97 99 101 103 105 107 109 111 113 115 117 119 121 123 125 127 129 131 133 135 137 139 141 143 145 147 149 151 153 155 157 159 161 163 165 167 169 171 173 175 177 179 181 183 185 187 189 191 193 195 197 199 201 203 205 207 209 211 213 215 217 219 221 223 225 227 229 0
-234 1 3 5 7 9 11 13 15 17 19 21 23 25 27 29 31 33 35 37 39 41 43 45 47 49 51 53 55 57 59 61 63 65 67 69 71 73 75 77 79 81 83 85 87 89 91 93 95 97 99 101 103 105 107 109 111 113 115 117 119 121 123 125 127 129 131 133 135 137 139 141 143 145 147 149 151 153 155 157 159 161 163 165 167 169 171 173 175 177 179 181 183 185 187 189 191 193 195 197 199 201 203 205 207 209 211 213 215 217 219 221 223 225 227 229 231 0
-236 1 3 5 7 9 11 13 15 17 19 21 23 25 27 29 31 33 35 37 39 41 43 45 47 49 51 53 55 57 59 61 63 65 67 69 71 73 75 77 79 81 83 85 87 89 91 93 95 97 99 101 103 105 107 109 111 113 115 117 119 121 123 125 127 129 131 133 135 137 139 141 143 145 147 149 151 153 155 157 159 161 163 165 167 169 171 173 175 177 179 181 183 185 187 189 191 193 195 197 199 201 203 205 207 209 211 213 215 217 219 221 223 225 227 229 231 233 0
-238 1 3 5 7 9 11 13 15 17 19 21 23 25 27 29 31 33 35 37 39 41 43 45 47 49 51 53 55 57 59 61 63 65 67 69 71 73 75 77 79 81 83 85 87 89 91 93 95 97 99 101 103 105 107 109 111 113 115 117 119 121 123 125 127 129 131 133 135 137 139 141 143 145 147 149 151 153 155 157 159 161 163 165 167 169 171 173 175 177 179 181 183 185 187 189 191 193 195 197 199 201 203 205 207 209 211 213 215 217 219 221 223 225 227 229 231 233 235 0
-240 1 3 5 7 9 11 13 15 17 19 21 23 25 27 29 31 33 35 37 39 41 43 45 47 49 51 53 55 57 59 61 63 65 67 69 71 73 75 77 79 81 83 85 87 89 91 93 95 97 99 101 103 105 107 109 111 113 115 117 119 121 123 125 127 129 131 133 135 137 139 141 143 145 147 149 151 153 155 157 159 161 163 165 167 169 171 173 175 177 179 181 183 185 187 189 191 193 195 197 199 201 203 205 207 209 211 213 215 217 219 221 223 225 227 229 231 233 235 237 0
-242 1 3 5 7 9 11 13 15 17 19 21 23 25 27 29 31 33 35 37 39 41 43 45 47 49 51 53 55 57 59 61 63 65 67 69 71 73 75 77 79 81 83 85 87 89 91 93 95 97 99 101 103 105 107 109 111 113 115 117 119 121 123 125 127 129 131 133 135 137 139 141 143 145 147 149 151 153 155 157 159 161 163 165 167 169 171 173 175 177 179 181 183 185 187 189 191 193 195 197 199 201 203 205 207 209 211 213 215 217 219 221 223 225 227 229 231 233 235 237 239 0
-244 1 3 5 7 9 11 13 15 17 19 21 23 25 27 29 31 33 35 37 39 41 43 45 47 49 51 53 55 57 59 61 63 65 67 69 71 73 75 77 79 81 83 85 87 89 91 93 95 97 99 101 103 105 107 109 111 113 115 117 119 121 123 125 127 129 131 133 135 137 139 141 143 145 147 149 151 153 155 157 159 161 163 165 167 169 171 173 175 177 179 181 183 185 187 189 191 193 195 197 199 201 203 205 207 209 211 213 215 217 219 221 223 225 227 229 231 233 235 237 239 241 0
-246 1 3 5 7 9 11 13 15 17 19 21 23 25 27 29 31 33 35 37 39 41 43 45 47 49 51 53 55 57 59 61 63 65 67 69 71 73 75 77 79 81 83 85 87 89 91 93 95 97 99 101 103 105 107 109 111 113 115 117 119 121 123 125 127 129 131 133 135 137 139 141 143 145 147 149 151 153 155 157 159 161 163 165 167 169 171 173 175 177 179 181 183 185 187 189 191 193 195 197 199 201 203 205 207 209 211 213 215 217 219 221 223 225 227 229 231 233 235 237 239 241 243 0
-248 1 3 5 7 9 11 13 15 17 19 21 23 25 27 29 31 33 35 37 39 41 43 45 47 49 51 53 55 57 59 61 63 65 67 69 71 73 75 77 79 81 83 85 87 89 91 93 95 97 99 101 103 105 107 109 111 113 115 117 119 121 123 125 127 129 131 133 135 137 139 141 143 145 147 149 151 153 155 157 159 161 163 165 167 169 171 173 175 177 179 181 183 185 187 189 191 193 195 197 199 201 203 205 207 209 211 213 215 217 219 221 223 225 227 229 231 233 235 237 239 241 243 245 0
-250 1 3 5 7 9 11 13 15 17 19 21 23 25 27 29 31 33 35 37 39 41 43 45 47 49 51 53 55 57 59 61 63 65 67 69 71 73 75 77 79 81 83 85 87 89 91 93 95 97 99 101 103 105 107 109 111 113 115 117 119 121 123 125 127 129 131 133 135 137 139 141 143 145 147 149 151 153 155 157 159 161 163 165 167 169 171 173 175 177 179 181 183 185 187 189 191 193 195 197 199 201 203 205 207 209 211 213 215 217 219 221 223 225 227 229 231 233 235 237 239 241 243 245 247 0
-252 1 3 5 7 9 11 13 15 17 19 21 23 25 27 29 31 33 35 37 39 41 43 45 47 49 51 53 55 57 59 61 63 65 67 69 71 73 75 77 79 81 83 85 87 89 91 93 95 97 99 101 103 105 107 109 111 113 115 117 119 121 123 125 127 129 131 133 135 137 139 141 143 145 147 149 151 153 155 157 159 161 163 165 167 169 171 173 175 177 179 181 183 185 187 189 191 193 195 197 199 201 203 205 207 209 211 213 215 217 219 221 223 225 227 229 231 233 235 237 239 241 243 245 247 249 0
-254 1 3 5 7 9 11 13 15 17 19 21 23 25 27 29 31 33 35 37 39 41 43 45 47 49 51 53 55 57 59 61 63 65 67 69 71 73 75 77 79 81 83 85 87 89 91 93 95 97 99 101 103 105 107 109 111 113 115 117 119 121 123 125 127 129 131 133 135 137 139 141 143 145 147 149 151 153 155 157 159 161 163 165 167 169 171 173 175 177 179 181 183 185 187 189 191 193 195 197 199 201 203 205 207 209 211 213 215 217 219 221 223 225 227 229 231 233 235 237 239 241 243 245 247 249 251 0
-256 1 3 5 7 9 11 13 15 17 19 21 23 25 27 29 31 33 35 37 39 41 43 45 47 49 51 53 55 57 59 61 63 65 67 69 71 73 75 77 79 81 83 85 87 89 91 93 95 97 99 101 103 105 107 109 111 113 115 117 119 121 123 125 127 129 131 133 135 137 139 141 143 145 147 149 151 153 155 157 159 161 163 165 167 169 171 173 175 177 179 181 183 185 187 189 191 193 195 197 199 201 203 205 207 209 211 213 215 217 219 221 223 225 227 229 231 233 235 237 239 241 243 245 247 249 251 253 0
-258 1 3 5 7 9 11 13 15 17 19 21 23 25 27 29 31 33 35 37 39 41 43 45 47 49 51 53 55 57 59 61 63 65 67 69 71 73 75 77 79 81 83 85 87 89 91 93 95 97 99 101 103 105 107 109 111 113 115 117 119 121 123 125 127 129 131 133 135 137 139 141 143 145 147 149 151 153 155 157 159 161 163 165 167 169 171 173 175 177 179 181 183 185 187 189 191 193 195 197 199 201 203 205 207 209 211 213 215 217 219 221 223 225 227 229 231 233 235 237 239 241 243 245 247 249 251 253 255 0
-260 1 3 5 7 9 11 13 15 17 19 21 23 25 27 29 31 33 35 37 39 41 43 45 47 49 51 53 55 57 59 61 63 65 67 69 71 73 75 77 79 81 83 85 87 89 91 93 95 97 99 101 103 105 107 109 111 113 115 117 119 121 123 125 127 129 131 133 135 137 139 141 143 145 147 149 151 153 155 157 159 161 163 165 167 169 171 173 175 177 179 181 183 185 187 189 191 193 195 197 199 201 203 205 207 209 211 213 215 217 219 221 223 225 227 229 231 233 235 237 239 241 243 245 247 249 251 253 255 257 0
-262 1 3 5 7 9 11 13 15 17 19 21 23 25 27 29 31 33 35 37 39 41 43 45 47 49 51 53 55 57 59 61 63 65 67 69 71 73 75 77 79 81 83 85 87 89 91 93 95 97 99 101 103 105 107 109 111 113 115 117 119 121 123 125 127 129 131 133 135 137 139 141 143 145 147 149 151 153 155 157 159 161 163 165 167 169 171 173 175 177 179 181 183 185 187 189 191 193 195 197 199 201 203 205 207 209 211 213 215 217 219 221 223 225 227 229 231 233 235 237 239 241 243 245 247 249 251 253 255 257 259 0
-264 1 3 5 7 9 11 13 15 17 19 21 23 25 27 29 31 33 35 37 39 41 43 45 47 49 51 53 55 57 59 61 63 65 67 69 71 73 75 77 79 81 83 85 87 89 91 93 95 97 99 101 103 105 107 109 111 113 115 117 119 121 123 125 127 129 131 133 135 137 139 141 143 145 147 149 151 153 155 157 159 161 163 165 167 169 171 173 175 177 179 181 183 185 187 189 191 193 195 197 199 201 203 205 207 209 211 213 215 217 219 221 223 225 227 229 231 233 235 237 239 241 243 245 247 249 251 253 255 257 259 261 0
-266 1 3 5 7 9 11 13 15 17 19 21 23 25 27 29 31 33 35 37 39 41 43 45 47 49 51 53 55 57 59 61 63 65 67 69 71 73 75 77 79 81 83 85 87 89 91 93 95 97 99 101 103 105 107 109 111 113 115 117 119 121 123 125 127 129 131 133 135 137 139 141 143 145 147 149 151 153 155 157 159 161 163 165 167 169 171 173 175 177 179 181 183 185 187 189 191 193 195 197 199 201 203 205 207 209 211 213 215 217 219 221 223 225 227 229 231 233 235 237 239 241 243 245 247 249 251 253 255 257 259 261 263 0
-268 1 3 5 7 9 11 13 15 17 19 21 23 25 27 29 31 33 35 37 39 41 43 45 47 49 51 53 55 57 59 61 63 65 67 69 71 73 75 77 79 81 83 85 87 89 91 93 95 97 99 101 103 105 107 109 111 113 115 117 119 121 123 125 127 129 131 133 135 137 139 141 143 145 147 149 151 153 155 157 159 161 163 165 167 169 171 173 175 177 179 181 183 185 187 189 191 193 195 197 199 201 203 205 207 209 211 213 215 217 219 221 223 225 227 229 231 233 235 237 239 241 243 245 247 249 251 253 255 257 259 261 263 265 0
-270 1 3 5 7 9 11 13 15 17 19 21 23 25 27 29 31 33 35 37 39 41 43 45 47 49 51 53 55 57 59 61 63 65 67 69 71 73 75 77 79 81 83 85 87 89 91 93 95 97 99 101 103 105 107 109 111 113 115 117 119 121 123 125 127 129 131 133 135 137 139 141 143 145 147 149 151 153 155 157 159 161 163 165 167 169 171 173 175 177 179 181 183 185 187 189 191 193 195 197 199 201 203 205 207 209 211 213 215 217 219 221 223 225 227 229 231 233 235 237 239 241 243 245 247 249 251 253 255 257 259 261 263 265 267 0
-272 1 3 5 7 9 11 13 15 17 19 21 23 25 27 29 31 33 35 37 39 41 43 45 47 49 51 53 55 57 59 61 63 65 67 69 71 73 75 77 79 81 83 85 87 89 91 93 95 97 99 101 103 105 107 109 111 113 115 117 119 121 123 125 127 129 131 133 135 137 139 141 143 145 147 149 151 153 155 157 159 161 163 165 167 169 171 173 175 177 179 181 183 185 187 189 191 193 195 197 199 201 203 205 207 209 211 213 215 217 219 221 223 225 227 229 231 233 235 237 239 241 243 245 247 249 251 253 255 257 259 261 263 265 267 269 0
-274 1 3 5 7 9 11 13 15 17 19 21 23 25 27 29 31 33 35 37 39 41 43 45 47 49 51 53 55 57 59 61 63 65 67 69 71 73 75 77 79 81 83 85 87 89 91 93 95 97 99 101 103 105 107 109 111 113 115 117 119 121 123 125 127 129 131 133 135 137 139 141 143 145 147 149 151 153 155 157 159 161 163 165 167 169 171 173 175 177 179 181 183 185 187 189 191 193 195 197 199 201 203 205 207 209 211 213 215 217 219 221 223 225 227 229 231 233 235 237 239 241 243 245 247 249 251 253 255 257 259 261 263 265 267 269 271 0
-276 1 3 5 7 9 11 13 15 17 19 21 23 25 27 29 31 33 35 37 39 41 43 45 47 49 51 53 55 57 59 61 63 65 67 69 71 73 75 77 79 81 83 85 87 89 91 93 95 97 99 101 103 105 107 109 111 113 115 117 119 121 123 125 127 129 131 133 135 137 139 141 143 145 147 149 151 153 155 157 159 161 163 165 167 169 171 173 175 177 179 181 183 185 187 189 191 193 195 197 199 201 203 205 207 209 211 213 215 217 219 221 223 225 227 229 231 233 235 237 239 241 243 245 247 249 251 253 255 257 259 261 263 265 267 269 271 273 0
-278 1 3 5 7 9 11 13 15 17 19 21 23 25 27 29 31 33 35 37 39 41 43 45 47 49 51 53 55 57 59 61 63 65 67 69 71 73 75 77 79 81 83 85 87 89 91 93 95 97 99 101 103 105 107 109 111 113 115 117 119 121 123 125 127 129 131 133 135 137 139 141 143 145 147 149 151 153 155 157 159 161 163 165 167 169 171 173 175 177 179 181 183 185 187 189 191 193 195 197 199 201 203 205 207 209 211 213 215 217 219 221 223 225 227 229 231 233 235 237 239 241 243 245 247 249 251 253 255 257 259 261 263 265 267 269 271 273 275 0
-280 1 3 5 7 9 11 13 15 17 19 21 23 25 27 29 31 33 35 37 39 41 43 45 47 49 51 53 55 57 59 61 63 65 67 69 71 73 75 77 79 81 83 85 87 89 91 93 95 97 99 101 103 105 107 109 111 113 115 117 119 121 123 125 127 129 131 133 135 137 139 141 143 145 147 149 151 153 155 157 159 161 163 165 167 169 171 173 175 177 179 181 183 185 187 189 191 193 195 197 199 201 203 205 207 209 211 213 215 217 219 221 223 225 227 229 231 233 235 237 239 241 243 245 247 249 251 253 255 257 259 261 263 265 267 269 271 273 275 277 0
-282 1 3 5 7 9 11 13 15 17 19 21 23 25 27 29 31 33 35 37 39 41 43 45 47 49 51 53 55 57 59 61 63 65 67 69 71 73 75 77 79 81 83 85 87 89 91 93 95 97 99 101 103 105 107 109 111 113 115 117 119 121 123 125 127 129 131 133 135 137 139 141 143 145 147 149 151 153 155 157 159 161 163 165 167 169 171 173 175 177 179 181 183 185 187 189 191 193 195 197 199 201 203 205 207 209 211 213 215 217 219 221 223 225 227 229 231 233 235 237 239 241 243 245 247 249 251 253 255 257 259 261 263 265 267 269 271 273 275 277 279 0
-284 1 3 5 7 9 11 13 15 17 19 21 23 25 27 29 31 33 35 37 39 41 43 45 47 49 51 53 55 57 59 61 63 65 67 69 71 73 75 77 79 81 83 85 87 89 91 93 95 97 99 101 103 105 107 109 111 113 115 117 119 121 123 125 127 129 131 133 135 137 139 141 143 145 147 149 151 153 155 157 159 161 163 165 167 169 171 173 175 177 179 181 183 185 187 189 191 193 195 197 199 201 203 205 207 209 211 213 215 217 219 221 223 225 227 229 231 233 235 237 239 241 243 245 247 249 251 253 255 257 259 261 263 265 267 269 271 273 275 277 279 281 0
-286 1 3 5 7 9 11 13 15 17 19 21 23 25 27 29 31 33 35 37 39 41 43 45 47 49 51 53 55 57 59 61 63 65 67 69 71 73 75 77 79 81 83 85 87 89 91 93 95 97 99 101 103 105 107 109 111 113 115 117 119 121 123 125 127 129 131 133 135 137 139 141 143 145 147 149 151 153 155 157 159 161 163 165 167 169 171 173 175 177 179 181 183 185 187 189 191 193 195 197 199 201 203 205 207 209 211 213 215 217 219 221 223 225 227 229 231 233 235 237 239 241 243 245 247 249 251 253 255 257 259 261 263 265 267 269 271 273 275 277 279 281 283 0
-288 1 3 5 7 9 11 13 15 17 19 21 23 25 27 29 31 33 35 37 39 41 43 45 47 49 51 53 55 57 59 61 63 65 67 69 71 73 75 77 79 81 83 85 87 89 91 93 95 97 99 101 103 105 107 109 111 113 115 117 119 121 123 125 127 129 131 133 135 137 139 141 143 145 147 149 151 153 155 157 159 161 163 165 167 169 171 173 175 177 179 181 183 185 187 189 191 193 195 197 199 201 203 205 207 209 211 213 215 217 219 221 223 225 227 229 231 233 235 237 239 241 243 245 247 249 251 253 255 257 259 261 263 265 267 269 271 273 275 277 279 281 283 285 0
-290 1 3 5 7 9 11 13 15 17 19 21 23 25 27 29 31 33 35 37 39 41 43 45 47 49 51 53 55 57 59 61 63 65 67 69 71 73 75 77 79 81 83 85 87 89 91 93 95 97 99 101 103 105 107 109 111 113 115 117 119 121 123 125 127 129 131 133 135 137 139 141 143 145 147 149 151 153 155 157 159 161 163 165 167 169 171 173 175 177 179 181 183 185 187 189 191 193 195 197 199 201 203 205 207 209 211 213 215 217 219 221 223 225 227 229 231 233 235 237 239 241 243 245 247 249 251 253 255 257 259 261 263 265 267 269 271 273 275 277 279 281 283 285 287 0
-292 1 3 5 7 9 11 13 15 17 19 21 23 25 27 29 31 33 35 37 39 41 43 45 47 49 51 53 55 57 59 61 63 65 67 69 71 73 75 77 79 81 83 85 87 89 91 93 95 97 99 101 103 105 107 109 111 113 115 117 119 121 123 125 127 129 131 133 135 137 139 141 143 145 147 149 151 153 155 157 159 161 163 165 167 169 171 173 175 177 179 181 183 185 187 189 191 193 195 197 199 201 203 205 207 209 211 213 215 217 219 221 223 225 227 229 231 233 235 237 239 241 243 245 247 249 251 253 255 257 259 261 263 265 267 269 271 273 275 277 279 281 283 285 287 289 0
-294 1 3 5 7 9 11 13 15 17 19 21 23 25 27 29 31 33 35 37 39 41 43 45 47 49 51 53 55 57 59 61 63 65 67 69 71 73 75 77 79 81 83 85 87 89 91 93 95 97 99 101 103 105 107 109 111 113 115 117 119 121 123 125 127 129 131 133 135 137 139 141 143 145 147 149 151 153 155 157 159 161 163 165 167 169 171 173 175 177 179 181 183 185 187 189 191 193 195 197 199 201 203 205 207 209 211 213 215 217 219 221 223 225 227 229 231 233 235 237 239 241 243 245 247 249 251 253 255 257 259 261 263 265 267 269 271 273 275 277 279 281 283 285 287 289 291 0
-296 1 3 5 7 9 11 13 15 17 19 21 23 25 27 29 31 33 35 37 39 41 43 45 47 49 51 53 55 57 59 61 63 65 67 69 71 73 75 77 79 81 83 85 87 89 91 93 95 97 99 101 103 105 107 109 111 113 115 117 119 121 123 125 127 129 131 133 135 137 139 141 143 145 147 149 151 153 155 157 159 161 163 165 167 169 171 173 175 177 179 181 183 185 187 189 191 193 195 197 199 201 203 205 207 209 211 213 215 217 219 221 223 225 227 229 231 233 235 237 239 241 243 245 247 249 251 253 255 257 259 261 263 265 267 269 271 273 275 277 279 281 283 285 287 289 291 293 0
-298 1 3 5 7 9 11 13 15 17 19 21 23 25 27 29 31 33 35 37 39 41 43 45 47 49 51 53 55 57 59 61 63 65 67 69 71 73 75 77 79 81 83 85 87 89 91 93 95 97 99 101 103 105 107 109 111 113 115 117 119 121 123 125 127 129 131 133 135 137 139 141 143 145 147 149 151 153 155 157 159 161 163 165 167 169 171 173 175 177 179 181 183 185 187 189 191 193 195 197 199 201 203 205 207 209 211 213 215 217 219 221 223 225 227 229 231 233 235 237 239 241 243 245 247 249 251 253 255 257 259 261 263 265 267 269 271 273 275 277 279 281 283 285 287 289 291 293 295 0
-300 1 3 5 7 9 11 13 15 17 19 21 23 25 27 29 31 33 35 37 39 41 43 45 47 49 51 53 55 57 59 61 63 65 67 69 71 73 75 77 79 81 83 85 87 89 91 93 95 97 99 101 103 105 107 109 111 113 115 117 119 121 123 125 127 129 131 133 135 137 139 141 143 145 147 149 151 153 155 157 159 161 163 165 167 169 171 173 175 177 179 181 183 185 187 189 191 193 195 197 199 201 203 205 207 209 211 213 215 217 219 221 223 225 227 229 231 233 235 237 239 241 243 245 247 249 251 253 255 257 259 261 263 265 267 269 271 273 275 277 279 281 283 285 287 289 291 293 295 297 0
-302 1 3 5 7 9 11 13 15 17 19 21 23 25 27 29 31 33 35 37 39 41 43 45 47 49 51 53 55 57 59 61 63 65 67 69 71 73 75 77 79 81 83 85 87 89 91 93 95 97 99 101 103 105 107 109 111 113 115 117 119 121 123 125 127 129 131 133 135 137 139 141 143 145 147 149 151 153 155 157 159 161 163 165 167 169 171 173 175 177 179 181 183 185 187 189 191 193 195 197 199 201 203 205 207 209 211 213 215 217 219 221 223 225 227 229 231 233 235 237 239 241 243 245 247 249 251 253 255 257 259 261 263 265 267 269 271 273 275 277 279 281 283 285 287 289 291 293 295 297 299 0
-304 1 3 5 7 9 11 13 15 17 19 21 23 25 27 29 31 33 35 37 39 41 43 45 47 49 51 53 55 57 59 61 63 65 67 69 71 73 75 77 79 81 83 85 87 89 91 93 95 97 99 101 103 105 107 109 111 113 115 117 119 121 123 125 127 129 131 133 135 137 139 141 143 145 147 149 151 153 155 157 159 161 163 165 167 169 171 173 175 177 179 181 183 185 187 189 191 193 195 197 199 201 203 205 207 209 211 213 215 217 219 221 223 225 227 229 231 233 235 237 239 241 243 245 247 249 251 253 255 257 259 261 263 265 267 269 271 273 275 277 279 281 283 285 287 289 291 293 295 297 299 301 0
-306 1 3 5 7 9 11 13 15 17 19 21 23 25 27 29 31 33 35 37 39 41 43 45 47 49 51 53 55 57 59 61 63 65 67 69 71 73 75 77 79 81 83 85 87 89 91 93 95 97 99 101 103 105 107 109 111 113 115 117 119 121 123 125 127 129 131 133 135 137 139 141 143 145 147 149 151 153 155 157 159 161 163 165 167 169 171 173 175 177 179 181 183 185 187 189 191 193 195 197 199 201 203 205 207 209 211 213 215 217 219 221 223 225 227 229 231 233 235 237 239 241 243 245 247 249 251 253 255 257 259 261 263 265 267 269 271 273 275 277 279 281 283 285 287 289 291 293 295 297 299 301 303 0
-308 1 3 5 7 9 11 13 15 17 19 21 23 25 27 29 31 33 35 37 39 41 43 45 47 49 51 53 55 57 59 61 63 65 67 69 71 73 75 77 79 81 83 85 87 89 91 93 95 97 99 101 103 105 107 109 111 113 115 117 119 121 123 125 127 129 131 133 135 137 139 141 143 145 147 149 151 153 155 157 159 161 163 165 167 169 171 173 175 177 179 181 183 185 187 189 191 193 195 197 199 201 203 205 207 209 211 213 215 217 219 221 223 225 227 229 231 233 235 237 239 241 243 245 247 249 251 253 255 257 259 261 263 265 267 269 271 273 275 277 279 281 283 285 287 289 291 293 295 297 299 301 303 305 0
-310 1 3 5 7 9 11 13 15 17 19 21 23 25 27 29 31 33 35 37 39 41 43 45 47 49 51 53 55 57 59 61 63 65 67 69 71 73 75 77 79 81 83 85 87 89 91 93 95 97 99 101 103 105 107 109 111 113 115 117 119 121 123 125 127 129 131 133 135 137 139 141 143 145 147 149 151 153 155 157 159 161 163 165 167 169 171 173 175 177 179 181 183 185 187 189 191 193 195 197 199 201 203 205 207 209 211 213 215 217 219 221 223 225 227 229 231 233 235 237 239 241 243 245 247 249 251 253 255 257 259 261 263 265 267 269 271 273 275 277 279 281 283 285 287 289 291 293 295 297 299 301 303 305 307 0
-312 1 3 5 7 9 11 13 15 17 19 21 23 25 27 29 31 33 35 37 39 41 43 45 47 49 51 53 55 57 59 61 63 65 67 69 71 73 75 77 79 81 83 85 87 89 91 93 95 97 99 101 103 105 107 109 111 113 115 117 119 121 123 125 127 129 131 133 135 137 139 141 143 145 147 149 151 153 155 157 159 161 163 165 167 169 171 173 175 177 179 181 183 185 187 189 191 193 195 197 199 201 203 205 207 209 211 213 215 217 219 221 223 225 227 229 231 233 235 237 239 241 243 245 247 249 251 253 255 257 259 261 263 265 267 269 271 273 275 277 279 281 283 285 287 289 291 293 295 297 299 301 303 305 307 309 0
-314 1 3 5 7 9 11 13 15 17 19 21 23 25 27 29 31 33 35 37 39 41 43 45 47 49 51 53 55 57 59 61 63 65 67 69 71 73 75 77 79 81 83 85 87 89 91 93 95 97 99 101 103 105 107 109 111 113 115 117 119 121 123 125 127 129 131 133 135 137 139 141 143 145 147 149 151 153 155 157 159 161 163 165 167 169 171 173 175 177 179 181 183 185 187 189 191 193 195 197 199 201 203 205 207 209 211 213 215 217 219 221 223 225 227 229 231 233 235 237 239 241 243 245 247 249 251 253 255 257 259 261 263 265 267 269 271 273 275 277 279 281 283 285 287 289 291 293 295 297 299 301 303 305 307 309 311 0
-316 1 3 5 7 9 11 13 15 17 19 21 23 25 27 29 31 33 35 37 39 41 43 45 47 49 51 53 55 57 59 61 63 65 67 69 71 73 75 77 79 81 83 85 87 89 91 93 95 97 99 101 103 105 107 109 111 113 115 117 119 121 123 125 127 129 131 133 135 137 139 141 143 145 147 149 151 153 155 157 159 161 163 165 167 169 171 173 175 177 179 181 183 185 187 189 191 193 195 197 199 201 203 205 207 209 211 213 215 217 219 221 223 225 227 229 231 233 235 237 239 241 243 245 247 249 251 253 255 257 259 261 263 265 267 269 271 273 275 277 279 281 283 285 287 289 291 293 295 297 299 301 303 305 307 309 311 313 0
-318 1 3 5 7 9 11 13 15 17 19 21 23 25 27 29 31 33 35 37 39 41 43 45 47 49 51 53 55 57 59 61 63 65 67 69 71 73 75 77 79 81 83 85 87 89 91 93 95 97 99 101 103 105 107 109 111 113 115 117 119 121 123 125 127 129 131 133 135 137 139 141 143 145 147 149 151 153 155 157 159 161 163 165 167 169 171 173 175 177 179 181 183 185 187 189 191 193 195 197 199 201 203 205 207 209 211 213 215 217 219 221 223 225 227 229 231 233 235 237 239 241 243 245 247 249 251 253 255 257 259 261 263 265 267 269 271 273 275 277 279 281 283 285 287 289 291 293 295 297 299 301 303 305 307 309 311 313 315 0
-320 1 3 5 7 9 11 13 15 17 19 21 23 25 27 29 31 33 35 37 39 41 43 45 47 49 51 53 55 57 59 61 63 65 67 69 71 73 75 77 79 81 83 85 87 89 91 93 95 97 99 101 103 105 107 109 111 113 115 117 119 121 123 125 127 129 131 133 135 137 139 141 143 145 147 149 151 153 155 157 159 161 163 165 167 169 171 173 175 177 179 181 183 185 187 189 191 193 195 197 199 201 203 205 207 209 211 213 215 217 219 221 223 225 227 229 231 233 235 237 239 241 243 245 247 249 251 253 255 257 259 261 263 265 267 269 271 273 275 277 279 281 283 285 287 289 291 293 295 297 299 301 303 305 307 309 311 313 315 317 0
-322 1 3 5 7 9 11 13 15 17 19 21 23 25 27 29 31 33 35 37 39 41 43 45 47 49 51 53 55 57 59 61 63 65 67 69 71 73 75 77 79 81 83 85 87 89 91 93 95 97 99 101 103 105 107 109 111 113 115 117 119 121 123 125 127 129 131 133 135 137 139 141 143 145 147 149 151 153 155 157 159 161 163 165 167 169 171 173 175 177 179 181 183 185 187 189 191 193 195 197 199 201 203 205 207 209 211 213 215 217 219 221 223 225 227 229 231 233 235 237 239 241 243 245 247 249 251 253 255 257 259 261 263 265 267 269 271 273 275 277 279 281 283 285 287 289 291 293 295 297 299 301 303 305 307 309 311 313 315 317 319 0
-324 1 3 5 7 9 11 13 15 17 19 21 23 25 27 29 31 33 35 37 39 41 43 45 47 49 51 53 55 57 59 61 63 65 67 69 71 73 75 77 79 81 83 85 87 89 91 93 95 97 99 101 103 105 107 109 111 113 115 117 119 121 123 125 127 129 131 133 135 137 139 141 143 145 147 149 151 153 155 157 159 161 163 165 167 169 171 173 175 177 179 181 183 185 187 189 191 193 195 197 199 201 203 205 207 209 211 213 215 217 219 221 223 225 227 229 231 233 235 237 239 241 243 245 247 249 251 253 255 257 259 261 263 265 267 269 271 273 275 277 279 281 283 285 287 289 291 293 295 297 299 301 303 305 307 309 311 313 315 317 319 321 0
-326 1 3 5 7 9 11 13 15 17 19 21 23 25 27 29 31 33 35 37 39 41 43 45 47 49 51 53 55 57 59 61 63 65 67 69 71 73 75 77 79 81 83 85 87 89 91 93 95 97 99 101 103 105 107 109 111 113 115 117 119 121 123 125 127 129 131 133 135 137 139 141 143 145 147 149 151 153 155 157 159 161 163 165 167 169 171 173 175 177 179 181 183 185 187 189 191 193 195 197 199 201 203 205 207 209 211 213 215 217 219 221 223 225 227 229 231 233 235 237 239 241 243 245 247 249 251 253 255 257 259 261 263 265 267 269 271 273 275 277 279 281 283 285 287 289 291 293 295 297 299 301 303 305 307 309 311 313 315 317 319 321 323 0
-328 1 3 5 7 9 11 13 15 17 19 21 23 25 27 29 31 33 35 37 39 41 43 45 47 49 51 53 55 57 59 61 63 65 67 69 71 73 75 77 79 81 83 85 87 89 91 93 95 97 99 101 103 105 107 109 111 113 115 117 119 121 123 125 127 129 131 133 135 137 139 141 143 145 147 149 151 153 155 157 159 161 163 165 167 169 171 173 175 177 179 181 183 185 187 189 191 193 195 197 199 201 203 205 207 209 211 213 215 217 219 221 223 225 227 229 231 233 235 237 239 241 243 245 247 249 251 253 255 257 259 261 263 265 267 269 271 273 275 277 279 281 283 285 287 289 291 293 295 297 299 301 303 305 307 309 311 313 315 317 319 321 323 325 0
-330 1 3 5 7 9 11 13 15 17 19 21 23 25 27 29 31 33 35 37 39 41 43 45 47 49 51 53 55 57 59 61 63 65 67 69 71 73 75 77 79 81 83 85 87 89 91 93 95 97 99 101 103 105 107 109 111 113 115 117 119 121 123 125 127 129 131 133 135 137 139 141 143 145 147 149 151 153 155 157 159 161 163 165 167 169 171 173 175 177 179 181 183 185 187 189 191 193 195 197 199 201 203 205 207 209 211 213 215 217 219 221 223 225 227 229 231 233 235 237 239 241 243 245 247 249 251 253 255 257 259 261 263 265 267 269 271 273 275 277 279 281 283 285 287 289 291 293 295 297 299 301 303 305 307 309 311 313 315 317 319 321 323 325 327 0
-332 1 3 5 7 9 11 13 15 17 19 21 23 25 27 29 31 33 35 37 39 41 43 45 47 49 51 53 55 57 59 61 63 65 67 69 71 73 75 77 79 81 83 85 87 89 91 93 95 97 99 101 103 105 107 109 111 113 115 117 119 121 123 125 127 129 131 133 135 137 139 141 143 145 147 149 151 153 155 157 159 161 163 165 167 169 171 173 175 177 179 181 183 185 187 189 191 193 195 197 199 201 203 205 207 209 211 213 215 217 219 221 223 225 227 229 231 233 235 237 239 241 243 245 247 249 251 253 255 257 259 261 263 265 267 269 271 273 275 277 279 281 283 285 287 289 291 293 295 297 299 301 303 305 307 309 311 313 315 317 319 321 323 325 327 329 0
-334 1 3 5 7 9 11 13 15 17 19 21 23 25 27 29 31 33 35 37 39 41 43 45 47 49 51 53 55 57 59 61 63 65 67 69 71 73 75 77 79 81 83 85 87 89 91 93 95 97 99 101 103 105 107 109 111 113 115 117 119 121 123 125 127 129 131 133 135 137 139 141 143 145 147 149 151 153 155 157 159 161 163 165 167 169 171 173 175 177 179 181 183 185 187 189 191 193 195 197 199 201 203 205 207 209 211 213 215 217 219 221 223 225 227 229 231 233 235 237 239 241 243 245 247 249 251 253 255 257 259 261 263 265 267 269 271 273 275 277 279 281 283 285 287 289 291 293 295 297 299 301 303 305 307 309 311 313 315 317 319 321 323 325 327 329 331 0
-336 1 3 5 7 9 11 13 15 17 19 21 23 25 27 29 31 33 35 37 39 41 43 45 47 49 51 53 55 57 59 61 63 65 67 69 71 73 75 77 79 81 83 85 87 89 91 93 95 97 99 101 103 105 107 109 111 113 115 117 119 121 123 125 127 129 131 133 135 137 139 141 143 145 147 149 151 153 155 157 159 161 163 165 167 169 171 173 175 177 179 181 183 185 187 189 191 193 195 197 199 201 203 205 207 209 211 213 215 217 219 221 223 225 227 229 231 233 235 237 239 241 243 245 247 249 251 253 255 257 259 261 263 265 267 269 271 273 275 277 279 281 283 285 287 289 291 293 295 297 299 301 303 305 307 309 311 313 315 317 319 321 323 325 327 329 331 333 0
-338 1 3 5 7 9 11 13 15 17 19 21 23 25 27 29 31 33 35 37 39 41 43 45 47 49 51 53 55 57 59 61 63 65 67 69 71 73 75 77 79 81 83 85 87 89 91 93 95 97 99 101 103 105 107 109 111 113 115 117 119 121 123 125 127 129 131 133 135 137 139 141 143 145 147 149 151 153 155 157 159 161 163 165 167 169 171 173 175 177 179 181 183 185 187 189 191 193 195 197 199 201 203 205 207 209 211 213 215 217 219 221 223 225 227 229 231 233 235 237 239 241 243 245 247 249 251 253 255 257 259 261 263 265 267 269 271 273 275 277 279 281 283 285 287 289 291 293 295 297 299 301 303 305 307 309 311 313 315 317 319 321 323 325 327 329 331 333 335 0
-340 1 3 5 7 9 11 13 15 17 19 21 23 25 27 29 31 33 35 37 39 41 43 45 47 49 51 53 55 57 59 61 63 65 67 69 71 73 75 77 79 81 83 85 87 89 91 93 95 97 99 101 103 105 107 109 111 113 115 117 119 121 123 125 127 129 131 133 135 137 139 141 143 145 147 149 151 153 155 157 159 161 163 165 167 169 171 173 175 177 179 181 183 185 187 189 191 193 195 197 199 201 203 205 207 209 211 213 215 217 219 221 223 225 227 229 231 233 235 237 239 241 243 245 247 249 251 253 255 257 259 261 263 265 267 269 271 273 275 277 279 281 283 285 287 289 291 293 295 297 299 301 303 305 307 309 311 313 315 317 319 321 323 325 327 329 331 333 335 337 0
-342 1 3 5 7 9 11 13 15 17 19 21 23 25 27 29 31 33 35 37 39 41 43 45 47 49 51 53 55 57 59 61 63 65 67 69 71 73 75 77 79 81 83 85 87 89 91 93 95 97 99 101 103 105 107 109 111 113 115 117 119 121 123 125 127 129 131 133 135 137 139 141 143 145 147 149 151 153 155 157 159 161 163 165 167 169 171 173 175 177 179 181 183 185 187 189 191 193 195 197 199 201 203 205 207 209 211 213 215 217 219 221 223 225 227 229 231 233 235 237 239 241 243 245 247 249 251 253 255 257 259 261 263 265 267 269 271 273 275 277 279 281 283 285 287 289 291 293 295 297 299 301 303 305 307 309 311 313 315 317 319 321 323 325 327 329 331 333 335 337 339 0
-344 1 3 5 7 9 11 13 15 17 19 21 23 25 27 29 31 33 35 37 39 41 43 45 47 49 51 53 55 57 59 61 63 65 67 69 71 73 75 77 79 81 83 85 87 89 91 93 95 97 99 101 103 105 107 109 111 113 115 117 119 121 123 125 127 129 131 133 135 137 139 141 143 145 147 149 151 153 155 157 159 161 163 165 167 169 171 173 175 177 179 181 183 185 187 189 191 193 195 197 199 201 203 205 207 209 211 213 215 217 219 221 223 225 227 229 231 233 235 237 239 241 243 245 247 249 251 253 255 257 259 261 263 265 267 269 271 273 275 277 279 281 283 285 287 289 291 293 295 297 299 301 303 305 307 309 311 313 315 317 319 321 323 325 327 329 331 333 335 337 339 341 0
-346 1 3 5 7 9 11 13 15 17 19 21 23 25 27 29 31 33 35 37 39 41 43 45 47 49 51 53 55 57 59 61 63 65 67 69 71 73 75 77 79 81 83 85 87 89 91 93 95 97 99 101 103 105 107 109 111 113 115 117 119 121 123 125 127 129 131 133 135 137 139 141 143 145 147 149 151 153 155 157 159 161 163 165 167 169 171 173 175 177 179 181 183 185 187 189 191 193 195 197 199 201 203 205 207 209 211 213 215 217 219 221 223 225 227 229 231 233 235 237 239 241 243 245 247 249 251 253 255 257 259 261 263 265 267 269 271 273 275 277 279 281 283 285 287 289 291 293 295 297 299 301 303 305 307 309 311 313 315 317 319 321 323 325 327 329 331 333 335 337 339 341 343 0
-348 1 3 5 7 9 11 13 15 17 19 21 23 25 27 29 31 33 35 37 39 41 43 45 47 49 51 53 55 57 59 61 63 65 67 69 71 73 75 77 79 81 83 85 87 89 91 93 95 97 99 101 103 105 107 109 111 113 115 117 119 121 123 125 127 129 131 133 135 137 139 141 143 145 147 149 151 153 155 157 159 161 163 165 167 169 171 173 175 177 179 181 183 185 187 189 191 193 195 197 199 201 203 205 207 209 211 213 215 217 219 221 223 225 227 229 231 233 235 237 239 241 243 245 247 249 251 253 255 257 259 261 263 265 267 269 271 273 275 277 279 281 283 285 287 289 291 293 295 297 299 301 303 305 307 309 311 313 315 317 319 321 323 325 327 329 331 333 335 337 339 341 343 345 0
-350 1 3 5 7 9 11 13 15 17 19 21 23 25 27 29 31 33 35 37 39 41 43 45 47 49 51 53 55 57 59 61 63 65 67 69 71 73 75 77 79 81 83 85 87 89 91 93 95 97 99 101 103 105 107 109 111 113 115 117 119 121 123 125 127 129 131 133 135 137 139 141 143 145 147 149 151 153 155 157 159 161 163 165 167 169 171 173 175 177 179 181 183 185 187 189 191 193 195 197 199 201 203 205 207 209 211 213 215 217 219 221 223 225 227 229 231 233 235 237 239 241 243 245 247 249 251 253 255 257 259 261 263 265 267 269 271 273 275 277 279 281 283 285 287 289 291 293 295 297 299 301 303 305 307 309 311 313 315 317 319 321 323 325 327 329 331 333 335 337 339 341 343 345 347 0
-352 1 3 5 7 9 11 13 15 17 19 21 23 25 27 29 31 33 35 37 39 41 43 45 47 49 51 53 55 57 59 61 63 65 67 69 71 73 75 77 79 81 83 85 87 89 91 93 95 97 99 101 103 105 107 109 111 113 115 117 119 121 123 125 127 129 131 133 135 137 139 141 143 145 147 149 151 153 155 157 159 161 163 165 167 169 171 173 175 177 179 181 183 185 187 189 191 193 195 197 199 201 203 205 207 209 211 213 215 217 219 221 223 225 227 229 231 233 235 237 239 241 243 245 247 249 251 253 255 257 259 261 263 265 267 269 271 273 275 277 279 281 283 285 287 289 291 293 295 297 299 301 303 305 307 309 311 313 315 317 319 321 323 325 327 329 331 333 335 337 339 341 343 345 347 349 0
-354 1 3 5 7 9 11 13 15 17 19 21 23 25 27 29 31 33 35 37 39 41 43 45 47 49 51 53 55 57 59 61 63 65 67 69 71 73 75 77 79 81 83 85 87 89 91 93 95 97 99 101 103 105 107 109 111 113 115 117 119 121 123 125 127 129 131 133 135 137 139 141 143 145 147 149 151 153 155 157 159 161 163 165 167 169 171 173 175 177 179 181 183 185 187 189 191 193 195 197 199 201 203 205 207 209 211 213 215 217 219 221 223 225 227 229 231 233 235 237 239 241 243 245 247 249 251 253 255 257 259 261 263 265 267 269 271 273 275 277 279 281 283 285 287 289 291 293 295 297 299 301 303 305 307 309 311 313 315 317 319 321 323 325 327 329 331 333 335 337 339 341 343 345 347 349 351 0
-356 1 3 5 7 9 11 13 15 17 19 21 23 25 27 29 31 33 35 37 39 41 43 45 47 49 51 53 55 57 59 61 63 65 67 69 71 73 75 77 79 81 83 85 87 89 91 93 95 97 99 101 103 105 107 109 111 113 115 117 119 121 123 125 127 129 131 133 135 137 139 141 143 145 147 149 151 153 155 157 159 161 163 165 167 169 171 173 175 177 179 181 183 185 187 189 191 193 195 197 199 201 203 205 207 209 211 213 215 217 219 221 223 225 227 229 231 233 235 237 239 241 243 245 247 249 251 253 255 257 259 261 263 265 267 269 271 273 275 277 279 281 283 285 287 289 291 293 295 297 299 301 303 305 307 309 311 313 315 317 319 321 323 325 327 329 331 333 335 337 339 341 343 345 347 349 351 353 0
