p cnf 219 2840
1 2 3 0
4 5 6 0
7 8 9 0
10 11 12 0
13 14 15 0
16 17 18 0
19 20 21 0
22 23 24 0
25 26 27 0
28 29 30 0
31 32 33 0
34 35 36 0
37 38 39 0
40 41 42 0
43 44 45 0
46 47 48 0
49 50 51 0
52 53 54 0
55 56 57 0
58 59 60 0
61 62 63 0
64 65 66 0
67 68 69 0
70 71 72 0
73 74 75 0
76 77 78 0
79 80 81 0
82 83 84 0
85 86 87 0
88 89 90 0
91 92 93 0
94 95 96 0
97 98 99 0
100 101 102 0
103 104 105 0
106 107 108 0
109 110 111 0
112 113 114 0
115 116 117 0
118 119 120 0
121 122 123 0
124 125 126 0
127 128 129 0
130 131 132 0
133 134 135 0
136 137 138 0
139 140 141 0
142 143 144 0
145 146 147 0
148 149 150 0
151 152 153 0
154 155 156 0
157 158 159 0
160 161 162 0
163 164 165 0
166 167 168 0
169 170 171 0
172 173 174 0
175 176 177 0
178 179 180 0
181 182 183 0
184 185 186 0
187 188 189 0
190 191 192 0
193 194 195 0
196 197 198 0
199 200 201 0
202 203 204 0
205 206 207 0
208 209 210 0
211 212 213 0
214 215 216 0
217 218 219 0
-1 -10 0
-2 -11 0
-3 -12 0
-4 -10 -13 0
-5 -11 -14 0
-6 -12 -15 0
-7 -10 -16 0
-8 -11 -17 0
-9 -12 -18 0
-10 -19 0
-11 -20 0
-12 -21 0
-10 -13 -22 0
-11 -14 -23 0
-12 -15 -24 0
-10 -16 -25 0
-11 -17 -26 0
-12 -18 -27 0
-10 -19 -28 0
-11 -20 -29 0
-12 -21 -30 0
-10 -22 -31 0
-11 -23 -32 0
-12 -24 -33 0
-10 -25 -34 0
-11 -26 -35 0
-12 -27 -36 0
-10 -28 -37 0
-11 -29 -38 0
-12 -30 -39 0
-10 -31 -40 0
-11 -32 -41 0
-12 -33 -42 0
-10 -34 -43 0
-11 -35 -44 0
-12 -36 -45 0
-10 -37 -46 0
-11 -38 -47 0
-12 -39 -48 0
-10 -40 -49 0
-11 -41 -50 0
-12 -42 -51 0
-10 -43 -52 0
-11 -44 -53 0
-12 -45 -54 0
-10 -46 -55 0
-11 -47 -56 0
-12 -48 -57 0
-10 -49 -58 0
-11 -50 -59 0
-12 -51 -60 0
-10 -52 -61 0
-11 -53 -62 0
-12 -54 -63 0
-10 -55 -64 0
-11 -56 -65 0
-12 -57 -66 0
-10 -58 -67 0
-11 -59 -68 0
-12 -60 -69 0
-10 -61 -70 0
-11 -62 -71 0
-12 -63 -72 0
-10 -64 -73 0
-11 -65 -74 0
-12 -66 -75 0
-10 -67 -76 0
-11 -68 -77 0
-12 -69 -78 0
-10 -70 -79 0
-11 -71 -80 0
-12 -72 -81 0
-10 -73 -82 0
-11 -74 -83 0
-12 -75 -84 0
-10 -76 -85 0
-11 -77 -86 0
-12 -78 -87 0
-10 -79 -88 0
-11 -80 -89 0
-12 -81 -90 0
-10 -82 -91 0
-11 -83 -92 0
-12 -84 -93 0
-10 -85 -94 0
-11 -86 -95 0
-12 -87 -96 0
-10 -88 -97 0
-11 -89 -98 0
-12 -90 -99 0
-10 -91 -100 0
-11 -92 -101 0
-12 -93 -102 0
-10 -94 -103 0
-11 -95 -104 0
-12 -96 -105 0
-10 -97 -106 0
-11 -98 -107 0
-12 -99 -108 0
-10 -100 -109 0
-11 -101 -110 0
-12 -102 -111 0
-10 -103 -112 0
-11 -104 -113 0
-12 -105 -114 0
-10 -106 -115 0
-11 -107 -116 0
-12 -108 -117 0
-10 -109 -118 0
-11 -110 -119 0
-12 -111 -120 0
-10 -112 -121 0
-11 -113 -122 0
-12 -114 -123 0
-10 -115 -124 0
-11 -116 -125 0
-12 -117 -126 0
-10 -118 -127 0
-11 -119 -128 0
-12 -120 -129 0
-10 -121 -130 0
-11 -122 -131 0
-12 -123 -132 0
-10 -124 -133 0
-11 -125 -134 0
-12 -126 -135 0
-10 -127 -136 0
-11 -128 -137 0
-12 -129 -138 0
-10 -130 -139 0
-11 -131 -140 0
-12 -132 -141 0
-10 -133 -142 0
-11 -134 -143 0
-12 -135 -144 0
-10 -136 -145 0
-11 -137 -146 0
-12 -138 -147 0
-10 -139 -148 0
-11 -140 -149 0
-12 -141 -150 0
-10 -142 -151 0
-11 -143 -152 0
-12 -144 -153 0
-10 -145 -154 0
-11 -146 -155 0
-12 -147 -156 0
-10 -148 -157 0
-11 -149 -158 0
-12 -150 -159 0
-10 -151 -160 0
-11 -152 -161 0
-12 -153 -162 0
-10 -154 -163 0
-11 -155 -164 0
-12 -156 -165 0
-10 -157 -166 0
-11 -158 -167 0
-12 -159 -168 0
-10 -160 -169 0
-11 -161 -170 0
-12 -162 -171 0
-10 -163 -172 0
-11 -164 -173 0
-12 -165 -174 0
-10 -166 -175 0
-11 -167 -176 0
-12 -168 -177 0
-10 -169 -178 0
-11 -170 -179 0
-12 -171 -180 0
-10 -172 -181 0
-11 -173 -182 0
-12 -174 -183 0
-10 -175 -184 0
-11 -176 -185 0
-12 -177 -186 0
-10 -178 -187 0
-11 -179 -188 0
-12 -180 -189 0
-10 -181 -190 0
-11 -182 -191 0
-12 -183 -192 0
-10 -184 -193 0
-11 -185 -194 0
-12 -186 -195 0
-10 -187 -196 0
-11 -188 -197 0
-12 -189 -198 0
-10 -190 -199 0
-11 -191 -200 0
-12 -192 -201 0
-10 -193 -202 0
-11 -194 -203 0
-12 -195 -204 0
-10 -196 -205 0
-11 -197 -206 0
-12 -198 -207 0
-10 -199 -208 0
-11 -200 -209 0
-12 -201 -210 0
-10 -202 -211 0
-11 -203 -212 0
-12 -204 -213 0
-10 -205 -214 0
-11 -206 -215 0
-12 -207 -216 0
-10 -208 -217 0
-11 -209 -218 0
-12 -210 -219 0
-1 -19 -22 0
-2 -20 -23 0
-3 -21 -24 0
-4 -22 0
-5 -23 0
-6 -24 0
-7 -22 -25 0
-8 -23 -26 0
-9 -24 -27 0
-10 -22 -28 0
-11 -23 -29 0
-12 -24 -30 0
-13 -22 -31 0
-14 -23 -32 0
-15 -24 -33 0
-16 -22 -34 0
-17 -23 -35 0
-18 -24 -36 0
-19 -22 -37 0
-20 -23 -38 0
-21 -24 -39 0
-22 -40 0
-23 -41 0
-24 -42 0
-22 -25 -43 0
-23 -26 -44 0
-24 -27 -45 0
-22 -28 -46 0
-23 -29 -47 0
-24 -30 -48 0
-22 -31 -49 0
-23 -32 -50 0
-24 -33 -51 0
-22 -34 -52 0
-23 -35 -53 0
-24 -36 -54 0
-22 -37 -55 0
-23 -38 -56 0
-24 -39 -57 0
-22 -40 -58 0
-23 -41 -59 0
-24 -42 -60 0
-22 -43 -61 0
-23 -44 -62 0
-24 -45 -63 0
-22 -46 -64 0
-23 -47 -65 0
-24 -48 -66 0
-22 -49 -67 0
-23 -50 -68 0
-24 -51 -69 0
-22 -52 -70 0
-23 -53 -71 0
-24 -54 -72 0
-22 -55 -73 0
-23 -56 -74 0
-24 -57 -75 0
-22 -58 -76 0
-23 -59 -77 0
-24 -60 -78 0
-22 -61 -79 0
-23 -62 -80 0
-24 -63 -81 0
-22 -64 -82 0
-23 -65 -83 0
-24 -66 -84 0
-22 -67 -85 0
-23 -68 -86 0
-24 -69 -87 0
-22 -70 -88 0
-23 -71 -89 0
-24 -72 -90 0
-22 -73 -91 0
-23 -74 -92 0
-24 -75 -93 0
-22 -76 -94 0
-23 -77 -95 0
-24 -78 -96 0
-22 -79 -97 0
-23 -80 -98 0
-24 -81 -99 0
-22 -82 -100 0
-23 -83 -101 0
-24 -84 -102 0
-22 -85 -103 0
-23 -86 -104 0
-24 -87 -105 0
-22 -88 -106 0
-23 -89 -107 0
-24 -90 -108 0
-22 -91 -109 0
-23 -92 -110 0
-24 -93 -111 0
-22 -94 -112 0
-23 -95 -113 0
-24 -96 -114 0
-22 -97 -115 0
-23 -98 -116 0
-24 -99 -117 0
-22 -100 -118 0
-23 -101 -119 0
-24 -102 -120 0
-22 -103 -121 0
-23 -104 -122 0
-24 -105 -123 0
-22 -106 -124 0
-23 -107 -125 0
-24 -108 -126 0
-22 -109 -127 0
-23 -110 -128 0
-24 -111 -129 0
-22 -112 -130 0
-23 -113 -131 0
-24 -114 -132 0
-22 -115 -133 0
-23 -116 -134 0
-24 -117 -135 0
-22 -118 -136 0
-23 -119 -137 0
-24 -120 -138 0
-22 -121 -139 0
-23 -122 -140 0
-24 -123 -141 0
-22 -124 -142 0
-23 -125 -143 0
-24 -126 -144 0
-22 -127 -145 0
-23 -128 -146 0
-24 -129 -147 0
-22 -130 -148 0
-23 -131 -149 0
-24 -132 -150 0
-22 -133 -151 0
-23 -134 -152 0
-24 -135 -153 0
-22 -136 -154 0
-23 -137 -155 0
-24 -138 -156 0
-22 -139 -157 0
-23 -140 -158 0
-24 -141 -159 0
-22 -142 -160 0
-23 -143 -161 0
-24 -144 -162 0
-22 -145 -163 0
-23 -146 -164 0
-24 -147 -165 0
-22 -148 -166 0
-23 -149 -167 0
-24 -150 -168 0
-22 -151 -169 0
-23 -152 -170 0
-24 -153 -171 0
-22 -154 -172 0
-23 -155 -173 0
-24 -156 -174 0
-22 -157 -175 0
-23 -158 -176 0
-24 -159 -177 0
-22 -160 -178 0
-23 -161 -179 0
-24 -162 -180 0
-22 -163 -181 0
-23 -164 -182 0
-24 -165 -183 0
-22 -166 -184 0
-23 -167 -185 0
-24 -168 -186 0
-22 -169 -187 0
-23 -170 -188 0
-24 -171 -189 0
-22 -172 -190 0
-23 -173 -191 0
-24 -174 -192 0
-22 -175 -193 0
-23 -176 -194 0
-24 -177 -195 0
-22 -178 -196 0
-23 -179 -197 0
-24 -180 -198 0
-22 -181 -199 0
-23 -182 -200 0
-24 -183 -201 0
-22 -184 -202 0
-23 -185 -203 0
-24 -186 -204 0
-22 -187 -205 0
-23 -188 -206 0
-24 -189 -207 0
-22 -190 -208 0
-23 -191 -209 0
-24 -192 -210 0
-22 -193 -211 0
-23 -194 -212 0
-24 -195 -213 0
-22 -196 -214 0
-23 -197 -215 0
-24 -198 -216 0
-22 -199 -217 0
-23 -200 -218 0
-24 -201 -219 0
-1 -28 -34 0
-2 -29 -35 0
-3 -30 -36 0
-4 -31 -34 0
-5 -32 -35 0
-6 -33 -36 0
-7 -34 0
-8 -35 0
-9 -36 0
-10 -34 -37 0
-11 -35 -38 0
-12 -36 -39 0
-13 -34 -40 0
-14 -35 -41 0
-15 -36 -42 0
-16 -34 -43 0
-17 -35 -44 0
-18 -36 -45 0
-19 -34 -46 0
-20 -35 -47 0
-21 -36 -48 0
-22 -34 -49 0
-23 -35 -50 0
-24 -36 -51 0
-25 -34 -52 0
-26 -35 -53 0
-27 -36 -54 0
-28 -34 -55 0
-29 -35 -56 0
-30 -36 -57 0
-31 -34 -58 0
-32 -35 -59 0
-33 -36 -60 0
-34 -61 0
-35 -62 0
-36 -63 0
-34 -37 -64 0
-35 -38 -65 0
-36 -39 -66 0
-34 -40 -67 0
-35 -41 -68 0
-36 -42 -69 0
-34 -43 -70 0
-35 -44 -71 0
-36 -45 -72 0
-34 -46 -73 0
-35 -47 -74 0
-36 -48 -75 0
-34 -49 -76 0
-35 -50 -77 0
-36 -51 -78 0
-34 -52 -79 0
-35 -53 -80 0
-36 -54 -81 0
-34 -55 -82 0
-35 -56 -83 0
-36 -57 -84 0
-34 -58 -85 0
-35 -59 -86 0
-36 -60 -87 0
-34 -61 -88 0
-35 -62 -89 0
-36 -63 -90 0
-34 -64 -91 0
-35 -65 -92 0
-36 -66 -93 0
-34 -67 -94 0
-35 -68 -95 0
-36 -69 -96 0
-34 -70 -97 0
-35 -71 -98 0
-36 -72 -99 0
-34 -73 -100 0
-35 -74 -101 0
-36 -75 -102 0
-34 -76 -103 0
-35 -77 -104 0
-36 -78 -105 0
-34 -79 -106 0
-35 -80 -107 0
-36 -81 -108 0
-34 -82 -109 0
-35 -83 -110 0
-36 -84 -111 0
-34 -85 -112 0
-35 -86 -113 0
-36 -87 -114 0
-34 -88 -115 0
-35 -89 -116 0
-36 -90 -117 0
-34 -91 -118 0
-35 -92 -119 0
-36 -93 -120 0
-34 -94 -121 0
-35 -95 -122 0
-36 -96 -123 0
-34 -97 -124 0
-35 -98 -125 0
-36 -99 -126 0
-34 -100 -127 0
-35 -101 -128 0
-36 -102 -129 0
-34 -103 -130 0
-35 -104 -131 0
-36 -105 -132 0
-34 -106 -133 0
-35 -107 -134 0
-36 -108 -135 0
-34 -109 -136 0
-35 -110 -137 0
-36 -111 -138 0
-34 -112 -139 0
-35 -113 -140 0
-36 -114 -141 0
-34 -115 -142 0
-35 -116 -143 0
-36 -117 -144 0
-34 -118 -145 0
-35 -119 -146 0
-36 -120 -147 0
-34 -121 -148 0
-35 -122 -149 0
-36 -123 -150 0
-34 -124 -151 0
-35 -125 -152 0
-36 -126 -153 0
-34 -127 -154 0
-35 -128 -155 0
-36 -129 -156 0
-34 -130 -157 0
-35 -131 -158 0
-36 -132 -159 0
-34 -133 -160 0
-35 -134 -161 0
-36 -135 -162 0
-34 -136 -163 0
-35 -137 -164 0
-36 -138 -165 0
-34 -139 -166 0
-35 -140 -167 0
-36 -141 -168 0
-34 -142 -169 0
-35 -143 -170 0
-36 -144 -171 0
-34 -145 -172 0
-35 -146 -173 0
-36 -147 -174 0
-34 -148 -175 0
-35 -149 -176 0
-36 -150 -177 0
-34 -151 -178 0
-35 -152 -179 0
-36 -153 -180 0
-34 -154 -181 0
-35 -155 -182 0
-36 -156 -183 0
-34 -157 -184 0
-35 -158 -185 0
-36 -159 -186 0
-34 -160 -187 0
-35 -161 -188 0
-36 -162 -189 0
-34 -163 -190 0
-35 -164 -191 0
-36 -165 -192 0
-34 -166 -193 0
-35 -167 -194 0
-36 -168 -195 0
-34 -169 -196 0
-35 -170 -197 0
-36 -171 -198 0
-34 -172 -199 0
-35 -173 -200 0
-36 -174 -201 0
-34 -175 -202 0
-35 -176 -203 0
-36 -177 -204 0
-34 -178 -205 0
-35 -179 -206 0
-36 -180 -207 0
-34 -181 -208 0
-35 -182 -209 0
-36 -183 -210 0
-34 -184 -211 0
-35 -185 -212 0
-36 -186 -213 0
-34 -187 -214 0
-35 -188 -215 0
-36 -189 -216 0
-34 -190 -217 0
-35 -191 -218 0
-36 -192 -219 0
-1 -37 -46 0
-2 -38 -47 0
-3 -39 -48 0
-4 -40 -46 0
-5 -41 -47 0
-6 -42 -48 0
-7 -43 -46 0
-8 -44 -47 0
-9 -45 -48 0
-10 -46 0
-11 -47 0
-12 -48 0
-13 -46 -49 0
-14 -47 -50 0
-15 -48 -51 0
-16 -46 -52 0
-17 -47 -53 0
-18 -48 -54 0
-19 -46 -55 0
-20 -47 -56 0
-21 -48 -57 0
-22 -46 -58 0
-23 -47 -59 0
-24 -48 -60 0
-25 -46 -61 0
-26 -47 -62 0
-27 -48 -63 0
-28 -46 -64 0
-29 -47 -65 0
-30 -48 -66 0
-31 -46 -67 0
-32 -47 -68 0
-33 -48 -69 0
-34 -46 -70 0
-35 -47 -71 0
-36 -48 -72 0
-37 -46 -73 0
-38 -47 -74 0
-39 -48 -75 0
-40 -46 -76 0
-41 -47 -77 0
-42 -48 -78 0
-43 -46 -79 0
-44 -47 -80 0
-45 -48 -81 0
-46 -82 0
-47 -83 0
-48 -84 0
-46 -49 -85 0
-47 -50 -86 0
-48 -51 -87 0
-46 -52 -88 0
-47 -53 -89 0
-48 -54 -90 0
-46 -55 -91 0
-47 -56 -92 0
-48 -57 -93 0
-46 -58 -94 0
-47 -59 -95 0
-48 -60 -96 0
-46 -61 -97 0
-47 -62 -98 0
-48 -63 -99 0
-46 -64 -100 0
-47 -65 -101 0
-48 -66 -102 0
-46 -67 -103 0
-47 -68 -104 0
-48 -69 -105 0
-46 -70 -106 0
-47 -71 -107 0
-48 -72 -108 0
-46 -73 -109 0
-47 -74 -110 0
-48 -75 -111 0
-46 -76 -112 0
-47 -77 -113 0
-48 -78 -114 0
-46 -79 -115 0
-47 -80 -116 0
-48 -81 -117 0
-46 -82 -118 0
-47 -83 -119 0
-48 -84 -120 0
-46 -85 -121 0
-47 -86 -122 0
-48 -87 -123 0
-46 -88 -124 0
-47 -89 -125 0
-48 -90 -126 0
-46 -91 -127 0
-47 -92 -128 0
-48 -93 -129 0
-46 -94 -130 0
-47 -95 -131 0
-48 -96 -132 0
-46 -97 -133 0
-47 -98 -134 0
-48 -99 -135 0
-46 -100 -136 0
-47 -101 -137 0
-48 -102 -138 0
-46 -103 -139 0
-47 -104 -140 0
-48 -105 -141 0
-46 -106 -142 0
-47 -107 -143 0
-48 -108 -144 0
-46 -109 -145 0
-47 -110 -146 0
-48 -111 -147 0
-46 -112 -148 0
-47 -113 -149 0
-48 -114 -150 0
-46 -115 -151 0
-47 -116 -152 0
-48 -117 -153 0
-46 -118 -154 0
-47 -119 -155 0
-48 -120 -156 0
-46 -121 -157 0
-47 -122 -158 0
-48 -123 -159 0
-46 -124 -160 0
-47 -125 -161 0
-48 -126 -162 0
-46 -127 -163 0
-47 -128 -164 0
-48 -129 -165 0
-46 -130 -166 0
-47 -131 -167 0
-48 -132 -168 0
-46 -133 -169 0
-47 -134 -170 0
-48 -135 -171 0
-46 -136 -172 0
-47 -137 -173 0
-48 -138 -174 0
-46 -139 -175 0
-47 -140 -176 0
-48 -141 -177 0
-46 -142 -178 0
-47 -143 -179 0
-48 -144 -180 0
-46 -145 -181 0
-47 -146 -182 0
-48 -147 -183 0
-46 -148 -184 0
-47 -149 -185 0
-48 -150 -186 0
-46 -151 -187 0
-47 -152 -188 0
-48 -153 -189 0
-46 -154 -190 0
-47 -155 -191 0
-48 -156 -192 0
-46 -157 -193 0
-47 -158 -194 0
-48 -159 -195 0
-46 -160 -196 0
-47 -161 -197 0
-48 -162 -198 0
-46 -163 -199 0
-47 -164 -200 0
-48 -165 -201 0
-46 -166 -202 0
-47 -167 -203 0
-48 -168 -204 0
-46 -169 -205 0
-47 -170 -206 0
-48 -171 -207 0
-46 -172 -208 0
-47 -173 -209 0
-48 -174 -210 0
-46 -175 -211 0
-47 -176 -212 0
-48 -177 -213 0
-46 -178 -214 0
-47 -179 -215 0
-48 -180 -216 0
-46 -181 -217 0
-47 -182 -218 0
-48 -183 -219 0
-1 -46 -58 0
-2 -47 -59 0
-3 -48 -60 0
-4 -49 -58 0
-5 -50 -59 0
-6 -51 -60 0
-7 -52 -58 0
-8 -53 -59 0
-9 -54 -60 0
-10 -55 -58 0
-11 -56 -59 0
-12 -57 -60 0
-13 -58 0
-14 -59 0
-15 -60 0
-16 -58 -61 0
-17 -59 -62 0
-18 -60 -63 0
-19 -58 -64 0
-20 -59 -65 0
-21 -60 -66 0
-22 -58 -67 0
-23 -59 -68 0
-24 -60 -69 0
-25 -58 -70 0
-26 -59 -71 0
-27 -60 -72 0
-28 -58 -73 0
-29 -59 -74 0
-30 -60 -75 0
-31 -58 -76 0
-32 -59 -77 0
-33 -60 -78 0
-34 -58 -79 0
-35 -59 -80 0
-36 -60 -81 0
-37 -58 -82 0
-38 -59 -83 0
-39 -60 -84 0
-40 -58 -85 0
-41 -59 -86 0
-42 -60 -87 0
-43 -58 -88 0
-44 -59 -89 0
-45 -60 -90 0
-46 -58 -91 0
-47 -59 -92 0
-48 -60 -93 0
-49 -58 -94 0
-50 -59 -95 0
-51 -60 -96 0
-52 -58 -97 0
-53 -59 -98 0
-54 -60 -99 0
-55 -58 -100 0
-56 -59 -101 0
-57 -60 -102 0
-58 -103 0
-59 -104 0
-60 -105 0
-58 -61 -106 0
-59 -62 -107 0
-60 -63 -108 0
-58 -64 -109 0
-59 -65 -110 0
-60 -66 -111 0
-58 -67 -112 0
-59 -68 -113 0
-60 -69 -114 0
-58 -70 -115 0
-59 -71 -116 0
-60 -72 -117 0
-58 -73 -118 0
-59 -74 -119 0
-60 -75 -120 0
-58 -76 -121 0
-59 -77 -122 0
-60 -78 -123 0
-58 -79 -124 0
-59 -80 -125 0
-60 -81 -126 0
-58 -82 -127 0
-59 -83 -128 0
-60 -84 -129 0
-58 -85 -130 0
-59 -86 -131 0
-60 -87 -132 0
-58 -88 -133 0
-59 -89 -134 0
-60 -90 -135 0
-58 -91 -136 0
-59 -92 -137 0
-60 -93 -138 0
-58 -94 -139 0
-59 -95 -140 0
-60 -96 -141 0
-58 -97 -142 0
-59 -98 -143 0
-60 -99 -144 0
-58 -100 -145 0
-59 -101 -146 0
-60 -102 -147 0
-58 -103 -148 0
-59 -104 -149 0
-60 -105 -150 0
-58 -106 -151 0
-59 -107 -152 0
-60 -108 -153 0
-58 -109 -154 0
-59 -110 -155 0
-60 -111 -156 0
-58 -112 -157 0
-59 -113 -158 0
-60 -114 -159 0
-58 -115 -160 0
-59 -116 -161 0
-60 -117 -162 0
-58 -118 -163 0
-59 -119 -164 0
-60 -120 -165 0
-58 -121 -166 0
-59 -122 -167 0
-60 -123 -168 0
-58 -124 -169 0
-59 -125 -170 0
-60 -126 -171 0
-58 -127 -172 0
-59 -128 -173 0
-60 -129 -174 0
-58 -130 -175 0
-59 -131 -176 0
-60 -132 -177 0
-58 -133 -178 0
-59 -134 -179 0
-60 -135 -180 0
-58 -136 -181 0
-59 -137 -182 0
-60 -138 -183 0
-58 -139 -184 0
-59 -140 -185 0
-60 -141 -186 0
-58 -142 -187 0
-59 -143 -188 0
-60 -144 -189 0
-58 -145 -190 0
-59 -146 -191 0
-60 -147 -192 0
-58 -148 -193 0
-59 -149 -194 0
-60 -150 -195 0
-58 -151 -196 0
-59 -152 -197 0
-60 -153 -198 0
-58 -154 -199 0
-59 -155 -200 0
-60 -156 -201 0
-58 -157 -202 0
-59 -158 -203 0
-60 -159 -204 0
-58 -160 -205 0
-59 -161 -206 0
-60 -162 -207 0
-58 -163 -208 0
-59 -164 -209 0
-60 -165 -210 0
-58 -166 -211 0
-59 -167 -212 0
-60 -168 -213 0
-58 -169 -214 0
-59 -170 -215 0
-60 -171 -216 0
-58 -172 -217 0
-59 -173 -218 0
-60 -174 -219 0
-1 -55 -70 0
-2 -56 -71 0
-3 -57 -72 0
-4 -58 -70 0
-5 -59 -71 0
-6 -60 -72 0
-7 -61 -70 0
-8 -62 -71 0
-9 -63 -72 0
-10 -64 -70 0
-11 -65 -71 0
-12 -66 -72 0
-13 -67 -70 0
-14 -68 -71 0
-15 -69 -72 0
-16 -70 0
-17 -71 0
-18 -72 0
-19 -70 -73 0
-20 -71 -74 0
-21 -72 -75 0
-22 -70 -76 0
-23 -71 -77 0
-24 -72 -78 0
-25 -70 -79 0
-26 -71 -80 0
-27 -72 -81 0
-28 -70 -82 0
-29 -71 -83 0
-30 -72 -84 0
-31 -70 -85 0
-32 -71 -86 0
-33 -72 -87 0
-34 -70 -88 0
-35 -71 -89 0
-36 -72 -90 0
-37 -70 -91 0
-38 -71 -92 0
-39 -72 -93 0
-40 -70 -94 0
-41 -71 -95 0
-42 -72 -96 0
-43 -70 -97 0
-44 -71 -98 0
-45 -72 -99 0
-46 -70 -100 0
-47 -71 -101 0
-48 -72 -102 0
-49 -70 -103 0
-50 -71 -104 0
-51 -72 -105 0
-52 -70 -106 0
-53 -71 -107 0
-54 -72 -108 0
-55 -70 -109 0
-56 -71 -110 0
-57 -72 -111 0
-58 -70 -112 0
-59 -71 -113 0
-60 -72 -114 0
-61 -70 -115 0
-62 -71 -116 0
-63 -72 -117 0
-64 -70 -118 0
-65 -71 -119 0
-66 -72 -120 0
-67 -70 -121 0
-68 -71 -122 0
-69 -72 -123 0
-70 -124 0
-71 -125 0
-72 -126 0
-70 -73 -127 0
-71 -74 -128 0
-72 -75 -129 0
-70 -76 -130 0
-71 -77 -131 0
-72 -78 -132 0
-70 -79 -133 0
-71 -80 -134 0
-72 -81 -135 0
-70 -82 -136 0
-71 -83 -137 0
-72 -84 -138 0
-70 -85 -139 0
-71 -86 -140 0
-72 -87 -141 0
-70 -88 -142 0
-71 -89 -143 0
-72 -90 -144 0
-70 -91 -145 0
-71 -92 -146 0
-72 -93 -147 0
-70 -94 -148 0
-71 -95 -149 0
-72 -96 -150 0
-70 -97 -151 0
-71 -98 -152 0
-72 -99 -153 0
-70 -100 -154 0
-71 -101 -155 0
-72 -102 -156 0
-70 -103 -157 0
-71 -104 -158 0
-72 -105 -159 0
-70 -106 -160 0
-71 -107 -161 0
-72 -108 -162 0
-70 -109 -163 0
-71 -110 -164 0
-72 -111 -165 0
-70 -112 -166 0
-71 -113 -167 0
-72 -114 -168 0
-70 -115 -169 0
-71 -116 -170 0
-72 -117 -171 0
-70 -118 -172 0
-71 -119 -173 0
-72 -120 -174 0
-70 -121 -175 0
-71 -122 -176 0
-72 -123 -177 0
-70 -124 -178 0
-71 -125 -179 0
-72 -126 -180 0
-70 -127 -181 0
-71 -128 -182 0
-72 -129 -183 0
-70 -130 -184 0
-71 -131 -185 0
-72 -132 -186 0
-70 -133 -187 0
-71 -134 -188 0
-72 -135 -189 0
-70 -136 -190 0
-71 -137 -191 0
-72 -138 -192 0
-70 -139 -193 0
-71 -140 -194 0
-72 -141 -195 0
-70 -142 -196 0
-71 -143 -197 0
-72 -144 -198 0
-70 -145 -199 0
-71 -146 -200 0
-72 -147 -201 0
-70 -148 -202 0
-71 -149 -203 0
-72 -150 -204 0
-70 -151 -205 0
-71 -152 -206 0
-72 -153 -207 0
-70 -154 -208 0
-71 -155 -209 0
-72 -156 -210 0
-70 -157 -211 0
-71 -158 -212 0
-72 -159 -213 0
-70 -160 -214 0
-71 -161 -215 0
-72 -162 -216 0
-70 -163 -217 0
-71 -164 -218 0
-72 -165 -219 0
-1 -64 -82 0
-2 -65 -83 0
-3 -66 -84 0
-4 -67 -82 0
-5 -68 -83 0
-6 -69 -84 0
-7 -70 -82 0
-8 -71 -83 0
-9 -72 -84 0
-10 -73 -82 0
-11 -74 -83 0
-12 -75 -84 0
-13 -76 -82 0
-14 -77 -83 0
-15 -78 -84 0
-16 -79 -82 0
-17 -80 -83 0
-18 -81 -84 0
-19 -82 0
-20 -83 0
-21 -84 0
-22 -82 -85 0
-23 -83 -86 0
-24 -84 -87 0
-25 -82 -88 0
-26 -83 -89 0
-27 -84 -90 0
-28 -82 -91 0
-29 -83 -92 0
-30 -84 -93 0
-31 -82 -94 0
-32 -83 -95 0
-33 -84 -96 0
-34 -82 -97 0
-35 -83 -98 0
-36 -84 -99 0
-37 -82 -100 0
-38 -83 -101 0
-39 -84 -102 0
-40 -82 -103 0
-41 -83 -104 0
-42 -84 -105 0
-43 -82 -106 0
-44 -83 -107 0
-45 -84 -108 0
-46 -82 -109 0
-47 -83 -110 0
-48 -84 -111 0
-49 -82 -112 0
-50 -83 -113 0
-51 -84 -114 0
-52 -82 -115 0
-53 -83 -116 0
-54 -84 -117 0
-55 -82 -118 0
-56 -83 -119 0
-57 -84 -120 0
-58 -82 -121 0
-59 -83 -122 0
-60 -84 -123 0
-61 -82 -124 0
-62 -83 -125 0
-63 -84 -126 0
-64 -82 -127 0
-65 -83 -128 0
-66 -84 -129 0
-67 -82 -130 0
-68 -83 -131 0
-69 -84 -132 0
-70 -82 -133 0
-71 -83 -134 0
-72 -84 -135 0
-73 -82 -136 0
-74 -83 -137 0
-75 -84 -138 0
-76 -82 -139 0
-77 -83 -140 0
-78 -84 -141 0
-79 -82 -142 0
-80 -83 -143 0
-81 -84 -144 0
-82 -145 0
-83 -146 0
-84 -147 0
-82 -85 -148 0
-83 -86 -149 0
-84 -87 -150 0
-82 -88 -151 0
-83 -89 -152 0
-84 -90 -153 0
-82 -91 -154 0
-83 -92 -155 0
-84 -93 -156 0
-82 -94 -157 0
-83 -95 -158 0
-84 -96 -159 0
-82 -97 -160 0
-83 -98 -161 0
-84 -99 -162 0
-82 -100 -163 0
-83 -101 -164 0
-84 -102 -165 0
-82 -103 -166 0
-83 -104 -167 0
-84 -105 -168 0
-82 -106 -169 0
-83 -107 -170 0
-84 -108 -171 0
-82 -109 -172 0
-83 -110 -173 0
-84 -111 -174 0
-82 -112 -175 0
-83 -113 -176 0
-84 -114 -177 0
-82 -115 -178 0
-83 -116 -179 0
-84 -117 -180 0
-82 -118 -181 0
-83 -119 -182 0
-84 -120 -183 0
-82 -121 -184 0
-83 -122 -185 0
-84 -123 -186 0
-82 -124 -187 0
-83 -125 -188 0
-84 -126 -189 0
-82 -127 -190 0
-83 -128 -191 0
-84 -129 -192 0
-82 -130 -193 0
-83 -131 -194 0
-84 -132 -195 0
-82 -133 -196 0
-83 -134 -197 0
-84 -135 -198 0
-82 -136 -199 0
-83 -137 -200 0
-84 -138 -201 0
-82 -139 -202 0
-83 -140 -203 0
-84 -141 -204 0
-82 -142 -205 0
-83 -143 -206 0
-84 -144 -207 0
-82 -145 -208 0
-83 -146 -209 0
-84 -147 -210 0
-82 -148 -211 0
-83 -149 -212 0
-84 -150 -213 0
-82 -151 -214 0
-83 -152 -215 0
-84 -153 -216 0
-82 -154 -217 0
-83 -155 -218 0
-84 -156 -219 0
-1 -73 -94 0
-2 -74 -95 0
-3 -75 -96 0
-4 -76 -94 0
-5 -77 -95 0
-6 -78 -96 0
-7 -79 -94 0
-8 -80 -95 0
-9 -81 -96 0
-10 -82 -94 0
-11 -83 -95 0
-12 -84 -96 0
-13 -85 -94 0
-14 -86 -95 0
-15 -87 -96 0
-16 -88 -94 0
-17 -89 -95 0
-18 -90 -96 0
-19 -91 -94 0
-20 -92 -95 0
-21 -93 -96 0
-22 -94 0
-23 -95 0
-24 -96 0
-25 -94 -97 0
-26 -95 -98 0
-27 -96 -99 0
-28 -94 -100 0
-29 -95 -101 0
-30 -96 -102 0
-31 -94 -103 0
-32 -95 -104 0
-33 -96 -105 0
-34 -94 -106 0
-35 -95 -107 0
-36 -96 -108 0
-37 -94 -109 0
-38 -95 -110 0
-39 -96 -111 0
-40 -94 -112 0
-41 -95 -113 0
-42 -96 -114 0
-43 -94 -115 0
-44 -95 -116 0
-45 -96 -117 0
-46 -94 -118 0
-47 -95 -119 0
-48 -96 -120 0
-49 -94 -121 0
-50 -95 -122 0
-51 -96 -123 0
-52 -94 -124 0
-53 -95 -125 0
-54 -96 -126 0
-55 -94 -127 0
-56 -95 -128 0
-57 -96 -129 0
-58 -94 -130 0
-59 -95 -131 0
-60 -96 -132 0
-61 -94 -133 0
-62 -95 -134 0
-63 -96 -135 0
-64 -94 -136 0
-65 -95 -137 0
-66 -96 -138 0
-67 -94 -139 0
-68 -95 -140 0
-69 -96 -141 0
-70 -94 -142 0
-71 -95 -143 0
-72 -96 -144 0
-73 -94 -145 0
-74 -95 -146 0
-75 -96 -147 0
-76 -94 -148 0
-77 -95 -149 0
-78 -96 -150 0
-79 -94 -151 0
-80 -95 -152 0
-81 -96 -153 0
-82 -94 -154 0
-83 -95 -155 0
-84 -96 -156 0
-85 -94 -157 0
-86 -95 -158 0
-87 -96 -159 0
-88 -94 -160 0
-89 -95 -161 0
-90 -96 -162 0
-91 -94 -163 0
-92 -95 -164 0
-93 -96 -165 0
-94 -166 0
-95 -167 0
-96 -168 0
-94 -97 -169 0
-95 -98 -170 0
-96 -99 -171 0
-94 -100 -172 0
-95 -101 -173 0
-96 -102 -174 0
-94 -103 -175 0
-95 -104 -176 0
-96 -105 -177 0
-94 -106 -178 0
-95 -107 -179 0
-96 -108 -180 0
-94 -109 -181 0
-95 -110 -182 0
-96 -111 -183 0
-94 -112 -184 0
-95 -113 -185 0
-96 -114 -186 0
-94 -115 -187 0
-95 -116 -188 0
-96 -117 -189 0
-94 -118 -190 0
-95 -119 -191 0
-96 -120 -192 0
-94 -121 -193 0
-95 -122 -194 0
-96 -123 -195 0
-94 -124 -196 0
-95 -125 -197 0
-96 -126 -198 0
-94 -127 -199 0
-95 -128 -200 0
-96 -129 -201 0
-94 -130 -202 0
-95 -131 -203 0
-96 -132 -204 0
-94 -133 -205 0
-95 -134 -206 0
-96 -135 -207 0
-94 -136 -208 0
-95 -137 -209 0
-96 -138 -210 0
-94 -139 -211 0
-95 -140 -212 0
-96 -141 -213 0
-94 -142 -214 0
-95 -143 -215 0
-96 -144 -216 0
-94 -145 -217 0
-95 -146 -218 0
-96 -147 -219 0
-1 -82 -106 0
-2 -83 -107 0
-3 -84 -108 0
-4 -85 -106 0
-5 -86 -107 0
-6 -87 -108 0
-7 -88 -106 0
-8 -89 -107 0
-9 -90 -108 0
-10 -91 -106 0
-11 -92 -107 0
-12 -93 -108 0
-13 -94 -106 0
-14 -95 -107 0
-15 -96 -108 0
-16 -97 -106 0
-17 -98 -107 0
-18 -99 -108 0
-19 -100 -106 0
-20 -101 -107 0
-21 -102 -108 0
-22 -103 -106 0
-23 -104 -107 0
-24 -105 -108 0
-25 -106 0
-26 -107 0
-27 -108 0
-28 -106 -109 0
-29 -107 -110 0
-30 -108 -111 0
-31 -106 -112 0
-32 -107 -113 0
-33 -108 -114 0
-34 -106 -115 0
-35 -107 -116 0
-36 -108 -117 0
-37 -106 -118 0
-38 -107 -119 0
-39 -108 -120 0
-40 -106 -121 0
-41 -107 -122 0
-42 -108 -123 0
-43 -106 -124 0
-44 -107 -125 0
-45 -108 -126 0
-46 -106 -127 0
-47 -107 -128 0
-48 -108 -129 0
-49 -106 -130 0
-50 -107 -131 0
-51 -108 -132 0
-52 -106 -133 0
-53 -107 -134 0
-54 -108 -135 0
-55 -106 -136 0
-56 -107 -137 0
-57 -108 -138 0
-58 -106 -139 0
-59 -107 -140 0
-60 -108 -141 0
-61 -106 -142 0
-62 -107 -143 0
-63 -108 -144 0
-64 -106 -145 0
-65 -107 -146 0
-66 -108 -147 0
-67 -106 -148 0
-68 -107 -149 0
-69 -108 -150 0
-70 -106 -151 0
-71 -107 -152 0
-72 -108 -153 0
-73 -106 -154 0
-74 -107 -155 0
-75 -108 -156 0
-76 -106 -157 0
-77 -107 -158 0
-78 -108 -159 0
-79 -106 -160 0
-80 -107 -161 0
-81 -108 -162 0
-82 -106 -163 0
-83 -107 -164 0
-84 -108 -165 0
-85 -106 -166 0
-86 -107 -167 0
-87 -108 -168 0
-88 -106 -169 0
-89 -107 -170 0
-90 -108 -171 0
-91 -106 -172 0
-92 -107 -173 0
-93 -108 -174 0
-94 -106 -175 0
-95 -107 -176 0
-96 -108 -177 0
-97 -106 -178 0
-98 -107 -179 0
-99 -108 -180 0
-100 -106 -181 0
-101 -107 -182 0
-102 -108 -183 0
-103 -106 -184 0
-104 -107 -185 0
-105 -108 -186 0
-106 -187 0
-107 -188 0
-108 -189 0
-106 -109 -190 0
-107 -110 -191 0
-108 -111 -192 0
-106 -112 -193 0
-107 -113 -194 0
-108 -114 -195 0
-106 -115 -196 0
-107 -116 -197 0
-108 -117 -198 0
-106 -118 -199 0
-107 -119 -200 0
-108 -120 -201 0
-106 -121 -202 0
-107 -122 -203 0
-108 -123 -204 0
-106 -124 -205 0
-107 -125 -206 0
-108 -126 -207 0
-106 -127 -208 0
-107 -128 -209 0
-108 -129 -210 0
-106 -130 -211 0
-107 -131 -212 0
-108 -132 -213 0
-106 -133 -214 0
-107 -134 -215 0
-108 -135 -216 0
-106 -136 -217 0
-107 -137 -218 0
-108 -138 -219 0
-1 -91 -118 0
-2 -92 -119 0
-3 -93 -120 0
-4 -94 -118 0
-5 -95 -119 0
-6 -96 -120 0
-7 -97 -118 0
-8 -98 -119 0
-9 -99 -120 0
-10 -100 -118 0
-11 -101 -119 0
-12 -102 -120 0
-13 -103 -118 0
-14 -104 -119 0
-15 -105 -120 0
-16 -106 -118 0
-17 -107 -119 0
-18 -108 -120 0
-19 -109 -118 0
-20 -110 -119 0
-21 -111 -120 0
-22 -112 -118 0
-23 -113 -119 0
-24 -114 -120 0
-25 -115 -118 0
-26 -116 -119 0
-27 -117 -120 0
-28 -118 0
-29 -119 0
-30 -120 0
-31 -118 -121 0
-32 -119 -122 0
-33 -120 -123 0
-34 -118 -124 0
-35 -119 -125 0
-36 -120 -126 0
-37 -118 -127 0
-38 -119 -128 0
-39 -120 -129 0
-40 -118 -130 0
-41 -119 -131 0
-42 -120 -132 0
-43 -118 -133 0
-44 -119 -134 0
-45 -120 -135 0
-46 -118 -136 0
-47 -119 -137 0
-48 -120 -138 0
-49 -118 -139 0
-50 -119 -140 0
-51 -120 -141 0
-52 -118 -142 0
-53 -119 -143 0
-54 -120 -144 0
-55 -118 -145 0
-56 -119 -146 0
-57 -120 -147 0
-58 -118 -148 0
-59 -119 -149 0
-60 -120 -150 0
-61 -118 -151 0
-62 -119 -152 0
-63 -120 -153 0
-64 -118 -154 0
-65 -119 -155 0
-66 -120 -156 0
-67 -118 -157 0
-68 -119 -158 0
-69 -120 -159 0
-70 -118 -160 0
-71 -119 -161 0
-72 -120 -162 0
-73 -118 -163 0
-74 -119 -164 0
-75 -120 -165 0
-76 -118 -166 0
-77 -119 -167 0
-78 -120 -168 0
-79 -118 -169 0
-80 -119 -170 0
-81 -120 -171 0
-82 -118 -172 0
-83 -119 -173 0
-84 -120 -174 0
-85 -118 -175 0
-86 -119 -176 0
-87 -120 -177 0
-88 -118 -178 0
-89 -119 -179 0
-90 -120 -180 0
-91 -118 -181 0
-92 -119 -182 0
-93 -120 -183 0
-94 -118 -184 0
-95 -119 -185 0
-96 -120 -186 0
-97 -118 -187 0
-98 -119 -188 0
-99 -120 -189 0
-100 -118 -190 0
-101 -119 -191 0
-102 -120 -192 0
-103 -118 -193 0
-104 -119 -194 0
-105 -120 -195 0
-106 -118 -196 0
-107 -119 -197 0
-108 -120 -198 0
-109 -118 -199 0
-110 -119 -200 0
-111 -120 -201 0
-112 -118 -202 0
-113 -119 -203 0
-114 -120 -204 0
-115 -118 -205 0
-116 -119 -206 0
-117 -120 -207 0
-118 -208 0
-119 -209 0
-120 -210 0
-118 -121 -211 0
-119 -122 -212 0
-120 -123 -213 0
-118 -124 -214 0
-119 -125 -215 0
-120 -126 -216 0
-118 -127 -217 0
-119 -128 -218 0
-120 -129 -219 0
-1 -100 -130 0
-2 -101 -131 0
-3 -102 -132 0
-4 -103 -130 0
-5 -104 -131 0
-6 -105 -132 0
-7 -106 -130 0
-8 -107 -131 0
-9 -108 -132 0
-10 -109 -130 0
-11 -110 -131 0
-12 -111 -132 0
-13 -112 -130 0
-14 -113 -131 0
-15 -114 -132 0
-16 -115 -130 0
-17 -116 -131 0
-18 -117 -132 0
-19 -118 -130 0
-20 -119 -131 0
-21 -120 -132 0
-22 -121 -130 0
-23 -122 -131 0
-24 -123 -132 0
-25 -124 -130 0
-26 -125 -131 0
-27 -126 -132 0
-28 -127 -130 0
-29 -128 -131 0
-30 -129 -132 0
-31 -130 0
-32 -131 0
-33 -132 0
-34 -130 -133 0
-35 -131 -134 0
-36 -132 -135 0
-37 -130 -136 0
-38 -131 -137 0
-39 -132 -138 0
-40 -130 -139 0
-41 -131 -140 0
-42 -132 -141 0
-43 -130 -142 0
-44 -131 -143 0
-45 -132 -144 0
-46 -130 -145 0
-47 -131 -146 0
-48 -132 -147 0
-49 -130 -148 0
-50 -131 -149 0
-51 -132 -150 0
-52 -130 -151 0
-53 -131 -152 0
-54 -132 -153 0
-55 -130 -154 0
-56 -131 -155 0
-57 -132 -156 0
-58 -130 -157 0
-59 -131 -158 0
-60 -132 -159 0
-61 -130 -160 0
-62 -131 -161 0
-63 -132 -162 0
-64 -130 -163 0
-65 -131 -164 0
-66 -132 -165 0
-67 -130 -166 0
-68 -131 -167 0
-69 -132 -168 0
-70 -130 -169 0
-71 -131 -170 0
-72 -132 -171 0
-73 -130 -172 0
-74 -131 -173 0
-75 -132 -174 0
-76 -130 -175 0
-77 -131 -176 0
-78 -132 -177 0
-79 -130 -178 0
-80 -131 -179 0
-81 -132 -180 0
-82 -130 -181 0
-83 -131 -182 0
-84 -132 -183 0
-85 -130 -184 0
-86 -131 -185 0
-87 -132 -186 0
-88 -130 -187 0
-89 -131 -188 0
-90 -132 -189 0
-91 -130 -190 0
-92 -131 -191 0
-93 -132 -192 0
-94 -130 -193 0
-95 -131 -194 0
-96 -132 -195 0
-97 -130 -196 0
-98 -131 -197 0
-99 -132 -198 0
-100 -130 -199 0
-101 -131 -200 0
-102 -132 -201 0
-103 -130 -202 0
-104 -131 -203 0
-105 -132 -204 0
-106 -130 -205 0
-107 -131 -206 0
-108 -132 -207 0
-109 -130 -208 0
-110 -131 -209 0
-111 -132 -210 0
-112 -130 -211 0
-113 -131 -212 0
-114 -132 -213 0
-115 -130 -214 0
-116 -131 -215 0
-117 -132 -216 0
-118 -130 -217 0
-119 -131 -218 0
-120 -132 -219 0
-1 -109 -142 0
-2 -110 -143 0
-3 -111 -144 0
-4 -112 -142 0
-5 -113 -143 0
-6 -114 -144 0
-7 -115 -142 0
-8 -116 -143 0
-9 -117 -144 0
-10 -118 -142 0
-11 -119 -143 0
-12 -120 -144 0
-13 -121 -142 0
-14 -122 -143 0
-15 -123 -144 0
-16 -124 -142 0
-17 -125 -143 0
-18 -126 -144 0
-19 -127 -142 0
-20 -128 -143 0
-21 -129 -144 0
-22 -130 -142 0
-23 -131 -143 0
-24 -132 -144 0
-25 -133 -142 0
-26 -134 -143 0
-27 -135 -144 0
-28 -136 -142 0
-29 -137 -143 0
-30 -138 -144 0
-31 -139 -142 0
-32 -140 -143 0
-33 -141 -144 0
-34 -142 0
-35 -143 0
-36 -144 0
-37 -142 -145 0
-38 -143 -146 0
-39 -144 -147 0
-40 -142 -148 0
-41 -143 -149 0
-42 -144 -150 0
-43 -142 -151 0
-44 -143 -152 0
-45 -144 -153 0
-46 -142 -154 0
-47 -143 -155 0
-48 -144 -156 0
-49 -142 -157 0
-50 -143 -158 0
-51 -144 -159 0
-52 -142 -160 0
-53 -143 -161 0
-54 -144 -162 0
-55 -142 -163 0
-56 -143 -164 0
-57 -144 -165 0
-58 -142 -166 0
-59 -143 -167 0
-60 -144 -168 0
-61 -142 -169 0
-62 -143 -170 0
-63 -144 -171 0
-64 -142 -172 0
-65 -143 -173 0
-66 -144 -174 0
-67 -142 -175 0
-68 -143 -176 0
-69 -144 -177 0
-70 -142 -178 0
-71 -143 -179 0
-72 -144 -180 0
-73 -142 -181 0
-74 -143 -182 0
-75 -144 -183 0
-76 -142 -184 0
-77 -143 -185 0
-78 -144 -186 0
-79 -142 -187 0
-80 -143 -188 0
-81 -144 -189 0
-82 -142 -190 0
-83 -143 -191 0
-84 -144 -192 0
-85 -142 -193 0
-86 -143 -194 0
-87 -144 -195 0
-88 -142 -196 0
-89 -143 -197 0
-90 -144 -198 0
-91 -142 -199 0
-92 -143 -200 0
-93 -144 -201 0
-94 -142 -202 0
-95 -143 -203 0
-96 -144 -204 0
-97 -142 -205 0
-98 -143 -206 0
-99 -144 -207 0
-100 -142 -208 0
-101 -143 -209 0
-102 -144 -210 0
-103 -142 -211 0
-104 -143 -212 0
-105 -144 -213 0
-106 -142 -214 0
-107 -143 -215 0
-108 -144 -216 0
-109 -142 -217 0
-110 -143 -218 0
-111 -144 -219 0
-1 -118 -154 0
-2 -119 -155 0
-3 -120 -156 0
-4 -121 -154 0
-5 -122 -155 0
-6 -123 -156 0
-7 -124 -154 0
-8 -125 -155 0
-9 -126 -156 0
-10 -127 -154 0
-11 -128 -155 0
-12 -129 -156 0
-13 -130 -154 0
-14 -131 -155 0
-15 -132 -156 0
-16 -133 -154 0
-17 -134 -155 0
-18 -135 -156 0
-19 -136 -154 0
-20 -137 -155 0
-21 -138 -156 0
-22 -139 -154 0
-23 -140 -155 0
-24 -141 -156 0
-25 -142 -154 0
-26 -143 -155 0
-27 -144 -156 0
-28 -145 -154 0
-29 -146 -155 0
-30 -147 -156 0
-31 -148 -154 0
-32 -149 -155 0
-33 -150 -156 0
-34 -151 -154 0
-35 -152 -155 0
-36 -153 -156 0
-37 -154 0
-38 -155 0
-39 -156 0
-40 -154 -157 0
-41 -155 -158 0
-42 -156 -159 0
-43 -154 -160 0
-44 -155 -161 0
-45 -156 -162 0
-46 -154 -163 0
-47 -155 -164 0
-48 -156 -165 0
-49 -154 -166 0
-50 -155 -167 0
-51 -156 -168 0
-52 -154 -169 0
-53 -155 -170 0
-54 -156 -171 0
-55 -154 -172 0
-56 -155 -173 0
-57 -156 -174 0
-58 -154 -175 0
-59 -155 -176 0
-60 -156 -177 0
-61 -154 -178 0
-62 -155 -179 0
-63 -156 -180 0
-64 -154 -181 0
-65 -155 -182 0
-66 -156 -183 0
-67 -154 -184 0
-68 -155 -185 0
-69 -156 -186 0
-70 -154 -187 0
-71 -155 -188 0
-72 -156 -189 0
-73 -154 -190 0
-74 -155 -191 0
-75 -156 -192 0
-76 -154 -193 0
-77 -155 -194 0
-78 -156 -195 0
-79 -154 -196 0
-80 -155 -197 0
-81 -156 -198 0
-82 -154 -199 0
-83 -155 -200 0
-84 -156 -201 0
-85 -154 -202 0
-86 -155 -203 0
-87 -156 -204 0
-88 -154 -205 0
-89 -155 -206 0
-90 -156 -207 0
-91 -154 -208 0
-92 -155 -209 0
-93 -156 -210 0
-94 -154 -211 0
-95 -155 -212 0
-96 -156 -213 0
-97 -154 -214 0
-98 -155 -215 0
-99 -156 -216 0
-100 -154 -217 0
-101 -155 -218 0
-102 -156 -219 0
-1 -127 -166 0
-2 -128 -167 0
-3 -129 -168 0
-4 -130 -166 0
-5 -131 -167 0
-6 -132 -168 0
-7 -133 -166 0
-8 -134 -167 0
-9 -135 -168 0
-10 -136 -166 0
-11 -137 -167 0
-12 -138 -168 0
-13 -139 -166 0
-14 -140 -167 0
-15 -141 -168 0
-16 -142 -166 0
-17 -143 -167 0
-18 -144 -168 0
-19 -145 -166 0
-20 -146 -167 0
-21 -147 -168 0
-22 -148 -166 0
-23 -149 -167 0
-24 -150 -168 0
-25 -151 -166 0
-26 -152 -167 0
-27 -153 -168 0
-28 -154 -166 0
-29 -155 -167 0
-30 -156 -168 0
-31 -157 -166 0
-32 -158 -167 0
-33 -159 -168 0
-34 -160 -166 0
-35 -161 -167 0
-36 -162 -168 0
-37 -163 -166 0
-38 -164 -167 0
-39 -165 -168 0
-40 -166 0
-41 -167 0
-42 -168 0
-43 -166 -169 0
-44 -167 -170 0
-45 -168 -171 0
-46 -166 -172 0
-47 -167 -173 0
-48 -168 -174 0
-49 -166 -175 0
-50 -167 -176 0
-51 -168 -177 0
-52 -166 -178 0
-53 -167 -179 0
-54 -168 -180 0
-55 -166 -181 0
-56 -167 -182 0
-57 -168 -183 0
-58 -166 -184 0
-59 -167 -185 0
-60 -168 -186 0
-61 -166 -187 0
-62 -167 -188 0
-63 -168 -189 0
-64 -166 -190 0
-65 -167 -191 0
-66 -168 -192 0
-67 -166 -193 0
-68 -167 -194 0
-69 -168 -195 0
-70 -166 -196 0
-71 -167 -197 0
-72 -168 -198 0
-73 -166 -199 0
-74 -167 -200 0
-75 -168 -201 0
-76 -166 -202 0
-77 -167 -203 0
-78 -168 -204 0
-79 -166 -205 0
-80 -167 -206 0
-81 -168 -207 0
-82 -166 -208 0
-83 -167 -209 0
-84 -168 -210 0
-85 -166 -211 0
-86 -167 -212 0
-87 -168 -213 0
-88 -166 -214 0
-89 -167 -215 0
-90 -168 -216 0
-91 -166 -217 0
-92 -167 -218 0
-93 -168 -219 0
-1 -136 -178 0
-2 -137 -179 0
-3 -138 -180 0
-4 -139 -178 0
-5 -140 -179 0
-6 -141 -180 0
-7 -142 -178 0
-8 -143 -179 0
-9 -144 -180 0
-10 -145 -178 0
-11 -146 -179 0
-12 -147 -180 0
-13 -148 -178 0
-14 -149 -179 0
-15 -150 -180 0
-16 -151 -178 0
-17 -152 -179 0
-18 -153 -180 0
-19 -154 -178 0
-20 -155 -179 0
-21 -156 -180 0
-22 -157 -178 0
-23 -158 -179 0
-24 -159 -180 0
-25 -160 -178 0
-26 -161 -179 0
-27 -162 -180 0
-28 -163 -178 0
-29 -164 -179 0
-30 -165 -180 0
-31 -166 -178 0
-32 -167 -179 0
-33 -168 -180 0
-34 -169 -178 0
-35 -170 -179 0
-36 -171 -180 0
-37 -172 -178 0
-38 -173 -179 0
-39 -174 -180 0
-40 -175 -178 0
-41 -176 -179 0
-42 -177 -180 0
-43 -178 0
-44 -179 0
-45 -180 0
-46 -178 -181 0
-47 -179 -182 0
-48 -180 -183 0
-49 -178 -184 0
-50 -179 -185 0
-51 -180 -186 0
-52 -178 -187 0
-53 -179 -188 0
-54 -180 -189 0
-55 -178 -190 0
-56 -179 -191 0
-57 -180 -192 0
-58 -178 -193 0
-59 -179 -194 0
-60 -180 -195 0
-61 -178 -196 0
-62 -179 -197 0
-63 -180 -198 0
-64 -178 -199 0
-65 -179 -200 0
-66 -180 -201 0
-67 -178 -202 0
-68 -179 -203 0
-69 -180 -204 0
-70 -178 -205 0
-71 -179 -206 0
-72 -180 -207 0
-73 -178 -208 0
-74 -179 -209 0
-75 -180 -210 0
-76 -178 -211 0
-77 -179 -212 0
-78 -180 -213 0
-79 -178 -214 0
-80 -179 -215 0
-81 -180 -216 0
-82 -178 -217 0
-83 -179 -218 0
-84 -180 -219 0
-1 -145 -190 0
-2 -146 -191 0
-3 -147 -192 0
-4 -148 -190 0
-5 -149 -191 0
-6 -150 -192 0
-7 -151 -190 0
-8 -152 -191 0
-9 -153 -192 0
-10 -154 -190 0
-11 -155 -191 0
-12 -156 -192 0
-13 -157 -190 0
-14 -158 -191 0
-15 -159 -192 0
-16 -160 -190 0
-17 -161 -191 0
-18 -162 -192 0
-19 -163 -190 0
-20 -164 -191 0
-21 -165 -192 0
-22 -166 -190 0
-23 -167 -191 0
-24 -168 -192 0
-25 -169 -190 0
-26 -170 -191 0
-27 -171 -192 0
-28 -172 -190 0
-29 -173 -191 0
-30 -174 -192 0
-31 -175 -190 0
-32 -176 -191 0
-33 -177 -192 0
-34 -178 -190 0
-35 -179 -191 0
-36 -180 -192 0
-37 -181 -190 0
-38 -182 -191 0
-39 -183 -192 0
-40 -184 -190 0
-41 -185 -191 0
-42 -186 -192 0
-43 -187 -190 0
-44 -188 -191 0
-45 -189 -192 0
-46 -190 0
-47 -191 0
-48 -192 0
-49 -190 -193 0
-50 -191 -194 0
-51 -192 -195 0
-52 -190 -196 0
-53 -191 -197 0
-54 -192 -198 0
-55 -190 -199 0
-56 -191 -200 0
-57 -192 -201 0
-58 -190 -202 0
-59 -191 -203 0
-60 -192 -204 0
-61 -190 -205 0
-62 -191 -206 0
-63 -192 -207 0
-64 -190 -208 0
-65 -191 -209 0
-66 -192 -210 0
-67 -190 -211 0
-68 -191 -212 0
-69 -192 -213 0
-70 -190 -214 0
-71 -191 -215 0
-72 -192 -216 0
-73 -190 -217 0
-74 -191 -218 0
-75 -192 -219 0
-1 -154 -202 0
-2 -155 -203 0
-3 -156 -204 0
-4 -157 -202 0
-5 -158 -203 0
-6 -159 -204 0
-7 -160 -202 0
-8 -161 -203 0
-9 -162 -204 0
-10 -163 -202 0
-11 -164 -203 0
-12 -165 -204 0
-13 -166 -202 0
-14 -167 -203 0
-15 -168 -204 0
-16 -169 -202 0
-17 -170 -203 0
-18 -171 -204 0
-19 -172 -202 0
-20 -173 -203 0
-21 -174 -204 0
-22 -175 -202 0
-23 -176 -203 0
-24 -177 -204 0
-25 -178 -202 0
-26 -179 -203 0
-27 -180 -204 0
-28 -181 -202 0
-29 -182 -203 0
-30 -183 -204 0
-31 -184 -202 0
-32 -185 -203 0
-33 -186 -204 0
-34 -187 -202 0
-35 -188 -203 0
-36 -189 -204 0
-37 -190 -202 0
-38 -191 -203 0
-39 -192 -204 0
-40 -193 -202 0
-41 -194 -203 0
-42 -195 -204 0
-43 -196 -202 0
-44 -197 -203 0
-45 -198 -204 0
-46 -199 -202 0
-47 -200 -203 0
-48 -201 -204 0
-49 -202 0
-50 -203 0
-51 -204 0
-52 -202 -205 0
-53 -203 -206 0
-54 -204 -207 0
-55 -202 -208 0
-56 -203 -209 0
-57 -204 -210 0
-58 -202 -211 0
-59 -203 -212 0
-60 -204 -213 0
-61 -202 -214 0
-62 -203 -215 0
-63 -204 -216 0
-64 -202 -217 0
-65 -203 -218 0
-66 -204 -219 0
-1 -163 -214 0
-2 -164 -215 0
-3 -165 -216 0
-4 -166 -214 0
-5 -167 -215 0
-6 -168 -216 0
-7 -169 -214 0
-8 -170 -215 0
-9 -171 -216 0
-10 -172 -214 0
-11 -173 -215 0
-12 -174 -216 0
-13 -175 -214 0
-14 -176 -215 0
-15 -177 -216 0
-16 -178 -214 0
-17 -179 -215 0
-18 -180 -216 0
-19 -181 -214 0
-20 -182 -215 0
-21 -183 -216 0
-22 -184 -214 0
-23 -185 -215 0
-24 -186 -216 0
-25 -187 -214 0
-26 -188 -215 0
-27 -189 -216 0
-28 -190 -214 0
-29 -191 -215 0
-30 -192 -216 0
-31 -193 -214 0
-32 -194 -215 0
-33 -195 -216 0
-34 -196 -214 0
-35 -197 -215 0
-36 -198 -216 0
-37 -199 -214 0
-38 -200 -215 0
-39 -201 -216 0
-40 -202 -214 0
-41 -203 -215 0
-42 -204 -216 0
-43 -205 -214 0
-44 -206 -215 0
-45 -207 -216 0
-46 -208 -214 0
-47 -209 -215 0
-48 -210 -216 0
-49 -211 -214 0
-50 -212 -215 0
-51 -213 -216 0
-52 -214 0
-53 -215 0
-54 -216 0
-55 -214 -217 0
-56 -215 -218 0
-57 -216 -219 0
-1 -2 0
-1 -3 0
-2 -3 0
-4 -5 0
-4 -6 0
-5 -6 0
-7 -8 0
-7 -9 0
-8 -9 0
-10 -11 0
-10 -12 0
-11 -12 0
-13 -14 0
-13 -15 0
-14 -15 0
-16 -17 0
-16 -18 0
-17 -18 0
-19 -20 0
-19 -21 0
-20 -21 0
-22 -23 0
-22 -24 0
-23 -24 0
-25 -26 0
-25 -27 0
-26 -27 0
-28 -29 0
-28 -30 0
-29 -30 0
-31 -32 0
-31 -33 0
-32 -33 0
-34 -35 0
-34 -36 0
-35 -36 0
-37 -38 0
-37 -39 0
-38 -39 0
-40 -41 0
-40 -42 0
-41 -42 0
-43 -44 0
-43 -45 0
-44 -45 0
-46 -47 0
-46 -48 0
-47 -48 0
-49 -50 0
-49 -51 0
-50 -51 0
-52 -53 0
-52 -54 0
-53 -54 0
-55 -56 0
-55 -57 0
-56 -57 0
-58 -59 0
-58 -60 0
-59 -60 0
-61 -62 0
-61 -63 0
-62 -63 0
-64 -65 0
-64 -66 0
-65 -66 0
-67 -68 0
-67 -69 0
-68 -69 0
-70 -71 0
-70 -72 0
-71 -72 0
-73 -74 0
-73 -75 0
-74 -75 0
-76 -77 0
-76 -78 0
-77 -78 0
-79 -80 0
-79 -81 0
-80 -81 0
-82 -83 0
-82 -84 0
-83 -84 0
-85 -86 0
-85 -87 0
-86 -87 0
-88 -89 0
-88 -90 0
-89 -90 0
-91 -92 0
-91 -93 0
-92 -93 0
-94 -95 0
-94 -96 0
-95 -96 0
-97 -98 0
-97 -99 0
-98 -99 0
-100 -101 0
-100 -102 0
-101 -102 0
-103 -104 0
-103 -105 0
-104 -105 0
-106 -107 0
-106 -108 0
-107 -108 0
-109 -110 0
-109 -111 0
-110 -111 0
-112 -113 0
-112 -114 0
-113 -114 0
-115 -116 0
-115 -117 0
-116 -117 0
-118 -119 0
-118 -120 0
-119 -120 0
-121 -122 0
-121 -123 0
-122 -123 0
-124 -125 0
-124 -126 0
-125 -126 0
-127 -128 0
-127 -129 0
-128 -129 0
-130 -131 0
-130 -132 0
-131 -132 0
-133 -134 0
-133 -135 0
-134 -135 0
-136 -137 0
-136 -138 0
-137 -138 0
-139 -140 0
-139 -141 0
-140 -141 0
-142 -143 0
-142 -144 0
-143 -144 0
-145 -146 0
-145 -147 0
-146 -147 0
-148 -149 0
-148 -150 0
-149 -150 0
-151 -152 0
-151 -153 0
-152 -153 0
-154 -155 0
-154 -156 0
-155 -156 0
-157 -158 0
-157 -159 0
-158 -159 0
-160 -161 0
-160 -162 0
-161 -162 0
-163 -164 0
-163 -165 0
-164 -165 0
-166 -167 0
-166 -168 0
-167 -168 0
-169 -170 0
-169 -171 0
-170 -171 0
-172 -173 0
-172 -174 0
-173 -174 0
-175 -176 0
-175 -177 0
-176 -177 0
-178 -179 0
-178 -180 0
-179 -180 0
-181 -182 0
-181 -183 0
-182 -183 0
-184 -185 0
-184 -186 0
-185 -186 0
-187 -188 0
-187 -189 0
-188 -189 0
-190 -191 0
-190 -192 0
-191 -192 0
-193 -194 0
-193 -195 0
-194 -195 0
-196 -197 0
-196 -198 0
-197 -198 0
-199 -200 0
-199 -201 0
-200 -201 0
-202 -203 0
-202 -204 0
-203 -204 0
-205 -206 0
-205 -207 0
-206 -207 0
-208 -209 0
-208 -210 0
-209 -210 0
-211 -212 0
-211 -213 0
-212 -213 0
-214 -215 0
-214 -216 0
-215 -216 0
-217 -218 0
-217 -219 0
-218 -219 0
1 0
-5 1 0
-6 0
-8 1 4 0
-9 2 5 0
-11 1 4 7 0
-12 2 5 8 0
-14 1 4 7 10 0
-15 2 5 8 11 0
-17 1 4 7 10 13 0
-18 2 5 8 11 14 0
-20 1 4 7 10 13 16 0
-21 2 5 8 11 14 17 0
-23 1 4 7 10 13 16 19 0
-24 2 5 8 11 14 17 20 0
-26 1 4 7 10 13 16 19 22 0
-27 2 5 8 11 14 17 20 23 0
-29 1 4 7 10 13 16 19 22 25 0
-30 2 5 8 11 14 17 20 23 26 0
-32 1 4 7 10 13 16 19 22 25 28 0
-33 2 5 8 11 14 17 20 23 26 29 0
-35 1 4 7 10 13 16 19 22 25 28 31 0
-36 2 5 8 11 14 17 20 23 26 29 32 0
-38 1 4 7 10 13 16 19 22 25 28 31 34 0
-39 2 5 8 11 14 17 20 23 26 29 32 35 0
-41 1 4 7 10 13 16 19 22 25 28 31 34 37 0
-42 2 5 8 11 14 17 20 23 26 29 32 35 38 0
-44 1 4 7 10 13 16 19 22 25 28 31 34 37 40 0
-45 2 5 8 11 14 17 20 23 26 29 32 35 38 41 0
-47 1 4 7 10 13 16 19 22 25 28 31 34 37 40 43 0
-48 2 5 8 11 14 17 20 23 26 29 32 35 38 41 44 0
-50 1 4 7 10 13 16 19 22 25 28 31 34 37 40 43 46 0
-51 2 5 8 11 14 17 20 23 26 29 32 35 38 41 44 47 0
-53 1 4 7 10 13 16 19 22 25 28 31 34 37 40 43 46 49 0
-54 2 5 8 11 14 17 20 23 26 29 32 35 38 41 44 47 50 0
-56 1 4 7 10 13 16 19 22 25 28 31 34 37 40 43 46 49 52 0
-57 2 5 8 11 14 17 20 23 26 29 32 35 38 41 44 47 50 53 0
-59 1 4 7 10 13 16 19 22 25 28 31 34 37 40 43 46 49 52 55 0
-60 2 5 8 11 14 17 20 23 26 29 32 35 38 41 44 47 50 53 56 0
-62 1 4 7 10 13 16 19 22 25 28 31 34 37 40 43 46 49 52 55 58 0
-63 2 5 8 11 14 17 20 23 26 29 32 35 38 41 44 47 50 53 56 59 0
-65 1 4 7 10 13 16 19 22 25 28 31 34 37 40 43 46 49 52 55 58 61 0
-66 2 5 8 11 14 17 20 23 26 29 32 35 38 41 44 47 50 53 56 59 62 0
-68 1 4 7 10 13 16 19 22 25 28 31 34 37 40 43 46 49 52 55 58 61 64 0
-69 2 5 8 11 14 17 20 23 26 29 32 35 38 41 44 47 50 53 56 59 62 65 0
-71 1 4 7 10 13 16 19 22 25 28 31 34 37 40 43 46 49 52 55 58 61 64 67 0
-72 2 5 8 11 14 17 20 23 26 29 32 35 38 41 44 47 50 53 56 59 62 65 68 0
-74 1 4 7 10 13 16 19 22 25 28 31 34 37 40 43 46 49 52 55 58 61 64 67 70 0
-75 2 5 8 11 14 17 20 23 26 29 32 35 38 41 44 47 50 53 56 59 62 65 68 71 0
-77 1 4 7 10 13 16 19 22 25 28 31 34 37 40 43 46 49 52 55 58 61 64 67 70 73 0
-78 2 5 8 11 14 17 20 23 26 29 32 35 38 41 44 47 50 53 56 59 62 65 68 71 74 0
-80 1 4 7 10 13 16 19 22 25 28 31 34 37 40 43 46 49 52 55 58 61 64 67 70 73 76 0
-81 2 5 8 11 14 17 20 23 26 29 32 35 38 41 44 47 50 53 56 59 62 65 68 71 74 77 0
-83 1 4 7 10 13 16 19 22 25 28 31 34 37 40 43 46 49 52 55 58 61 64 67 70 73 76 79 0
-84 2 5 8 11 14 17 20 23 26 29 32 35 38 41 44 47 50 53 56 59 62 65 68 71 74 77 80 0
-86 1 4 7 10 13 16 19 22 25 28 31 34 37 40 43 46 49 52 55 58 61 64 67 70 73 76 79 82 0
-87 2 5 8 11 14 17 20 23 26 29 32 35 38 41 44 47 50 53 56 59 62 65 68 71 74 77 80 83 0
-89 1 4 7 10 13 16 19 22 25 28 31 34 37 40 43 46 49 52 55 58 61 64 67 70 73 76 79 82 85 0
-90 2 5 8 11 14 17 20 23 26 29 32 35 38 41 44 47 50 53 56 59 62 65 68 71 74 77 80 83 86 0
-92 1 4 7 10 13 16 19 22 25 28 31 34 37 40 43 46 49 52 55 58 61 64 67 70 73 76 79 82 85 88 0
-93 2 5 8 11 14 17 20 23 26 29 32 35 38 41 44 47 50 53 56 59 62 65 68 71 74 77 80 83 86 89 0
-95 1 4 7 10 13 16 19 22 25 28 31 34 37 40 43 46 49 52 55 58 61 64 67 70 73 76 79 82 85 88 91 0
-96 2 5 8 11 14 17 20 23 26 29 32 35 38 41 44 47 50 53 56 59 62 65 68 71 74 77 80 83 86 89 92 0
-98 1 4 7 10 13 16 19 22 25 28 31 34 37 40 43 46 49 52 55 58 61 64 67 70 73 76 79 82 85 88 91 94 0
-99 2 5 8 11 14 17 20 23 26 29 32 35 38 41 44 47 50 53 56 59 62 65 68 71 74 77 80 83 86 89 92 95 0
-101 1 4 7 10 13 16 19 22 25 28 31 34 37 40 43 46 49 52 55 58 61 64 67 70 73 76 79 82 85 88 91 94 97 0
-102 2 5 8 11 14 17 20 23 26 29 32 35 38 41 44 47 50 53 56 59 62 65 68 71 74 77 80 83 86 89 92 95 98 0
-104 1 4 7 10 13 16 19 22 25 28 31 34 37 40 43 46 49 52 55 58 61 64 67 70 73 76 79 82 85 88 91 94 97 100 0
-105 2 5 8 11 14 17 20 23 26 29 32 35 38 41 44 47 50 53 56 59 62 65 68 71 74 77 80 83 86 89 92 95 98 101 0
-107 1 4 7 10 13 16 19 22 25 28 31 34 37 40 43 46 49 52 55 58 61 64 67 70 73 76 79 82 85 88 91 94 97 100 103 0
-108 2 5 8 11 14 17 20 23 26 29 32 35 38 41 44 47 50 53 56 59 62 65 68 71 74 77 80 83 86 89 92 95 98 101 104 0
-110 1 4 7 10 13 16 19 22 25 28 31 34 37 40 43 46 49 52 55 58 61 64 67 70 73 76 79 82 85 88 91 94 97 100 103 106 0
-111 2 5 8 11 14 17 20 23 26 29 32 35 38 41 44 47 50 53 56 59 62 65 68 71 74 77 80 83 86 89 92 95 98 101 104 107 0
-113 1 4 7 10 13 16 19 22 25 28 31 34 37 40 43 46 49 52 55 58 61 64 67 70 73 76 79 82 85 88 91 94 97 100 103 106 109 0
-114 2 5 8 11 14 17 20 23 26 29 32 35 38 41 44 47 50 53 56 59 62 65 68 71 74 77 80 83 86 89 92 95 98 101 104 107 110 0
-116 1 4 7 10 13 16 19 22 25 28 31 34 37 40 43 46 49 52 55 58 61 64 67 70 73 76 79 82 85 88 91 94 97 100 103 106 109 112 0
-117 2 5 8 11 14 17 20 23 26 29 32 35 38 41 44 47 50 53 56 59 62 65 68 71 74 77 80 83 86 89 92 95 98 101 104 107 110 113 0
-119 1 4 7 10 13 16 19 22 25 28 31 34 37 40 43 46 49 52 55 58 61 64 67 70 73 76 79 82 85 88 91 94 97 100 103 106 109 112 115 0
-120 2 5 8 11 14 17 20 23 26 29 32 35 38 41 44 47 50 53 56 59 62 65 68 71 74 77 80 83 86 89 92 95 98 101 104 107 110 113 116 0
-122 1 4 7 10 13 16 19 22 25 28 31 34 37 40 43 46 49 52 55 58 61 64 67 70 73 76 79 82 85 88 91 94 97 100 103 106 109 112 115 118 0
-123 2 5 8 11 14 17 20 23 26 29 32 35 38 41 44 47 50 53 56 59 62 65 68 71 74 77 80 83 86 89 92 95 98 101 104 107 110 113 116 119 0
-125 1 4 7 10 13 16 19 22 25 28 31 34 37 40 43 46 49 52 55 58 61 64 67 70 73 76 79 82 85 88 91 94 97 100 103 106 109 112 115 118 121 0
-126 2 5 8 11 14 17 20 23 26 29 32 35 38 41 44 47 50 53 56 59 62 65 68 71 74 77 80 83 86 89 92 95 98 101 104 107 110 113 116 119 122 0
-128 1 4 7 10 13 16 19 22 25 28 31 34 37 40 43 46 49 52 55 58 61 64 67 70 73 76 79 82 85 88 91 94 97 100 103 106 109 112 115 118 121 124 0
-129 2 5 8 11 14 17 20 23 26 29 32 35 38 41 44 47 50 53 56 59 62 65 68 71 74 77 80 83 86 89 92 95 98 101 104 107 110 113 116 119 122 125 0
-131 1 4 7 10 13 16 19 22 25 28 31 34 37 40 43 46 49 52 55 58 61 64 67 70 73 76 79 82 85 88 91 94 97 100 103 106 109 112 115 118 121 124 127 0
-132 2 5 8 11 14 17 20 23 26 29 32 35 38 41 44 47 50 53 56 59 62 65 68 71 74 77 80 83 86 89 92 95 98 101 104 107 110 113 116 119 122 125 128 0
-134 1 4 7 10 13 16 19 22 25 28 31 34 37 40 43 46 49 52 55 58 61 64 67 70 73 76 79 82 85 88 91 94 97 100 103 106 109 112 115 118 121 124 127 130 0
-135 2 5 8 11 14 17 20 23 26 29 32 35 38 41 44 47 50 53 56 59 62 65 68 71 74 77 80 83 86 89 92 95 98 101 104 107 110 113 116 119 122 125 128 131 0
-137 1 4 7 10 13 16 19 22 25 28 31 34 37 40 43 46 49 52 55 58 61 64 67 70 73 76 79 82 85 88 91 94 97 100 103 106 109 112 115 118 121 124 127 130 133 0
-138 2 5 8 11 14 17 20 23 26 29 32 35 38 41 44 47 50 53 56 59 62 65 68 71 74 77 80 83 86 89 92 95 98 101 104 107 110 113 116 119 122 125 128 131 134 0
-140 1 4 7 10 13 16 19 22 25 28 31 34 37 40 43 46 49 52 55 58 61 64 67 70 73 76 79 82 85 88 91 94 97 100 103 106 109 112 115 118 121 124 127 130 133 136 0
-141 2 5 8 11 14 17 20 23 26 29 32 35 38 41 44 47 50 53 56 59 62 65 68 71 74 77 80 83 86 89 92 95 98 101 104 107 110 113 116 119 122 125 128 131 134 137 0
-143 1 4 7 10 13 16 19 22 25 28 31 34 37 40 43 46 49 52 55 58 61 64 67 70 73 76 79 82 85 88 91 94 97 100 103 106 109 112 115 118 121 124 127 130 133 136 139 0
-144 2 5 8 11 14 17 20 23 26 29 32 35 38 41 44 47 50 53 56 59 62 65 68 71 74 77 80 83 86 89 92 95 98 101 104 107 110 113 116 119 122 125 128 131 134 137 140 0
-146 1 4 7 10 13 16 19 22 25 28 31 34 37 40 43 46 49 52 55 58 61 64 67 70 73 76 79 82 85 88 91 94 97 100 103 106 109 112 115 118 121 124 127 130 133 136 139 142 0
-147 2 5 8 11 14 17 20 23 26 29 32 35 38 41 44 47 50 53 56 59 62 65 68 71 74 77 80 83 86 89 92 95 98 101 104 107 110 113 116 119 122 125 128 131 134 137 140 143 0
-149 1 4 7 10 13 16 19 22 25 28 31 34 37 40 43 46 49 52 55 58 61 64 67 70 73 76 79 82 85 88 91 94 97 100 103 106 109 112 115 118 121 124 127 130 133 136 139 142 145 0
-150 2 5 8 11 14 17 20 23 26 29 32 35 38 41 44 47 50 53 56 59 62 65 68 71 74 77 80 83 86 89 92 95 98 101 104 107 110 113 116 119 122 125 128 131 134 137 140 143 146 0
-152 1 4 7 10 13 16 19 22 25 28 31 34 37 40 43 46 49 52 55 58 61 64 67 70 73 76 79 82 85 88 91 94 97 100 103 106 109 112 115 118 121 124 127 130 133 136 139 142 145 148 0
-153 2 5 8 11 14 17 20 23 26 29 32 35 38 41 44 47 50 53 56 59 62 65 68 71 74 77 80 83 86 89 92 95 98 101 104 107 110 113 116 119 122 125 128 131 134 137 140 143 146 149 0
-155 1 4 7 10 13 16 19 22 25 28 31 34 37 40 43 46 49 52 55 58 61 64 67 70 73 76 79 82 85 88 91 94 97 100 103 106 109 112 115 118 121 124 127 130 133 136 139 142 145 148 151 0
-156 2 5 8 11 14 17 20 23 26 29 32 35 38 41 44 47 50 53 56 59 62 65 68 71 74 77 80 83 86 89 92 95 98 101 104 107 110 113 116 119 122 125 128 131 134 137 140 143 146 149 152 0
-158 1 4 7 10 13 16 19 22 25 28 31 34 37 40 43 46 49 52 55 58 61 64 67 70 73 76 79 82 85 88 91 94 97 100 103 106 109 112 115 118 121 124 127 130 133 136 139 142 145 148 151 154 0
-159 2 5 8 11 14 17 20 23 26 29 32 35 38 41 44 47 50 53 56 59 62 65 68 71 74 77 80 83 86 89 92 95 98 101 104 107 110 113 116 119 122 125 128 131 134 137 140 143 146 149 152 155 0
-161 1 4 7 10 13 16 19 22 25 28 31 34 37 40 43 46 49 52 55 58 61 64 67 70 73 76 79 82 85 88 91 94 97 100 103 106 109 112 115 118 121 124 127 130 133 136 139 142 145 148 151 154 157 0
-162 2 5 8 11 14 17 20 23 26 29 32 35 38 41 44 47 50 53 56 59 62 65 68 71 74 77 80 83 86 89 92 95 98 101 104 107 110 113 116 119 122 125 128 131 134 137 140 143 146 149 152 155 158 0
-164 1 4 7 10 13 16 19 22 25 28 31 34 37 40 43 46 49 52 55 58 61 64 67 70 73 76 79 82 85 88 91 94 97 100 103 106 109 112 115 118 121 124 127 130 133 136 139 142 145 148 151 154 157 160 0
-165 2 5 8 11 14 17 20 23 26 29 32 35 38 41 44 47 50 53 56 59 62 65 68 71 74 77 80 83 86 89 92 95 98 101 104 107 110 113 116 119 122 125 128 131 134 137 140 143 146 149 152 155 158 161 0
-167 1 4 7 10 13 16 19 22 25 28 31 34 37 40 43 46 49 52 55 58 61 64 67 70 73 76 79 82 85 88 91 94 97 100 103 106 109 112 115 118 121 124 127 130 133 136 139 142 145 148 151 154 157 160 163 0
-168 2 5 8 11 14 17 20 23 26 29 32 35 38 41 44 47 50 53 56 59 62 65 68 71 74 77 80 83 86 89 92 95 98 101 104 107 110 113 116 119 122 125 128 131 134 137 140 143 146 149 152 155 158 161 164 0
-170 1 4 7 10 13 16 19 22 25 28 31 34 37 40 43 46 49 52 55 58 61 64 67 70 73 76 79 82 85 88 91 94 97 100 103 106 109 112 115 118 121 124 127 130 133 136 139 142 145 148 151 154 157 160 163 166 0
-171 2 5 8 11 14 17 20 23 26 29 32 35 38 41 44 47 50 53 56 59 62 65 68 71 74 77 80 83 86 89 92 95 98 101 104 107 110 113 116 119 122 125 128 131 134 137 140 143 146 149 152 155 158 161 164 167 0
-173 1 4 7 10 13 16 19 22 25 28 31 34 37 40 43 46 49 52 55 58 61 64 67 70 73 76 79 82 85 88 91 94 97 100 103 106 109 112 115 118 121 124 127 130 133 136 139 142 145 148 151 154 157 160 163 166 169 0
-174 2 5 8 11 14 17 20 23 26 29 32 35 38 41 44 47 50 53 56 59 62 65 68 71 74 77 80 83 86 89 92 95 98 101 104 107 110 113 116 119 122 125 128 131 134 137 140 143 146 149 152 155 158 161 164 167 170 0
-176 1 4 7 10 13 16 19 22 25 28 31 34 37 40 43 46 49 52 55 58 61 64 67 70 73 76 79 82 85 88 91 94 97 100 103 106 109 112 115 118 121 124 127 130 133 136 139 142 145 148 151 154 157 160 163 166 169 172 0
-177 2 5 8 11 14 17 20 23 26 29 32 35 38 41 44 47 50 53 56 59 62 65 68 71 74 77 80 83 86 89 92 95 98 101 104 107 110 113 116 119 122 125 128 131 134 137 140 143 146 149 152 155 158 161 164 167 170 173 0
-179 1 4 7 10 13 16 19 22 25 28 31 34 37 40 43 46 49 52 55 58 61 64 67 70 73 76 79 82 85 88 91 94 97 100 103 106 109 112 115 118 121 124 127 130 133 136 139 142 145 148 151 154 157 160 163 166 169 172 175 0
-180 2 5 8 11 14 17 20 23 26 29 32 35 38 41 44 47 50 53 56 59 62 65 68 71 74 77 80 83 86 89 92 95 98 101 104 107 110 113 116 119 122 125 128 131 134 137 140 143 146 149 152 155 158 161 164 167 170 173 176 0
-182 1 4 7 10 13 16 19 22 25 28 31 34 37 40 43 46 49 52 55 58 61 64 67 70 73 76 79 82 85 88 91 94 97 100 103 106 109 112 115 118 121 124 127 130 133 136 139 142 145 148 151 154 157 160 163 166 169 172 175 178 0
-183 2 5 8 11 14 17 20 23 26 29 32 35 38 41 44 47 50 53 56 59 62 65 68 71 74 77 80 83 86 89 92 95 98 101 104 107 110 113 116 119 122 125 128 131 134 137 140 143 146 149 152 155 158 161 164 167 170 173 176 179 0
-185 1 4 7 10 13 16 19 22 25 28 31 34 37 40 43 46 49 52 55 58 61 64 67 70 73 76 79 82 85 88 91 94 97 100 103 106 109 112 115 118 121 124 127 130 133 136 139 142 145 148 151 154 157 160 163 166 169 172 175 178 181 0
-186 2 5 8 11 14 17 20 23 26 29 32 35 38 41 44 47 50 53 56 59 62 65 68 71 74 77 80 83 86 89 92 95 98 101 104 107 110 113 116 119 122 125 128 131 134 137 140 143 146 149 152 155 158 161 164 167 170 173 176 179 182 0
-188 1 4 7 10 13 16 19 22 25 28 31 34 37 40 43 46 49 52 55 58 61 64 67 70 73 76 79 82 85 88 91 94 97 100 103 106 109 112 115 118 121 124 127 130 133 136 139 142 145 148 151 154 157 160 163 166 169 172 175 178 181 184 0
-189 2 5 8 11 14 17 20 23 26 29 32 35 38 41 44 47 50 53 56 59 62 65 68 71 74 77 80 83 86 89 92 95 98 101 104 107 110 113 116 119 122 125 128 131 134 137 140 143 146 149 152 155 158 161 164 167 170 173 176 179 182 185 0
-191 1 4 7 10 13 16 19 22 25 28 31 34 37 40 43 46 49 52 55 58 61 64 67 70 73 76 79 82 85 88 91 94 97 100 103 106 109 112 115 118 121 124 127 130 133 136 139 142 145 148 151 154 157 160 163 166 169 172 175 178 181 184 187 0
-192 2 5 8 11 14 17 20 23 26 29 32 35 38 41 44 47 50 53 56 59 62 65 68 71 74 77 80 83 86 89 92 95 98 101 104 107 110 113 116 119 122 125 128 131 134 137 140 143 146 149 152 155 158 161 164 167 170 173 176 179 182 185 188 0
-194 1 4 7 10 13 16 19 22 25 28 31 34 37 40 43 46 49 52 55 58 61 64 67 70 73 76 79 82 85 88 91 94 97 100 103 106 109 112 115 118 121 124 127 130 133 136 139 142 145 148 151 154 157 160 163 166 169 172 175 178 181 184 187 190 0
-195 2 5 8 11 14 17 20 23 26 29 32 35 38 41 44 47 50 53 56 59 62 65 68 71 74 77 80 83 86 89 92 95 98 101 104 107 110 113 116 119 122 125 128 131 134 137 140 143 146 149 152 155 158 161 164 167 170 173 176 179 182 185 188 191 0
-197 1 4 7 10 13 16 19 22 25 28 31 34 37 40 43 46 49 52 55 58 61 64 67 70 73 76 79 82 85 88 91 94 97 100 103 106 109 112 115 118 121 124 127 130 133 136 139 142 145 148 151 154 157 160 163 166 169 172 175 178 181 184 187 190 193 0
-198 2 5 8 11 14 17 20 23 26 29 32 35 38 41 44 47 50 53 56 59 62 65 68 71 74 77 80 83 86 89 92 95 98 101 104 107 110 113 116 119 122 125 128 131 134 137 140 143 146 149 152 155 158 161 164 167 170 173 176 179 182 185 188 191 194 0
-200 1 4 7 10 13 16 19 22 25 28 31 34 37 40 43 46 49 52 55 58 61 64 67 70 73 76 79 82 85 88 91 94 97 100 103 106 109 112 115 118 121 124 127 130 133 136 139 142 145 148 151 154 157 160 163 166 169 172 175 178 181 184 187 190 193 196 0
-201 2 5 8 11 14 17 20 23 26 29 32 35 38 41 44 47 50 53 56 59 62 65 68 71 74 77 80 83 86 89 92 95 98 101 104 107 110 113 116 119 122 125 128 131 134 137 140 143 146 149 152 155 158 161 164 167 170 173 176 179 182 185 188 191 194 197 0
-203 1 4 7 10 13 16 19 22 25 28 31 34 37 40 43 46 49 52 55 58 61 64 67 70 73 76 79 82 85 88 91 94 97 100 103 106 109 112 115 118 121 124 127 130 133 136 139 142 145 148 151 154 157 160 163 166 169 172 175 178 181 184 187 190 193 196 199 0
-204 2 5 8 11 14 17 20 23 26 29 32 35 38 41 44 47 50 53 56 59 62 65 68 71 74 77 80 83 86 89 92 95 98 101 104 107 110 113 116 119 122 125 128 131 134 137 140 143 146 149 152 155 158 161 164 167 170 173 176 179 182 185 188 191 194 197 200 0
-206 1 4 7 10 13 16 19 22 25 28 31 34 37 40 43 46 49 52 55 58 61 64 67 70 73 76 79 82 85 88 91 94 97 100 103 106 109 112 115 118 121 124 127 130 133 136 139 142 145 148 151 154 157 160 163 166 169 172 175 178 181 184 187 190 193 196 199 202 0
-207 2 5 8 11 14 17 20 23 26 29 32 35 38 41 44 47 50 53 56 59 62 65 68 71 74 77 80 83 86 89 92 95 98 101 104 107 110 113 116 119 122 125 128 131 134 137 140 143 146 149 152 155 158 161 164 167 170 173 176 179 182 185 188 191 194 197 200 203 0
-209 1 4 7 10 13 16 19 22 25 28 31 34 37 40 43 46 49 52 55 58 61 64 67 70 73 76 79 82 85 88 91 94 97 100 103 106 109 112 115 118 121 124 127 130 133 136 139 142 145 148 151 154 157 160 163 166 169 172 175 178 181 184 187 190 193 196 199 202 205 0
-210 2 5 8 11 14 17 20 23 26 29 32 35 38 41 44 47 50 53 56 59 62 65 68 71 74 77 80 83 86 89 92 95 98 101 104 107 110 113 116 119 122 125 128 131 134 137 140 143 146 149 152 155 158 161 164 167 170 173 176 179 182 185 188 191 194 197 200 203 206 0
-212 1 4 7 10 13 16 19 22 25 28 31 34 37 40 43 46 49 52 55 58 61 64 67 70 73 76 79 82 85 88 91 94 97 100 103 106 109 112 115 118 121 124 127 130 133 136 139 142 145 148 151 154 157 160 163 166 169 172 175 178 181 184 187 190 193 196 199 202 205 208 0
-213 2 5 8 11 14 17 20 23 26 29 32 35 38 41 44 47 50 53 56 59 62 65 68 71 74 77 80 83 86 89 92 95 98 101 104 107 110 113 116 119 122 125 128 131 134 137 140 143 146 149 152 155 158 161 164 167 170 173 176 179 182 185 188 191 194 197 200 203 206 209 0
-215 1 4 7 10 13 16 19 22 25 28 31 34 37 40 43 46 49 52 55 58 61 64 67 70 73 76 79 82 85 88 91 94 97 100 103 106 109 112 115 118 121 124 127 130 133 136 139 142 145 148 151 154 157 160 163 166 169 172 175 178 181 184 187 190 193 196 199 202 205 208 211 0
-216 2 5 8 11 14 17 20 23 26 29 32 35 38 41 44 47 50 53 56 59 62 65 68 71 74 77 80 83 86 89 92 95 98 101 104 107 110 113 116 119 122 125 128 131 134 137 140 143 146 149 152 155 158 161 164 167 170 173 176 179 182 185 188 191 194 197 200 203 206 209 212 0
-218 1 4 7 10 13 16 19 22 25 28 31 34 37 40 43 46 49 52 55 58 61 64 67 70 73 76 79 82 85 88 91 94 97 100 103 106 109 112 115 118 121 124 127 130 133 136 139 142 145 148 151 154 157 160 163 166 169 172 175 178 181 184 187 190 193 196 199 202 205 208 211 214 0
-219 2 5 8 11 14 17 20 23 26 29 32 35 38 41 44 47 50 53 56 59 62 65 68 71 74 77 80 83 86 89 92 95 98 101 104 107 110 113 116 119 122 125 128 131 134 137 140 143 146 149 152 155 158 161 164 167 170 173 176 179 182 185 188 191 194 197 200 203 206 209 212 215 0
