p cnf 192 3047
1 2 3 0
4 5 6 0
7 8 9 0
10 11 12 0
13 14 15 0
16 17 18 0
19 20 21 0
22 23 24 0
25 26 27 0
28 29 30 0
31 32 33 0
34 35 36 0
37 38 39 0
40 41 42 0
43 44 45 0
46 47 48 0
49 50 51 0
52 53 54 0
55 56 57 0
58 59 60 0
61 62 63 0
64 65 66 0
67 68 69 0
70 71 72 0
73 74 75 0
76 77 78 0
79 80 81 0
82 83 84 0
85 86 87 0
88 89 90 0
91 92 93 0
94 95 96 0
97 98 99 0
100 101 102 0
103 104 105 0
106 107 108 0
109 110 111 0
112 113 114 0
115 116 117 0
118 119 120 0
121 122 123 0
124 125 126 0
127 128 129 0
130 131 132 0
133 134 135 0
136 137 138 0
139 140 141 0
142 143 144 0
145 146 147 0
148 149 150 0
151 152 153 0
154 155 156 0
157 158 159 0
160 161 162 0
163 164 165 0
166 167 168 0
169 170 171 0
172 173 174 0
175 176 177 0
178 179 180 0
181 182 183 0
184 185 186 0
187 188 189 0
190 191 192 0
-1 -4 -10 0
-2 -5 -11 0
-3 -6 -12 0
-4 -7 -10 0
-5 -8 -11 0
-6 -9 -12 0
-7 -10 0
-8 -11 0
-9 -12 0
-10 -13 0
-11 -14 0
-12 -15 0
-10 -13 -16 0
-11 -14 -17 0
-12 -15 -18 0
-10 -16 -19 0
-11 -17 -20 0
-12 -18 -21 0
-10 -19 -22 0
-11 -20 -23 0
-12 -21 -24 0
-10 -22 -25 0
-11 -23 -26 0
-12 -24 -27 0
-10 -25 -28 0
-11 -26 -29 0
-12 -27 -30 0
-10 -28 -31 0
-11 -29 -32 0
-12 -30 -33 0
-10 -31 -34 0
-11 -32 -35 0
-12 -33 -36 0
-10 -34 -37 0
-11 -35 -38 0
-12 -36 -39 0
-10 -37 -40 0
-11 -38 -41 0
-12 -39 -42 0
-10 -40 -43 0
-11 -41 -44 0
-12 -42 -45 0
-10 -43 -46 0
-11 -44 -47 0
-12 -45 -48 0
-10 -46 -49 0
-11 -47 -50 0
-12 -48 -51 0
-10 -49 -52 0
-11 -50 -53 0
-12 -51 -54 0
-10 -52 -55 0
-11 -53 -56 0
-12 -54 -57 0
-10 -55 -58 0
-11 -56 -59 0
-12 -57 -60 0
-10 -58 -61 0
-11 -59 -62 0
-12 -60 -63 0
-10 -61 -64 0
-11 -62 -65 0
-12 -63 -66 0
-10 -64 -67 0
-11 -65 -68 0
-12 -66 -69 0
-10 -67 -70 0
-11 -68 -71 0
-12 -69 -72 0
-10 -70 -73 0
-11 -71 -74 0
-12 -72 -75 0
-10 -73 -76 0
-11 -74 -77 0
-12 -75 -78 0
-10 -76 -79 0
-11 -77 -80 0
-12 -78 -81 0
-10 -79 -82 0
-11 -80 -83 0
-12 -81 -84 0
-10 -82 -85 0
-11 -83 -86 0
-12 -84 -87 0
-10 -85 -88 0
-11 -86 -89 0
-12 -87 -90 0
-10 -88 -91 0
-11 -89 -92 0
-12 -90 -93 0
-10 -91 -94 0
-11 -92 -95 0
-12 -93 -96 0
-10 -94 -97 0
-11 -95 -98 0
-12 -96 -99 0
-10 -97 -100 0
-11 -98 -101 0
-12 -99 -102 0
-10 -100 -103 0
-11 -101 -104 0
-12 -102 -105 0
-10 -103 -106 0
-11 -104 -107 0
-12 -105 -108 0
-10 -106 -109 0
-11 -107 -110 0
-12 -108 -111 0
-10 -109 -112 0
-11 -110 -113 0
-12 -111 -114 0
-10 -112 -115 0
-11 -113 -116 0
-12 -114 -117 0
-10 -115 -118 0
-11 -116 -119 0
-12 -117 -120 0
-10 -118 -121 0
-11 -119 -122 0
-12 -120 -123 0
-10 -121 -124 0
-11 -122 -125 0
-12 -123 -126 0
-10 -124 -127 0
-11 -125 -128 0
-12 -126 -129 0
-10 -127 -130 0
-11 -128 -131 0
-12 -129 -132 0
-10 -130 -133 0
-11 -131 -134 0
-12 -132 -135 0
-10 -133 -136 0
-11 -134 -137 0
-12 -135 -138 0
-10 -136 -139 0
-11 -137 -140 0
-12 -138 -141 0
-10 -139 -142 0
-11 -140 -143 0
-12 -141 -144 0
-10 -142 -145 0
-11 -143 -146 0
-12 -144 -147 0
-10 -145 -148 0
-11 -146 -149 0
-12 -147 -150 0
-10 -148 -151 0
-11 -149 -152 0
-12 -150 -153 0
-10 -151 -154 0
-11 -152 -155 0
-12 -153 -156 0
-10 -154 -157 0
-11 -155 -158 0
-12 -156 -159 0
-10 -157 -160 0
-11 -158 -161 0
-12 -159 -162 0
-10 -160 -163 0
-11 -161 -164 0
-12 -162 -165 0
-10 -163 -166 0
-11 -164 -167 0
-12 -165 -168 0
-10 -166 -169 0
-11 -167 -170 0
-12 -168 -171 0
-10 -169 -172 0
-11 -170 -173 0
-12 -171 -174 0
-10 -172 -175 0
-11 -173 -176 0
-12 -174 -177 0
-10 -175 -178 0
-11 -176 -179 0
-12 -177 -180 0
-10 -178 -181 0
-11 -179 -182 0
-12 -180 -183 0
-10 -181 -184 0
-11 -182 -185 0
-12 -183 -186 0
-10 -184 -187 0
-11 -185 -188 0
-12 -186 -189 0
-10 -187 -190 0
-11 -188 -191 0
-12 -189 -192 0
-1 -7 -22 0
-2 -8 -23 0
-3 -9 -24 0
-4 -10 -22 0
-5 -11 -23 0
-6 -12 -24 0
-7 -13 -22 0
-8 -14 -23 0
-9 -15 -24 0
-10 -16 -22 0
-11 -17 -23 0
-12 -18 -24 0
-13 -19 -22 0
-14 -20 -23 0
-15 -21 -24 0
-16 -22 0
-17 -23 0
-18 -24 0
-19 -22 -25 0
-20 -23 -26 0
-21 -24 -27 0
-22 -28 0
-23 -29 0
-24 -30 0
-22 -25 -31 0
-23 -26 -32 0
-24 -27 -33 0
-22 -28 -34 0
-23 -29 -35 0
-24 -30 -36 0
-22 -31 -37 0
-23 -32 -38 0
-24 -33 -39 0
-22 -34 -40 0
-23 -35 -41 0
-24 -36 -42 0
-22 -37 -43 0
-23 -38 -44 0
-24 -39 -45 0
-22 -40 -46 0
-23 -41 -47 0
-24 -42 -48 0
-22 -43 -49 0
-23 -44 -50 0
-24 -45 -51 0
-22 -46 -52 0
-23 -47 -53 0
-24 -48 -54 0
-22 -49 -55 0
-23 -50 -56 0
-24 -51 -57 0
-22 -52 -58 0
-23 -53 -59 0
-24 -54 -60 0
-22 -55 -61 0
-23 -56 -62 0
-24 -57 -63 0
-22 -58 -64 0
-23 -59 -65 0
-24 -60 -66 0
-22 -61 -67 0
-23 -62 -68 0
-24 -63 -69 0
-22 -64 -70 0
-23 -65 -71 0
-24 -66 -72 0
-22 -67 -73 0
-23 -68 -74 0
-24 -69 -75 0
-22 -70 -76 0
-23 -71 -77 0
-24 -72 -78 0
-22 -73 -79 0
-23 -74 -80 0
-24 -75 -81 0
-22 -76 -82 0
-23 -77 -83 0
-24 -78 -84 0
-22 -79 -85 0
-23 -80 -86 0
-24 -81 -87 0
-22 -82 -88 0
-23 -83 -89 0
-24 -84 -90 0
-22 -85 -91 0
-23 -86 -92 0
-24 -87 -93 0
-22 -88 -94 0
-23 -89 -95 0
-24 -90 -96 0
-22 -91 -97 0
-23 -92 -98 0
-24 -93 -99 0
-22 -94 -100 0
-23 -95 -101 0
-24 -96 -102 0
-22 -97 -103 0
-23 -98 -104 0
-24 -99 -105 0
-22 -100 -106 0
-23 -101 -107 0
-24 -102 -108 0
-22 -103 -109 0
-23 -104 -110 0
-24 -105 -111 0
-22 -106 -112 0
-23 -107 -113 0
-24 -108 -114 0
-22 -109 -115 0
-23 -110 -116 0
-24 -111 -117 0
-22 -112 -118 0
-23 -113 -119 0
-24 -114 -120 0
-22 -115 -121 0
-23 -116 -122 0
-24 -117 -123 0
-22 -118 -124 0
-23 -119 -125 0
-24 -120 -126 0
-22 -121 -127 0
-23 -122 -128 0
-24 -123 -129 0
-22 -124 -130 0
-23 -125 -131 0
-24 -126 -132 0
-22 -127 -133 0
-23 -128 -134 0
-24 -129 -135 0
-22 -130 -136 0
-23 -131 -137 0
-24 -132 -138 0
-22 -133 -139 0
-23 -134 -140 0
-24 -135 -141 0
-22 -136 -142 0
-23 -137 -143 0
-24 -138 -144 0
-22 -139 -145 0
-23 -140 -146 0
-24 -141 -147 0
-22 -142 -148 0
-23 -143 -149 0
-24 -144 -150 0
-22 -145 -151 0
-23 -146 -152 0
-24 -147 -153 0
-22 -148 -154 0
-23 -149 -155 0
-24 -150 -156 0
-22 -151 -157 0
-23 -152 -158 0
-24 -153 -159 0
-22 -154 -160 0
-23 -155 -161 0
-24 -156 -162 0
-22 -157 -163 0
-23 -158 -164 0
-24 -159 -165 0
-22 -160 -166 0
-23 -161 -167 0
-24 -162 -168 0
-22 -163 -169 0
-23 -164 -170 0
-24 -165 -171 0
-22 -166 -172 0
-23 -167 -173 0
-24 -168 -174 0
-22 -169 -175 0
-23 -170 -176 0
-24 -171 -177 0
-22 -172 -178 0
-23 -173 -179 0
-24 -174 -180 0
-22 -175 -181 0
-23 -176 -182 0
-24 -177 -183 0
-22 -178 -184 0
-23 -179 -185 0
-24 -180 -186 0
-22 -181 -187 0
-23 -182 -188 0
-24 -183 -189 0
-22 -184 -190 0
-23 -185 -191 0
-24 -186 -192 0
-1 -10 -34 0
-2 -11 -35 0
-3 -12 -36 0
-4 -13 -34 0
-5 -14 -35 0
-6 -15 -36 0
-7 -16 -34 0
-8 -17 -35 0
-9 -18 -36 0
-10 -19 -34 0
-11 -20 -35 0
-12 -21 -36 0
-13 -22 -34 0
-14 -23 -35 0
-15 -24 -36 0
-16 -25 -34 0
-17 -26 -35 0
-18 -27 -36 0
-19 -28 -34 0
-20 -29 -35 0
-21 -30 -36 0
-22 -31 -34 0
-23 -32 -35 0
-24 -33 -36 0
-25 -34 0
-26 -35 0
-27 -36 0
-28 -34 -37 0
-29 -35 -38 0
-30 -36 -39 0
-31 -34 -40 0
-32 -35 -41 0
-33 -36 -42 0
-34 -43 0
-35 -44 0
-36 -45 0
-34 -37 -46 0
-35 -38 -47 0
-36 -39 -48 0
-34 -40 -49 0
-35 -41 -50 0
-36 -42 -51 0
-34 -43 -52 0
-35 -44 -53 0
-36 -45 -54 0
-34 -46 -55 0
-35 -47 -56 0
-36 -48 -57 0
-34 -49 -58 0
-35 -50 -59 0
-36 -51 -60 0
-34 -52 -61 0
-35 -53 -62 0
-36 -54 -63 0
-34 -55 -64 0
-35 -56 -65 0
-36 -57 -66 0
-34 -58 -67 0
-35 -59 -68 0
-36 -60 -69 0
-34 -61 -70 0
-35 -62 -71 0
-36 -63 -72 0
-34 -64 -73 0
-35 -65 -74 0
-36 -66 -75 0
-34 -67 -76 0
-35 -68 -77 0
-36 -69 -78 0
-34 -70 -79 0
-35 -71 -80 0
-36 -72 -81 0
-34 -73 -82 0
-35 -74 -83 0
-36 -75 -84 0
-34 -76 -85 0
-35 -77 -86 0
-36 -78 -87 0
-34 -79 -88 0
-35 -80 -89 0
-36 -81 -90 0
-34 -82 -91 0
-35 -83 -92 0
-36 -84 -93 0
-34 -85 -94 0
-35 -86 -95 0
-36 -87 -96 0
-34 -88 -97 0
-35 -89 -98 0
-36 -90 -99 0
-34 -91 -100 0
-35 -92 -101 0
-36 -93 -102 0
-34 -94 -103 0
-35 -95 -104 0
-36 -96 -105 0
-34 -97 -106 0
-35 -98 -107 0
-36 -99 -108 0
-34 -100 -109 0
-35 -101 -110 0
-36 -102 -111 0
-34 -103 -112 0
-35 -104 -113 0
-36 -105 -114 0
-34 -106 -115 0
-35 -107 -116 0
-36 -108 -117 0
-34 -109 -118 0
-35 -110 -119 0
-36 -111 -120 0
-34 -112 -121 0
-35 -113 -122 0
-36 -114 -123 0
-34 -115 -124 0
-35 -116 -125 0
-36 -117 -126 0
-34 -118 -127 0
-35 -119 -128 0
-36 -120 -129 0
-34 -121 -130 0
-35 -122 -131 0
-36 -123 -132 0
-34 -124 -133 0
-35 -125 -134 0
-36 -126 -135 0
-34 -127 -136 0
-35 -128 -137 0
-36 -129 -138 0
-34 -130 -139 0
-35 -131 -140 0
-36 -132 -141 0
-34 -133 -142 0
-35 -134 -143 0
-36 -135 -144 0
-34 -136 -145 0
-35 -137 -146 0
-36 -138 -147 0
-34 -139 -148 0
-35 -140 -149 0
-36 -141 -150 0
-34 -142 -151 0
-35 -143 -152 0
-36 -144 -153 0
-34 -145 -154 0
-35 -146 -155 0
-36 -147 -156 0
-34 -148 -157 0
-35 -149 -158 0
-36 -150 -159 0
-34 -151 -160 0
-35 -152 -161 0
-36 -153 -162 0
-34 -154 -163 0
-35 -155 -164 0
-36 -156 -165 0
-34 -157 -166 0
-35 -158 -167 0
-36 -159 -168 0
-34 -160 -169 0
-35 -161 -170 0
-36 -162 -171 0
-34 -163 -172 0
-35 -164 -173 0
-36 -165 -174 0
-34 -166 -175 0
-35 -167 -176 0
-36 -168 -177 0
-34 -169 -178 0
-35 -170 -179 0
-36 -171 -180 0
-34 -172 -181 0
-35 -173 -182 0
-36 -174 -183 0
-34 -175 -184 0
-35 -176 -185 0
-36 -177 -186 0
-34 -178 -187 0
-35 -179 -188 0
-36 -180 -189 0
-34 -181 -190 0
-35 -182 -191 0
-36 -183 -192 0
-1 -13 -46 0
-2 -14 -47 0
-3 -15 -48 0
-4 -16 -46 0
-5 -17 -47 0
-6 -18 -48 0
-7 -19 -46 0
-8 -20 -47 0
-9 -21 -48 0
-10 -22 -46 0
-11 -23 -47 0
-12 -24 -48 0
-13 -25 -46 0
-14 -26 -47 0
-15 -27 -48 0
-16 -28 -46 0
-17 -29 -47 0
-18 -30 -48 0
-19 -31 -46 0
-20 -32 -47 0
-21 -33 -48 0
-22 -34 -46 0
-23 -35 -47 0
-24 -36 -48 0
-25 -37 -46 0
-26 -38 -47 0
-27 -39 -48 0
-28 -40 -46 0
-29 -41 -47 0
-30 -42 -48 0
-31 -43 -46 0
-32 -44 -47 0
-33 -45 -48 0
-34 -46 0
-35 -47 0
-36 -48 0
-37 -46 -49 0
-38 -47 -50 0
-39 -48 -51 0
-40 -46 -52 0
-41 -47 -53 0
-42 -48 -54 0
-43 -46 -55 0
-44 -47 -56 0
-45 -48 -57 0
-46 -58 0
-47 -59 0
-48 -60 0
-46 -49 -61 0
-47 -50 -62 0
-48 -51 -63 0
-46 -52 -64 0
-47 -53 -65 0
-48 -54 -66 0
-46 -55 -67 0
-47 -56 -68 0
-48 -57 -69 0
-46 -58 -70 0
-47 -59 -71 0
-48 -60 -72 0
-46 -61 -73 0
-47 -62 -74 0
-48 -63 -75 0
-46 -64 -76 0
-47 -65 -77 0
-48 -66 -78 0
-46 -67 -79 0
-47 -68 -80 0
-48 -69 -81 0
-46 -70 -82 0
-47 -71 -83 0
-48 -72 -84 0
-46 -73 -85 0
-47 -74 -86 0
-48 -75 -87 0
-46 -76 -88 0
-47 -77 -89 0
-48 -78 -90 0
-46 -79 -91 0
-47 -80 -92 0
-48 -81 -93 0
-46 -82 -94 0
-47 -83 -95 0
-48 -84 -96 0
-46 -85 -97 0
-47 -86 -98 0
-48 -87 -99 0
-46 -88 -100 0
-47 -89 -101 0
-48 -90 -102 0
-46 -91 -103 0
-47 -92 -104 0
-48 -93 -105 0
-46 -94 -106 0
-47 -95 -107 0
-48 -96 -108 0
-46 -97 -109 0
-47 -98 -110 0
-48 -99 -111 0
-46 -100 -112 0
-47 -101 -113 0
-48 -102 -114 0
-46 -103 -115 0
-47 -104 -116 0
-48 -105 -117 0
-46 -106 -118 0
-47 -107 -119 0
-48 -108 -120 0
-46 -109 -121 0
-47 -110 -122 0
-48 -111 -123 0
-46 -112 -124 0
-47 -113 -125 0
-48 -114 -126 0
-46 -115 -127 0
-47 -116 -128 0
-48 -117 -129 0
-46 -118 -130 0
-47 -119 -131 0
-48 -120 -132 0
-46 -121 -133 0
-47 -122 -134 0
-48 -123 -135 0
-46 -124 -136 0
-47 -125 -137 0
-48 -126 -138 0
-46 -127 -139 0
-47 -128 -140 0
-48 -129 -141 0
-46 -130 -142 0
-47 -131 -143 0
-48 -132 -144 0
-46 -133 -145 0
-47 -134 -146 0
-48 -135 -147 0
-46 -136 -148 0
-47 -137 -149 0
-48 -138 -150 0
-46 -139 -151 0
-47 -140 -152 0
-48 -141 -153 0
-46 -142 -154 0
-47 -143 -155 0
-48 -144 -156 0
-46 -145 -157 0
-47 -146 -158 0
-48 -147 -159 0
-46 -148 -160 0
-47 -149 -161 0
-48 -150 -162 0
-46 -151 -163 0
-47 -152 -164 0
-48 -153 -165 0
-46 -154 -166 0
-47 -155 -167 0
-48 -156 -168 0
-46 -157 -169 0
-47 -158 -170 0
-48 -159 -171 0
-46 -160 -172 0
-47 -161 -173 0
-48 -162 -174 0
-46 -163 -175 0
-47 -164 -176 0
-48 -165 -177 0
-46 -166 -178 0
-47 -167 -179 0
-48 -168 -180 0
-46 -169 -181 0
-47 -170 -182 0
-48 -171 -183 0
-46 -172 -184 0
-47 -173 -185 0
-48 -174 -186 0
-46 -175 -187 0
-47 -176 -188 0
-48 -177 -189 0
-46 -178 -190 0
-47 -179 -191 0
-48 -180 -192 0
-1 -16 -58 0
-2 -17 -59 0
-3 -18 -60 0
-4 -19 -58 0
-5 -20 -59 0
-6 -21 -60 0
-7 -22 -58 0
-8 -23 -59 0
-9 -24 -60 0
-10 -25 -58 0
-11 -26 -59 0
-12 -27 -60 0
-13 -28 -58 0
-14 -29 -59 0
-15 -30 -60 0
-16 -31 -58 0
-17 -32 -59 0
-18 -33 -60 0
-19 -34 -58 0
-20 -35 -59 0
-21 -36 -60 0
-22 -37 -58 0
-23 -38 -59 0
-24 -39 -60 0
-25 -40 -58 0
-26 -41 -59 0
-27 -42 -60 0
-28 -43 -58 0
-29 -44 -59 0
-30 -45 -60 0
-31 -46 -58 0
-32 -47 -59 0
-33 -48 -60 0
-34 -49 -58 0
-35 -50 -59 0
-36 -51 -60 0
-37 -52 -58 0
-38 -53 -59 0
-39 -54 -60 0
-40 -55 -58 0
-41 -56 -59 0
-42 -57 -60 0
-43 -58 0
-44 -59 0
-45 -60 0
-46 -58 -61 0
-47 -59 -62 0
-48 -60 -63 0
-49 -58 -64 0
-50 -59 -65 0
-51 -60 -66 0
-52 -58 -67 0
-53 -59 -68 0
-54 -60 -69 0
-55 -58 -70 0
-56 -59 -71 0
-57 -60 -72 0
-58 -73 0
-59 -74 0
-60 -75 0
-58 -61 -76 0
-59 -62 -77 0
-60 -63 -78 0
-58 -64 -79 0
-59 -65 -80 0
-60 -66 -81 0
-58 -67 -82 0
-59 -68 -83 0
-60 -69 -84 0
-58 -70 -85 0
-59 -71 -86 0
-60 -72 -87 0
-58 -73 -88 0
-59 -74 -89 0
-60 -75 -90 0
-58 -76 -91 0
-59 -77 -92 0
-60 -78 -93 0
-58 -79 -94 0
-59 -80 -95 0
-60 -81 -96 0
-58 -82 -97 0
-59 -83 -98 0
-60 -84 -99 0
-58 -85 -100 0
-59 -86 -101 0
-60 -87 -102 0
-58 -88 -103 0
-59 -89 -104 0
-60 -90 -105 0
-58 -91 -106 0
-59 -92 -107 0
-60 -93 -108 0
-58 -94 -109 0
-59 -95 -110 0
-60 -96 -111 0
-58 -97 -112 0
-59 -98 -113 0
-60 -99 -114 0
-58 -100 -115 0
-59 -101 -116 0
-60 -102 -117 0
-58 -103 -118 0
-59 -104 -119 0
-60 -105 -120 0
-58 -106 -121 0
-59 -107 -122 0
-60 -108 -123 0
-58 -109 -124 0
-59 -110 -125 0
-60 -111 -126 0
-58 -112 -127 0
-59 -113 -128 0
-60 -114 -129 0
-58 -115 -130 0
-59 -116 -131 0
-60 -117 -132 0
-58 -118 -133 0
-59 -119 -134 0
-60 -120 -135 0
-58 -121 -136 0
-59 -122 -137 0
-60 -123 -138 0
-58 -124 -139 0
-59 -125 -140 0
-60 -126 -141 0
-58 -127 -142 0
-59 -128 -143 0
-60 -129 -144 0
-58 -130 -145 0
-59 -131 -146 0
-60 -132 -147 0
-58 -133 -148 0
-59 -134 -149 0
-60 -135 -150 0
-58 -136 -151 0
-59 -137 -152 0
-60 -138 -153 0
-58 -139 -154 0
-59 -140 -155 0
-60 -141 -156 0
-58 -142 -157 0
-59 -143 -158 0
-60 -144 -159 0
-58 -145 -160 0
-59 -146 -161 0
-60 -147 -162 0
-58 -148 -163 0
-59 -149 -164 0
-60 -150 -165 0
-58 -151 -166 0
-59 -152 -167 0
-60 -153 -168 0
-58 -154 -169 0
-59 -155 -170 0
-60 -156 -171 0
-58 -157 -172 0
-59 -158 -173 0
-60 -159 -174 0
-58 -160 -175 0
-59 -161 -176 0
-60 -162 -177 0
-58 -163 -178 0
-59 -164 -179 0
-60 -165 -180 0
-58 -166 -181 0
-59 -167 -182 0
-60 -168 -183 0
-58 -169 -184 0
-59 -170 -185 0
-60 -171 -186 0
-58 -172 -187 0
-59 -173 -188 0
-60 -174 -189 0
-58 -175 -190 0
-59 -176 -191 0
-60 -177 -192 0
-1 -19 -70 0
-2 -20 -71 0
-3 -21 -72 0
-4 -22 -70 0
-5 -23 -71 0
-6 -24 -72 0
-7 -25 -70 0
-8 -26 -71 0
-9 -27 -72 0
-10 -28 -70 0
-11 -29 -71 0
-12 -30 -72 0
-13 -31 -70 0
-14 -32 -71 0
-15 -33 -72 0
-16 -34 -70 0
-17 -35 -71 0
-18 -36 -72 0
-19 -37 -70 0
-20 -38 -71 0
-21 -39 -72 0
-22 -40 -70 0
-23 -41 -71 0
-24 -42 -72 0
-25 -43 -70 0
-26 -44 -71 0
-27 -45 -72 0
-28 -46 -70 0
-29 -47 -71 0
-30 -48 -72 0
-31 -49 -70 0
-32 -50 -71 0
-33 -51 -72 0
-34 -52 -70 0
-35 -53 -71 0
-36 -54 -72 0
-37 -55 -70 0
-38 -56 -71 0
-39 -57 -72 0
-40 -58 -70 0
-41 -59 -71 0
-42 -60 -72 0
-43 -61 -70 0
-44 -62 -71 0
-45 -63 -72 0
-46 -64 -70 0
-47 -65 -71 0
-48 -66 -72 0
-49 -67 -70 0
-50 -68 -71 0
-51 -69 -72 0
-52 -70 0
-53 -71 0
-54 -72 0
-55 -70 -73 0
-56 -71 -74 0
-57 -72 -75 0
-58 -70 -76 0
-59 -71 -77 0
-60 -72 -78 0
-61 -70 -79 0
-62 -71 -80 0
-63 -72 -81 0
-64 -70 -82 0
-65 -71 -83 0
-66 -72 -84 0
-67 -70 -85 0
-68 -71 -86 0
-69 -72 -87 0
-70 -88 0
-71 -89 0
-72 -90 0
-70 -73 -91 0
-71 -74 -92 0
-72 -75 -93 0
-70 -76 -94 0
-71 -77 -95 0
-72 -78 -96 0
-70 -79 -97 0
-71 -80 -98 0
-72 -81 -99 0
-70 -82 -100 0
-71 -83 -101 0
-72 -84 -102 0
-70 -85 -103 0
-71 -86 -104 0
-72 -87 -105 0
-70 -88 -106 0
-71 -89 -107 0
-72 -90 -108 0
-70 -91 -109 0
-71 -92 -110 0
-72 -93 -111 0
-70 -94 -112 0
-71 -95 -113 0
-72 -96 -114 0
-70 -97 -115 0
-71 -98 -116 0
-72 -99 -117 0
-70 -100 -118 0
-71 -101 -119 0
-72 -102 -120 0
-70 -103 -121 0
-71 -104 -122 0
-72 -105 -123 0
-70 -106 -124 0
-71 -107 -125 0
-72 -108 -126 0
-70 -109 -127 0
-71 -110 -128 0
-72 -111 -129 0
-70 -112 -130 0
-71 -113 -131 0
-72 -114 -132 0
-70 -115 -133 0
-71 -116 -134 0
-72 -117 -135 0
-70 -118 -136 0
-71 -119 -137 0
-72 -120 -138 0
-70 -121 -139 0
-71 -122 -140 0
-72 -123 -141 0
-70 -124 -142 0
-71 -125 -143 0
-72 -126 -144 0
-70 -127 -145 0
-71 -128 -146 0
-72 -129 -147 0
-70 -130 -148 0
-71 -131 -149 0
-72 -132 -150 0
-70 -133 -151 0
-71 -134 -152 0
-72 -135 -153 0
-70 -136 -154 0
-71 -137 -155 0
-72 -138 -156 0
-70 -139 -157 0
-71 -140 -158 0
-72 -141 -159 0
-70 -142 -160 0
-71 -143 -161 0
-72 -144 -162 0
-70 -145 -163 0
-71 -146 -164 0
-72 -147 -165 0
-70 -148 -166 0
-71 -149 -167 0
-72 -150 -168 0
-70 -151 -169 0
-71 -152 -170 0
-72 -153 -171 0
-70 -154 -172 0
-71 -155 -173 0
-72 -156 -174 0
-70 -157 -175 0
-71 -158 -176 0
-72 -159 -177 0
-70 -160 -178 0
-71 -161 -179 0
-72 -162 -180 0
-70 -163 -181 0
-71 -164 -182 0
-72 -165 -183 0
-70 -166 -184 0
-71 -167 -185 0
-72 -168 -186 0
-70 -169 -187 0
-71 -170 -188 0
-72 -171 -189 0
-70 -172 -190 0
-71 -173 -191 0
-72 -174 -192 0
-1 -22 -82 0
-2 -23 -83 0
-3 -24 -84 0
-4 -25 -82 0
-5 -26 -83 0
-6 -27 -84 0
-7 -28 -82 0
-8 -29 -83 0
-9 -30 -84 0
-10 -31 -82 0
-11 -32 -83 0
-12 -33 -84 0
-13 -34 -82 0
-14 -35 -83 0
-15 -36 -84 0
-16 -37 -82 0
-17 -38 -83 0
-18 -39 -84 0
-19 -40 -82 0
-20 -41 -83 0
-21 -42 -84 0
-22 -43 -82 0
-23 -44 -83 0
-24 -45 -84 0
-25 -46 -82 0
-26 -47 -83 0
-27 -48 -84 0
-28 -49 -82 0
-29 -50 -83 0
-30 -51 -84 0
-31 -52 -82 0
-32 -53 -83 0
-33 -54 -84 0
-34 -55 -82 0
-35 -56 -83 0
-36 -57 -84 0
-37 -58 -82 0
-38 -59 -83 0
-39 -60 -84 0
-40 -61 -82 0
-41 -62 -83 0
-42 -63 -84 0
-43 -64 -82 0
-44 -65 -83 0
-45 -66 -84 0
-46 -67 -82 0
-47 -68 -83 0
-48 -69 -84 0
-49 -70 -82 0
-50 -71 -83 0
-51 -72 -84 0
-52 -73 -82 0
-53 -74 -83 0
-54 -75 -84 0
-55 -76 -82 0
-56 -77 -83 0
-57 -78 -84 0
-58 -79 -82 0
-59 -80 -83 0
-60 -81 -84 0
-61 -82 0
-62 -83 0
-63 -84 0
-64 -82 -85 0
-65 -83 -86 0
-66 -84 -87 0
-67 -82 -88 0
-68 -83 -89 0
-69 -84 -90 0
-70 -82 -91 0
-71 -83 -92 0
-72 -84 -93 0
-73 -82 -94 0
-74 -83 -95 0
-75 -84 -96 0
-76 -82 -97 0
-77 -83 -98 0
-78 -84 -99 0
-79 -82 -100 0
-80 -83 -101 0
-81 -84 -102 0
-82 -103 0
-83 -104 0
-84 -105 0
-82 -85 -106 0
-83 -86 -107 0
-84 -87 -108 0
-82 -88 -109 0
-83 -89 -110 0
-84 -90 -111 0
-82 -91 -112 0
-83 -92 -113 0
-84 -93 -114 0
-82 -94 -115 0
-83 -95 -116 0
-84 -96 -117 0
-82 -97 -118 0
-83 -98 -119 0
-84 -99 -120 0
-82 -100 -121 0
-83 -101 -122 0
-84 -102 -123 0
-82 -103 -124 0
-83 -104 -125 0
-84 -105 -126 0
-82 -106 -127 0
-83 -107 -128 0
-84 -108 -129 0
-82 -109 -130 0
-83 -110 -131 0
-84 -111 -132 0
-82 -112 -133 0
-83 -113 -134 0
-84 -114 -135 0
-82 -115 -136 0
-83 -116 -137 0
-84 -117 -138 0
-82 -118 -139 0
-83 -119 -140 0
-84 -120 -141 0
-82 -121 -142 0
-83 -122 -143 0
-84 -123 -144 0
-82 -124 -145 0
-83 -125 -146 0
-84 -126 -147 0
-82 -127 -148 0
-83 -128 -149 0
-84 -129 -150 0
-82 -130 -151 0
-83 -131 -152 0
-84 -132 -153 0
-82 -133 -154 0
-83 -134 -155 0
-84 -135 -156 0
-82 -136 -157 0
-83 -137 -158 0
-84 -138 -159 0
-82 -139 -160 0
-83 -140 -161 0
-84 -141 -162 0
-82 -142 -163 0
-83 -143 -164 0
-84 -144 -165 0
-82 -145 -166 0
-83 -146 -167 0
-84 -147 -168 0
-82 -148 -169 0
-83 -149 -170 0
-84 -150 -171 0
-82 -151 -172 0
-83 -152 -173 0
-84 -153 -174 0
-82 -154 -175 0
-83 -155 -176 0
-84 -156 -177 0
-82 -157 -178 0
-83 -158 -179 0
-84 -159 -180 0
-82 -160 -181 0
-83 -161 -182 0
-84 -162 -183 0
-82 -163 -184 0
-83 -164 -185 0
-84 -165 -186 0
-82 -166 -187 0
-83 -167 -188 0
-84 -168 -189 0
-82 -169 -190 0
-83 -170 -191 0
-84 -171 -192 0
-1 -25 -94 0
-2 -26 -95 0
-3 -27 -96 0
-4 -28 -94 0
-5 -29 -95 0
-6 -30 -96 0
-7 -31 -94 0
-8 -32 -95 0
-9 -33 -96 0
-10 -34 -94 0
-11 -35 -95 0
-12 -36 -96 0
-13 -37 -94 0
-14 -38 -95 0
-15 -39 -96 0
-16 -40 -94 0
-17 -41 -95 0
-18 -42 -96 0
-19 -43 -94 0
-20 -44 -95 0
-21 -45 -96 0
-22 -46 -94 0
-23 -47 -95 0
-24 -48 -96 0
-25 -49 -94 0
-26 -50 -95 0
-27 -51 -96 0
-28 -52 -94 0
-29 -53 -95 0
-30 -54 -96 0
-31 -55 -94 0
-32 -56 -95 0
-33 -57 -96 0
-34 -58 -94 0
-35 -59 -95 0
-36 -60 -96 0
-37 -61 -94 0
-38 -62 -95 0
-39 -63 -96 0
-40 -64 -94 0
-41 -65 -95 0
-42 -66 -96 0
-43 -67 -94 0
-44 -68 -95 0
-45 -69 -96 0
-46 -70 -94 0
-47 -71 -95 0
-48 -72 -96 0
-49 -73 -94 0
-50 -74 -95 0
-51 -75 -96 0
-52 -76 -94 0
-53 -77 -95 0
-54 -78 -96 0
-55 -79 -94 0
-56 -80 -95 0
-57 -81 -96 0
-58 -82 -94 0
-59 -83 -95 0
-60 -84 -96 0
-61 -85 -94 0
-62 -86 -95 0
-63 -87 -96 0
-64 -88 -94 0
-65 -89 -95 0
-66 -90 -96 0
-67 -91 -94 0
-68 -92 -95 0
-69 -93 -96 0
-70 -94 0
-71 -95 0
-72 -96 0
-73 -94 -97 0
-74 -95 -98 0
-75 -96 -99 0
-76 -94 -100 0
-77 -95 -101 0
-78 -96 -102 0
-79 -94 -103 0
-80 -95 -104 0
-81 -96 -105 0
-82 -94 -106 0
-83 -95 -107 0
-84 -96 -108 0
-85 -94 -109 0
-86 -95 -110 0
-87 -96 -111 0
-88 -94 -112 0
-89 -95 -113 0
-90 -96 -114 0
-91 -94 -115 0
-92 -95 -116 0
-93 -96 -117 0
-94 -118 0
-95 -119 0
-96 -120 0
-94 -97 -121 0
-95 -98 -122 0
-96 -99 -123 0
-94 -100 -124 0
-95 -101 -125 0
-96 -102 -126 0
-94 -103 -127 0
-95 -104 -128 0
-96 -105 -129 0
-94 -106 -130 0
-95 -107 -131 0
-96 -108 -132 0
-94 -109 -133 0
-95 -110 -134 0
-96 -111 -135 0
-94 -112 -136 0
-95 -113 -137 0
-96 -114 -138 0
-94 -115 -139 0
-95 -116 -140 0
-96 -117 -141 0
-94 -118 -142 0
-95 -119 -143 0
-96 -120 -144 0
-94 -121 -145 0
-95 -122 -146 0
-96 -123 -147 0
-94 -124 -148 0
-95 -125 -149 0
-96 -126 -150 0
-94 -127 -151 0
-95 -128 -152 0
-96 -129 -153 0
-94 -130 -154 0
-95 -131 -155 0
-96 -132 -156 0
-94 -133 -157 0
-95 -134 -158 0
-96 -135 -159 0
-94 -136 -160 0
-95 -137 -161 0
-96 -138 -162 0
-94 -139 -163 0
-95 -140 -164 0
-96 -141 -165 0
-94 -142 -166 0
-95 -143 -167 0
-96 -144 -168 0
-94 -145 -169 0
-95 -146 -170 0
-96 -147 -171 0
-94 -148 -172 0
-95 -149 -173 0
-96 -150 -174 0
-94 -151 -175 0
-95 -152 -176 0
-96 -153 -177 0
-94 -154 -178 0
-95 -155 -179 0
-96 -156 -180 0
-94 -157 -181 0
-95 -158 -182 0
-96 -159 -183 0
-94 -160 -184 0
-95 -161 -185 0
-96 -162 -186 0
-94 -163 -187 0
-95 -164 -188 0
-96 -165 -189 0
-94 -166 -190 0
-95 -167 -191 0
-96 -168 -192 0
-1 -28 -106 0
-2 -29 -107 0
-3 -30 -108 0
-4 -31 -106 0
-5 -32 -107 0
-6 -33 -108 0
-7 -34 -106 0
-8 -35 -107 0
-9 -36 -108 0
-10 -37 -106 0
-11 -38 -107 0
-12 -39 -108 0
-13 -40 -106 0
-14 -41 -107 0
-15 -42 -108 0
-16 -43 -106 0
-17 -44 -107 0
-18 -45 -108 0
-19 -46 -106 0
-20 -47 -107 0
-21 -48 -108 0
-22 -49 -106 0
-23 -50 -107 0
-24 -51 -108 0
-25 -52 -106 0
-26 -53 -107 0
-27 -54 -108 0
-28 -55 -106 0
-29 -56 -107 0
-30 -57 -108 0
-31 -58 -106 0
-32 -59 -107 0
-33 -60 -108 0
-34 -61 -106 0
-35 -62 -107 0
-36 -63 -108 0
-37 -64 -106 0
-38 -65 -107 0
-39 -66 -108 0
-40 -67 -106 0
-41 -68 -107 0
-42 -69 -108 0
-43 -70 -106 0
-44 -71 -107 0
-45 -72 -108 0
-46 -73 -106 0
-47 -74 -107 0
-48 -75 -108 0
-49 -76 -106 0
-50 -77 -107 0
-51 -78 -108 0
-52 -79 -106 0
-53 -80 -107 0
-54 -81 -108 0
-55 -82 -106 0
-56 -83 -107 0
-57 -84 -108 0
-58 -85 -106 0
-59 -86 -107 0
-60 -87 -108 0
-61 -88 -106 0
-62 -89 -107 0
-63 -90 -108 0
-64 -91 -106 0
-65 -92 -107 0
-66 -93 -108 0
-67 -94 -106 0
-68 -95 -107 0
-69 -96 -108 0
-70 -97 -106 0
-71 -98 -107 0
-72 -99 -108 0
-73 -100 -106 0
-74 -101 -107 0
-75 -102 -108 0
-76 -103 -106 0
-77 -104 -107 0
-78 -105 -108 0
-79 -106 0
-80 -107 0
-81 -108 0
-82 -106 -109 0
-83 -107 -110 0
-84 -108 -111 0
-85 -106 -112 0
-86 -107 -113 0
-87 -108 -114 0
-88 -106 -115 0
-89 -107 -116 0
-90 -108 -117 0
-91 -106 -118 0
-92 -107 -119 0
-93 -108 -120 0
-94 -106 -121 0
-95 -107 -122 0
-96 -108 -123 0
-97 -106 -124 0
-98 -107 -125 0
-99 -108 -126 0
-100 -106 -127 0
-101 -107 -128 0
-102 -108 -129 0
-103 -106 -130 0
-104 -107 -131 0
-105 -108 -132 0
-106 -133 0
-107 -134 0
-108 -135 0
-106 -109 -136 0
-107 -110 -137 0
-108 -111 -138 0
-106 -112 -139 0
-107 -113 -140 0
-108 -114 -141 0
-106 -115 -142 0
-107 -116 -143 0
-108 -117 -144 0
-106 -118 -145 0
-107 -119 -146 0
-108 -120 -147 0
-106 -121 -148 0
-107 -122 -149 0
-108 -123 -150 0
-106 -124 -151 0
-107 -125 -152 0
-108 -126 -153 0
-106 -127 -154 0
-107 -128 -155 0
-108 -129 -156 0
-106 -130 -157 0
-107 -131 -158 0
-108 -132 -159 0
-106 -133 -160 0
-107 -134 -161 0
-108 -135 -162 0
-106 -136 -163 0
-107 -137 -164 0
-108 -138 -165 0
-106 -139 -166 0
-107 -140 -167 0
-108 -141 -168 0
-106 -142 -169 0
-107 -143 -170 0
-108 -144 -171 0
-106 -145 -172 0
-107 -146 -173 0
-108 -147 -174 0
-106 -148 -175 0
-107 -149 -176 0
-108 -150 -177 0
-106 -151 -178 0
-107 -152 -179 0
-108 -153 -180 0
-106 -154 -181 0
-107 -155 -182 0
-108 -156 -183 0
-106 -157 -184 0
-107 -158 -185 0
-108 -159 -186 0
-106 -160 -187 0
-107 -161 -188 0
-108 -162 -189 0
-106 -163 -190 0
-107 -164 -191 0
-108 -165 -192 0
-1 -31 -118 0
-2 -32 -119 0
-3 -33 -120 0
-4 -34 -118 0
-5 -35 -119 0
-6 -36 -120 0
-7 -37 -118 0
-8 -38 -119 0
-9 -39 -120 0
-10 -40 -118 0
-11 -41 -119 0
-12 -42 -120 0
-13 -43 -118 0
-14 -44 -119 0
-15 -45 -120 0
-16 -46 -118 0
-17 -47 -119 0
-18 -48 -120 0
-19 -49 -118 0
-20 -50 -119 0
-21 -51 -120 0
-22 -52 -118 0
-23 -53 -119 0
-24 -54 -120 0
-25 -55 -118 0
-26 -56 -119 0
-27 -57 -120 0
-28 -58 -118 0
-29 -59 -119 0
-30 -60 -120 0
-31 -61 -118 0
-32 -62 -119 0
-33 -63 -120 0
-34 -64 -118 0
-35 -65 -119 0
-36 -66 -120 0
-37 -67 -118 0
-38 -68 -119 0
-39 -69 -120 0
-40 -70 -118 0
-41 -71 -119 0
-42 -72 -120 0
-43 -73 -118 0
-44 -74 -119 0
-45 -75 -120 0
-46 -76 -118 0
-47 -77 -119 0
-48 -78 -120 0
-49 -79 -118 0
-50 -80 -119 0
-51 -81 -120 0
-52 -82 -118 0
-53 -83 -119 0
-54 -84 -120 0
-55 -85 -118 0
-56 -86 -119 0
-57 -87 -120 0
-58 -88 -118 0
-59 -89 -119 0
-60 -90 -120 0
-61 -91 -118 0
-62 -92 -119 0
-63 -93 -120 0
-64 -94 -118 0
-65 -95 -119 0
-66 -96 -120 0
-67 -97 -118 0
-68 -98 -119 0
-69 -99 -120 0
-70 -100 -118 0
-71 -101 -119 0
-72 -102 -120 0
-73 -103 -118 0
-74 -104 -119 0
-75 -105 -120 0
-76 -106 -118 0
-77 -107 -119 0
-78 -108 -120 0
-79 -109 -118 0
-80 -110 -119 0
-81 -111 -120 0
-82 -112 -118 0
-83 -113 -119 0
-84 -114 -120 0
-85 -115 -118 0
-86 -116 -119 0
-87 -117 -120 0
-88 -118 0
-89 -119 0
-90 -120 0
-91 -118 -121 0
-92 -119 -122 0
-93 -120 -123 0
-94 -118 -124 0
-95 -119 -125 0
-96 -120 -126 0
-97 -118 -127 0
-98 -119 -128 0
-99 -120 -129 0
-100 -118 -130 0
-101 -119 -131 0
-102 -120 -132 0
-103 -118 -133 0
-104 -119 -134 0
-105 -120 -135 0
-106 -118 -136 0
-107 -119 -137 0
-108 -120 -138 0
-109 -118 -139 0
-110 -119 -140 0
-111 -120 -141 0
-112 -118 -142 0
-113 -119 -143 0
-114 -120 -144 0
-115 -118 -145 0
-116 -119 -146 0
-117 -120 -147 0
-118 -148 0
-119 -149 0
-120 -150 0
-118 -121 -151 0
-119 -122 -152 0
-120 -123 -153 0
-118 -124 -154 0
-119 -125 -155 0
-120 -126 -156 0
-118 -127 -157 0
-119 -128 -158 0
-120 -129 -159 0
-118 -130 -160 0
-119 -131 -161 0
-120 -132 -162 0
-118 -133 -163 0
-119 -134 -164 0
-120 -135 -165 0
-118 -136 -166 0
-119 -137 -167 0
-120 -138 -168 0
-118 -139 -169 0
-119 -140 -170 0
-120 -141 -171 0
-118 -142 -172 0
-119 -143 -173 0
-120 -144 -174 0
-118 -145 -175 0
-119 -146 -176 0
-120 -147 -177 0
-118 -148 -178 0
-119 -149 -179 0
-120 -150 -180 0
-118 -151 -181 0
-119 -152 -182 0
-120 -153 -183 0
-118 -154 -184 0
-119 -155 -185 0
-120 -156 -186 0
-118 -157 -187 0
-119 -158 -188 0
-120 -159 -189 0
-118 -160 -190 0
-119 -161 -191 0
-120 -162 -192 0
-1 -34 -130 0
-2 -35 -131 0
-3 -36 -132 0
-4 -37 -130 0
-5 -38 -131 0
-6 -39 -132 0
-7 -40 -130 0
-8 -41 -131 0
-9 -42 -132 0
-10 -43 -130 0
-11 -44 -131 0
-12 -45 -132 0
-13 -46 -130 0
-14 -47 -131 0
-15 -48 -132 0
-16 -49 -130 0
-17 -50 -131 0
-18 -51 -132 0
-19 -52 -130 0
-20 -53 -131 0
-21 -54 -132 0
-22 -55 -130 0
-23 -56 -131 0
-24 -57 -132 0
-25 -58 -130 0
-26 -59 -131 0
-27 -60 -132 0
-28 -61 -130 0
-29 -62 -131 0
-30 -63 -132 0
-31 -64 -130 0
-32 -65 -131 0
-33 -66 -132 0
-34 -67 -130 0
-35 -68 -131 0
-36 -69 -132 0
-37 -70 -130 0
-38 -71 -131 0
-39 -72 -132 0
-40 -73 -130 0
-41 -74 -131 0
-42 -75 -132 0
-43 -76 -130 0
-44 -77 -131 0
-45 -78 -132 0
-46 -79 -130 0
-47 -80 -131 0
-48 -81 -132 0
-49 -82 -130 0
-50 -83 -131 0
-51 -84 -132 0
-52 -85 -130 0
-53 -86 -131 0
-54 -87 -132 0
-55 -88 -130 0
-56 -89 -131 0
-57 -90 -132 0
-58 -91 -130 0
-59 -92 -131 0
-60 -93 -132 0
-61 -94 -130 0
-62 -95 -131 0
-63 -96 -132 0
-64 -97 -130 0
-65 -98 -131 0
-66 -99 -132 0
-67 -100 -130 0
-68 -101 -131 0
-69 -102 -132 0
-70 -103 -130 0
-71 -104 -131 0
-72 -105 -132 0
-73 -106 -130 0
-74 -107 -131 0
-75 -108 -132 0
-76 -109 -130 0
-77 -110 -131 0
-78 -111 -132 0
-79 -112 -130 0
-80 -113 -131 0
-81 -114 -132 0
-82 -115 -130 0
-83 -116 -131 0
-84 -117 -132 0
-85 -118 -130 0
-86 -119 -131 0
-87 -120 -132 0
-88 -121 -130 0
-89 -122 -131 0
-90 -123 -132 0
-91 -124 -130 0
-92 -125 -131 0
-93 -126 -132 0
-94 -127 -130 0
-95 -128 -131 0
-96 -129 -132 0
-97 -130 0
-98 -131 0
-99 -132 0
-100 -130 -133 0
-101 -131 -134 0
-102 -132 -135 0
-103 -130 -136 0
-104 -131 -137 0
-105 -132 -138 0
-106 -130 -139 0
-107 -131 -140 0
-108 -132 -141 0
-109 -130 -142 0
-110 -131 -143 0
-111 -132 -144 0
-112 -130 -145 0
-113 -131 -146 0
-114 -132 -147 0
-115 -130 -148 0
-116 -131 -149 0
-117 -132 -150 0
-118 -130 -151 0
-119 -131 -152 0
-120 -132 -153 0
-121 -130 -154 0
-122 -131 -155 0
-123 -132 -156 0
-124 -130 -157 0
-125 -131 -158 0
-126 -132 -159 0
-127 -130 -160 0
-128 -131 -161 0
-129 -132 -162 0
-130 -163 0
-131 -164 0
-132 -165 0
-130 -133 -166 0
-131 -134 -167 0
-132 -135 -168 0
-130 -136 -169 0
-131 -137 -170 0
-132 -138 -171 0
-130 -139 -172 0
-131 -140 -173 0
-132 -141 -174 0
-130 -142 -175 0
-131 -143 -176 0
-132 -144 -177 0
-130 -145 -178 0
-131 -146 -179 0
-132 -147 -180 0
-130 -148 -181 0
-131 -149 -182 0
-132 -150 -183 0
-130 -151 -184 0
-131 -152 -185 0
-132 -153 -186 0
-130 -154 -187 0
-131 -155 -188 0
-132 -156 -189 0
-130 -157 -190 0
-131 -158 -191 0
-132 -159 -192 0
-1 -37 -142 0
-2 -38 -143 0
-3 -39 -144 0
-4 -40 -142 0
-5 -41 -143 0
-6 -42 -144 0
-7 -43 -142 0
-8 -44 -143 0
-9 -45 -144 0
-10 -46 -142 0
-11 -47 -143 0
-12 -48 -144 0
-13 -49 -142 0
-14 -50 -143 0
-15 -51 -144 0
-16 -52 -142 0
-17 -53 -143 0
-18 -54 -144 0
-19 -55 -142 0
-20 -56 -143 0
-21 -57 -144 0
-22 -58 -142 0
-23 -59 -143 0
-24 -60 -144 0
-25 -61 -142 0
-26 -62 -143 0
-27 -63 -144 0
-28 -64 -142 0
-29 -65 -143 0
-30 -66 -144 0
-31 -67 -142 0
-32 -68 -143 0
-33 -69 -144 0
-34 -70 -142 0
-35 -71 -143 0
-36 -72 -144 0
-37 -73 -142 0
-38 -74 -143 0
-39 -75 -144 0
-40 -76 -142 0
-41 -77 -143 0
-42 -78 -144 0
-43 -79 -142 0
-44 -80 -143 0
-45 -81 -144 0
-46 -82 -142 0
-47 -83 -143 0
-48 -84 -144 0
-49 -85 -142 0
-50 -86 -143 0
-51 -87 -144 0
-52 -88 -142 0
-53 -89 -143 0
-54 -90 -144 0
-55 -91 -142 0
-56 -92 -143 0
-57 -93 -144 0
-58 -94 -142 0
-59 -95 -143 0
-60 -96 -144 0
-61 -97 -142 0
-62 -98 -143 0
-63 -99 -144 0
-64 -100 -142 0
-65 -101 -143 0
-66 -102 -144 0
-67 -103 -142 0
-68 -104 -143 0
-69 -105 -144 0
-70 -106 -142 0
-71 -107 -143 0
-72 -108 -144 0
-73 -109 -142 0
-74 -110 -143 0
-75 -111 -144 0
-76 -112 -142 0
-77 -113 -143 0
-78 -114 -144 0
-79 -115 -142 0
-80 -116 -143 0
-81 -117 -144 0
-82 -118 -142 0
-83 -119 -143 0
-84 -120 -144 0
-85 -121 -142 0
-86 -122 -143 0
-87 -123 -144 0
-88 -124 -142 0
-89 -125 -143 0
-90 -126 -144 0
-91 -127 -142 0
-92 -128 -143 0
-93 -129 -144 0
-94 -130 -142 0
-95 -131 -143 0
-96 -132 -144 0
-97 -133 -142 0
-98 -134 -143 0
-99 -135 -144 0
-100 -136 -142 0
-101 -137 -143 0
-102 -138 -144 0
-103 -139 -142 0
-104 -140 -143 0
-105 -141 -144 0
-106 -142 0
-107 -143 0
-108 -144 0
-109 -142 -145 0
-110 -143 -146 0
-111 -144 -147 0
-112 -142 -148 0
-113 -143 -149 0
-114 -144 -150 0
-115 -142 -151 0
-116 -143 -152 0
-117 -144 -153 0
-118 -142 -154 0
-119 -143 -155 0
-120 -144 -156 0
-121 -142 -157 0
-122 -143 -158 0
-123 -144 -159 0
-124 -142 -160 0
-125 -143 -161 0
-126 -144 -162 0
-127 -142 -163 0
-128 -143 -164 0
-129 -144 -165 0
-130 -142 -166 0
-131 -143 -167 0
-132 -144 -168 0
-133 -142 -169 0
-134 -143 -170 0
-135 -144 -171 0
-136 -142 -172 0
-137 -143 -173 0
-138 -144 -174 0
-139 -142 -175 0
-140 -143 -176 0
-141 -144 -177 0
-142 -178 0
-143 -179 0
-144 -180 0
-142 -145 -181 0
-143 -146 -182 0
-144 -147 -183 0
-142 -148 -184 0
-143 -149 -185 0
-144 -150 -186 0
-142 -151 -187 0
-143 -152 -188 0
-144 -153 -189 0
-142 -154 -190 0
-143 -155 -191 0
-144 -156 -192 0
-1 -40 -154 0
-2 -41 -155 0
-3 -42 -156 0
-4 -43 -154 0
-5 -44 -155 0
-6 -45 -156 0
-7 -46 -154 0
-8 -47 -155 0
-9 -48 -156 0
-10 -49 -154 0
-11 -50 -155 0
-12 -51 -156 0
-13 -52 -154 0
-14 -53 -155 0
-15 -54 -156 0
-16 -55 -154 0
-17 -56 -155 0
-18 -57 -156 0
-19 -58 -154 0
-20 -59 -155 0
-21 -60 -156 0
-22 -61 -154 0
-23 -62 -155 0
-24 -63 -156 0
-25 -64 -154 0
-26 -65 -155 0
-27 -66 -156 0
-28 -67 -154 0
-29 -68 -155 0
-30 -69 -156 0
-31 -70 -154 0
-32 -71 -155 0
-33 -72 -156 0
-34 -73 -154 0
-35 -74 -155 0
-36 -75 -156 0
-37 -76 -154 0
-38 -77 -155 0
-39 -78 -156 0
-40 -79 -154 0
-41 -80 -155 0
-42 -81 -156 0
-43 -82 -154 0
-44 -83 -155 0
-45 -84 -156 0
-46 -85 -154 0
-47 -86 -155 0
-48 -87 -156 0
-49 -88 -154 0
-50 -89 -155 0
-51 -90 -156 0
-52 -91 -154 0
-53 -92 -155 0
-54 -93 -156 0
-55 -94 -154 0
-56 -95 -155 0
-57 -96 -156 0
-58 -97 -154 0
-59 -98 -155 0
-60 -99 -156 0
-61 -100 -154 0
-62 -101 -155 0
-63 -102 -156 0
-64 -103 -154 0
-65 -104 -155 0
-66 -105 -156 0
-67 -106 -154 0
-68 -107 -155 0
-69 -108 -156 0
-70 -109 -154 0
-71 -110 -155 0
-72 -111 -156 0
-73 -112 -154 0
-74 -113 -155 0
-75 -114 -156 0
-76 -115 -154 0
-77 -116 -155 0
-78 -117 -156 0
-79 -118 -154 0
-80 -119 -155 0
-81 -120 -156 0
-82 -121 -154 0
-83 -122 -155 0
-84 -123 -156 0
-85 -124 -154 0
-86 -125 -155 0
-87 -126 -156 0
-88 -127 -154 0
-89 -128 -155 0
-90 -129 -156 0
-91 -130 -154 0
-92 -131 -155 0
-93 -132 -156 0
-94 -133 -154 0
-95 -134 -155 0
-96 -135 -156 0
-97 -136 -154 0
-98 -137 -155 0
-99 -138 -156 0
-100 -139 -154 0
-101 -140 -155 0
-102 -141 -156 0
-103 -142 -154 0
-104 -143 -155 0
-105 -144 -156 0
-106 -145 -154 0
-107 -146 -155 0
-108 -147 -156 0
-109 -148 -154 0
-110 -149 -155 0
-111 -150 -156 0
-112 -151 -154 0
-113 -152 -155 0
-114 -153 -156 0
-115 -154 0
-116 -155 0
-117 -156 0
-118 -154 -157 0
-119 -155 -158 0
-120 -156 -159 0
-121 -154 -160 0
-122 -155 -161 0
-123 -156 -162 0
-124 -154 -163 0
-125 -155 -164 0
-126 -156 -165 0
-127 -154 -166 0
-128 -155 -167 0
-129 -156 -168 0
-130 -154 -169 0
-131 -155 -170 0
-132 -156 -171 0
-133 -154 -172 0
-134 -155 -173 0
-135 -156 -174 0
-136 -154 -175 0
-137 -155 -176 0
-138 -156 -177 0
-139 -154 -178 0
-140 -155 -179 0
-141 -156 -180 0
-142 -154 -181 0
-143 -155 -182 0
-144 -156 -183 0
-145 -154 -184 0
-146 -155 -185 0
-147 -156 -186 0
-148 -154 -187 0
-149 -155 -188 0
-150 -156 -189 0
-151 -154 -190 0
-152 -155 -191 0
-153 -156 -192 0
-1 -43 -166 0
-2 -44 -167 0
-3 -45 -168 0
-4 -46 -166 0
-5 -47 -167 0
-6 -48 -168 0
-7 -49 -166 0
-8 -50 -167 0
-9 -51 -168 0
-10 -52 -166 0
-11 -53 -167 0
-12 -54 -168 0
-13 -55 -166 0
-14 -56 -167 0
-15 -57 -168 0
-16 -58 -166 0
-17 -59 -167 0
-18 -60 -168 0
-19 -61 -166 0
-20 -62 -167 0
-21 -63 -168 0
-22 -64 -166 0
-23 -65 -167 0
-24 -66 -168 0
-25 -67 -166 0
-26 -68 -167 0
-27 -69 -168 0
-28 -70 -166 0
-29 -71 -167 0
-30 -72 -168 0
-31 -73 -166 0
-32 -74 -167 0
-33 -75 -168 0
-34 -76 -166 0
-35 -77 -167 0
-36 -78 -168 0
-37 -79 -166 0
-38 -80 -167 0
-39 -81 -168 0
-40 -82 -166 0
-41 -83 -167 0
-42 -84 -168 0
-43 -85 -166 0
-44 -86 -167 0
-45 -87 -168 0
-46 -88 -166 0
-47 -89 -167 0
-48 -90 -168 0
-49 -91 -166 0
-50 -92 -167 0
-51 -93 -168 0
-52 -94 -166 0
-53 -95 -167 0
-54 -96 -168 0
-55 -97 -166 0
-56 -98 -167 0
-57 -99 -168 0
-58 -100 -166 0
-59 -101 -167 0
-60 -102 -168 0
-61 -103 -166 0
-62 -104 -167 0
-63 -105 -168 0
-64 -106 -166 0
-65 -107 -167 0
-66 -108 -168 0
-67 -109 -166 0
-68 -110 -167 0
-69 -111 -168 0
-70 -112 -166 0
-71 -113 -167 0
-72 -114 -168 0
-73 -115 -166 0
-74 -116 -167 0
-75 -117 -168 0
-76 -118 -166 0
-77 -119 -167 0
-78 -120 -168 0
-79 -121 -166 0
-80 -122 -167 0
-81 -123 -168 0
-82 -124 -166 0
-83 -125 -167 0
-84 -126 -168 0
-85 -127 -166 0
-86 -128 -167 0
-87 -129 -168 0
-88 -130 -166 0
-89 -131 -167 0
-90 -132 -168 0
-91 -133 -166 0
-92 -134 -167 0
-93 -135 -168 0
-94 -136 -166 0
-95 -137 -167 0
-96 -138 -168 0
-97 -139 -166 0
-98 -140 -167 0
-99 -141 -168 0
-100 -142 -166 0
-101 -143 -167 0
-102 -144 -168 0
-103 -145 -166 0
-104 -146 -167 0
-105 -147 -168 0
-106 -148 -166 0
-107 -149 -167 0
-108 -150 -168 0
-109 -151 -166 0
-110 -152 -167 0
-111 -153 -168 0
-112 -154 -166 0
-113 -155 -167 0
-114 -156 -168 0
-115 -157 -166 0
-116 -158 -167 0
-117 -159 -168 0
-118 -160 -166 0
-119 -161 -167 0
-120 -162 -168 0
-121 -163 -166 0
-122 -164 -167 0
-123 -165 -168 0
-124 -166 0
-125 -167 0
-126 -168 0
-127 -166 -169 0
-128 -167 -170 0
-129 -168 -171 0
-130 -166 -172 0
-131 -167 -173 0
-132 -168 -174 0
-133 -166 -175 0
-134 -167 -176 0
-135 -168 -177 0
-136 -166 -178 0
-137 -167 -179 0
-138 -168 -180 0
-139 -166 -181 0
-140 -167 -182 0
-141 -168 -183 0
-142 -166 -184 0
-143 -167 -185 0
-144 -168 -186 0
-145 -166 -187 0
-146 -167 -188 0
-147 -168 -189 0
-148 -166 -190 0
-149 -167 -191 0
-150 -168 -192 0
-1 -46 -178 0
-2 -47 -179 0
-3 -48 -180 0
-4 -49 -178 0
-5 -50 -179 0
-6 -51 -180 0
-7 -52 -178 0
-8 -53 -179 0
-9 -54 -180 0
-10 -55 -178 0
-11 -56 -179 0
-12 -57 -180 0
-13 -58 -178 0
-14 -59 -179 0
-15 -60 -180 0
-16 -61 -178 0
-17 -62 -179 0
-18 -63 -180 0
-19 -64 -178 0
-20 -65 -179 0
-21 -66 -180 0
-22 -67 -178 0
-23 -68 -179 0
-24 -69 -180 0
-25 -70 -178 0
-26 -71 -179 0
-27 -72 -180 0
-28 -73 -178 0
-29 -74 -179 0
-30 -75 -180 0
-31 -76 -178 0
-32 -77 -179 0
-33 -78 -180 0
-34 -79 -178 0
-35 -80 -179 0
-36 -81 -180 0
-37 -82 -178 0
-38 -83 -179 0
-39 -84 -180 0
-40 -85 -178 0
-41 -86 -179 0
-42 -87 -180 0
-43 -88 -178 0
-44 -89 -179 0
-45 -90 -180 0
-46 -91 -178 0
-47 -92 -179 0
-48 -93 -180 0
-49 -94 -178 0
-50 -95 -179 0
-51 -96 -180 0
-52 -97 -178 0
-53 -98 -179 0
-54 -99 -180 0
-55 -100 -178 0
-56 -101 -179 0
-57 -102 -180 0
-58 -103 -178 0
-59 -104 -179 0
-60 -105 -180 0
-61 -106 -178 0
-62 -107 -179 0
-63 -108 -180 0
-64 -109 -178 0
-65 -110 -179 0
-66 -111 -180 0
-67 -112 -178 0
-68 -113 -179 0
-69 -114 -180 0
-70 -115 -178 0
-71 -116 -179 0
-72 -117 -180 0
-73 -118 -178 0
-74 -119 -179 0
-75 -120 -180 0
-76 -121 -178 0
-77 -122 -179 0
-78 -123 -180 0
-79 -124 -178 0
-80 -125 -179 0
-81 -126 -180 0
-82 -127 -178 0
-83 -128 -179 0
-84 -129 -180 0
-85 -130 -178 0
-86 -131 -179 0
-87 -132 -180 0
-88 -133 -178 0
-89 -134 -179 0
-90 -135 -180 0
-91 -136 -178 0
-92 -137 -179 0
-93 -138 -180 0
-94 -139 -178 0
-95 -140 -179 0
-96 -141 -180 0
-97 -142 -178 0
-98 -143 -179 0
-99 -144 -180 0
-100 -145 -178 0
-101 -146 -179 0
-102 -147 -180 0
-103 -148 -178 0
-104 -149 -179 0
-105 -150 -180 0
-106 -151 -178 0
-107 -152 -179 0
-108 -153 -180 0
-109 -154 -178 0
-110 -155 -179 0
-111 -156 -180 0
-112 -157 -178 0
-113 -158 -179 0
-114 -159 -180 0
-115 -160 -178 0
-116 -161 -179 0
-117 -162 -180 0
-118 -163 -178 0
-119 -164 -179 0
-120 -165 -180 0
-121 -166 -178 0
-122 -167 -179 0
-123 -168 -180 0
-124 -169 -178 0
-125 -170 -179 0
-126 -171 -180 0
-127 -172 -178 0
-128 -173 -179 0
-129 -174 -180 0
-130 -175 -178 0
-131 -176 -179 0
-132 -177 -180 0
-133 -178 0
-134 -179 0
-135 -180 0
-136 -178 -181 0
-137 -179 -182 0
-138 -180 -183 0
-139 -178 -184 0
-140 -179 -185 0
-141 -180 -186 0
-142 -178 -187 0
-143 -179 -188 0
-144 -180 -189 0
-145 -178 -190 0
-146 -179 -191 0
-147 -180 -192 0
-1 -49 -190 0
-2 -50 -191 0
-3 -51 -192 0
-4 -52 -190 0
-5 -53 -191 0
-6 -54 -192 0
-7 -55 -190 0
-8 -56 -191 0
-9 -57 -192 0
-10 -58 -190 0
-11 -59 -191 0
-12 -60 -192 0
-13 -61 -190 0
-14 -62 -191 0
-15 -63 -192 0
-16 -64 -190 0
-17 -65 -191 0
-18 -66 -192 0
-19 -67 -190 0
-20 -68 -191 0
-21 -69 -192 0
-22 -70 -190 0
-23 -71 -191 0
-24 -72 -192 0
-25 -73 -190 0
-26 -74 -191 0
-27 -75 -192 0
-28 -76 -190 0
-29 -77 -191 0
-30 -78 -192 0
-31 -79 -190 0
-32 -80 -191 0
-33 -81 -192 0
-34 -82 -190 0
-35 -83 -191 0
-36 -84 -192 0
-37 -85 -190 0
-38 -86 -191 0
-39 -87 -192 0
-40 -88 -190 0
-41 -89 -191 0
-42 -90 -192 0
-43 -91 -190 0
-44 -92 -191 0
-45 -93 -192 0
-46 -94 -190 0
-47 -95 -191 0
-48 -96 -192 0
-49 -97 -190 0
-50 -98 -191 0
-51 -99 -192 0
-52 -100 -190 0
-53 -101 -191 0
-54 -102 -192 0
-55 -103 -190 0
-56 -104 -191 0
-57 -105 -192 0
-58 -106 -190 0
-59 -107 -191 0
-60 -108 -192 0
-61 -109 -190 0
-62 -110 -191 0
-63 -111 -192 0
-64 -112 -190 0
-65 -113 -191 0
-66 -114 -192 0
-67 -115 -190 0
-68 -116 -191 0
-69 -117 -192 0
-70 -118 -190 0
-71 -119 -191 0
-72 -120 -192 0
-73 -121 -190 0
-74 -122 -191 0
-75 -123 -192 0
-76 -124 -190 0
-77 -125 -191 0
-78 -126 -192 0
-79 -127 -190 0
-80 -128 -191 0
-81 -129 -192 0
-82 -130 -190 0
-83 -131 -191 0
-84 -132 -192 0
-85 -133 -190 0
-86 -134 -191 0
-87 -135 -192 0
-88 -136 -190 0
-89 -137 -191 0
-90 -138 -192 0
-91 -139 -190 0
-92 -140 -191 0
-93 -141 -192 0
-94 -142 -190 0
-95 -143 -191 0
-96 -144 -192 0
-97 -145 -190 0
-98 -146 -191 0
-99 -147 -192 0
-100 -148 -190 0
-101 -149 -191 0
-102 -150 -192 0
-103 -151 -190 0
-104 -152 -191 0
-105 -153 -192 0
-106 -154 -190 0
-107 -155 -191 0
-108 -156 -192 0
-109 -157 -190 0
-110 -158 -191 0
-111 -159 -192 0
-112 -160 -190 0
-113 -161 -191 0
-114 -162 -192 0
-115 -163 -190 0
-116 -164 -191 0
-117 -165 -192 0
-118 -166 -190 0
-119 -167 -191 0
-120 -168 -192 0
-121 -169 -190 0
-122 -170 -191 0
-123 -171 -192 0
-124 -172 -190 0
-125 -173 -191 0
-126 -174 -192 0
-127 -175 -190 0
-128 -176 -191 0
-129 -177 -192 0
-130 -178 -190 0
-131 -179 -191 0
-132 -180 -192 0
-133 -181 -190 0
-134 -182 -191 0
-135 -183 -192 0
-136 -184 -190 0
-137 -185 -191 0
-138 -186 -192 0
-139 -187 -190 0
-140 -188 -191 0
-141 -189 -192 0
-142 -190 0
-143 -191 0
-144 -192 0
-1 -2 0
-1 -3 0
-2 -3 0
-4 -5 0
-4 -6 0
-5 -6 0
-7 -8 0
-7 -9 0
-8 -9 0
-10 -11 0
-10 -12 0
-11 -12 0
-13 -14 0
-13 -15 0
-14 -15 0
-16 -17 0
-16 -18 0
-17 -18 0
-19 -20 0
-19 -21 0
-20 -21 0
-22 -23 0
-22 -24 0
-23 -24 0
-25 -26 0
-25 -27 0
-26 -27 0
-28 -29 0
-28 -30 0
-29 -30 0
-31 -32 0
-31 -33 0
-32 -33 0
-34 -35 0
-34 -36 0
-35 -36 0
-37 -38 0
-37 -39 0
-38 -39 0
-40 -41 0
-40 -42 0
-41 -42 0
-43 -44 0
-43 -45 0
-44 -45 0
-46 -47 0
-46 -48 0
-47 -48 0
-49 -50 0
-49 -51 0
-50 -51 0
-52 -53 0
-52 -54 0
-53 -54 0
-55 -56 0
-55 -57 0
-56 -57 0
-58 -59 0
-58 -60 0
-59 -60 0
-61 -62 0
-61 -63 0
-62 -63 0
-64 -65 0
-64 -66 0
-65 -66 0
-67 -68 0
-67 -69 0
-68 -69 0
-70 -71 0
-70 -72 0
-71 -72 0
-73 -74 0
-73 -75 0
-74 -75 0
-76 -77 0
-76 -78 0
-77 -78 0
-79 -80 0
-79 -81 0
-80 -81 0
-82 -83 0
-82 -84 0
-83 -84 0
-85 -86 0
-85 -87 0
-86 -87 0
-88 -89 0
-88 -90 0
-89 -90 0
-91 -92 0
-91 -93 0
-92 -93 0
-94 -95 0
-94 -96 0
-95 -96 0
-97 -98 0
-97 -99 0
-98 -99 0
-100 -101 0
-100 -102 0
-101 -102 0
-103 -104 0
-103 -105 0
-104 -105 0
-106 -107 0
-106 -108 0
-107 -108 0
-109 -110 0
-109 -111 0
-110 -111 0
-112 -113 0
-112 -114 0
-113 -114 0
-115 -116 0
-115 -117 0
-116 -117 0
-118 -119 0
-118 -120 0
-119 -120 0
-121 -122 0
-121 -123 0
-122 -123 0
-124 -125 0
-124 -126 0
-125 -126 0
-127 -128 0
-127 -129 0
-128 -129 0
-130 -131 0
-130 -132 0
-131 -132 0
-133 -134 0
-133 -135 0
-134 -135 0
-136 -137 0
-136 -138 0
-137 -138 0
-139 -140 0
-139 -141 0
-140 -141 0
-142 -143 0
-142 -144 0
-143 -144 0
-145 -146 0
-145 -147 0
-146 -147 0
-148 -149 0
-148 -150 0
-149 -150 0
-151 -152 0
-151 -153 0
-152 -153 0
-154 -155 0
-154 -156 0
-155 -156 0
-157 -158 0
-157 -159 0
-158 -159 0
-160 -161 0
-160 -162 0
-161 -162 0
-163 -164 0
-163 -165 0
-164 -165 0
-166 -167 0
-166 -168 0
-167 -168 0
-169 -170 0
-169 -171 0
-170 -171 0
-172 -173 0
-172 -174 0
-173 -174 0
-175 -176 0
-175 -177 0
-176 -177 0
-178 -179 0
-178 -180 0
-179 -180 0
-181 -182 0
-181 -183 0
-182 -183 0
-184 -185 0
-184 -186 0
-185 -186 0
-187 -188 0
-187 -189 0
-188 -189 0
-190 -191 0
-190 -192 0
-191 -192 0
1 0
-5 1 0
-6 0
-8 1 4 0
-9 2 5 0
-11 1 4 7 0
-12 2 5 8 0
-14 1 4 7 10 0
-15 2 5 8 11 0
-17 1 4 7 10 13 0
-18 2 5 8 11 14 0
-20 1 4 7 10 13 16 0
-21 2 5 8 11 14 17 0
-23 1 4 7 10 13 16 19 0
-24 2 5 8 11 14 17 20 0
-26 1 4 7 10 13 16 19 22 0
-27 2 5 8 11 14 17 20 23 0
-29 1 4 7 10 13 16 19 22 25 0
-30 2 5 8 11 14 17 20 23 26 0
-32 1 4 7 10 13 16 19 22 25 28 0
-33 2 5 8 11 14 17 20 23 26 29 0
-35 1 4 7 10 13 16 19 22 25 28 31 0
-36 2 5 8 11 14 17 20 23 26 29 32 0
-38 1 4 7 10 13 16 19 22 25 28 31 34 0
-39 2 5 8 11 14 17 20 23 26 29 32 35 0
-41 1 4 7 10 13 16 19 22 25 28 31 34 37 0
-42 2 5 8 11 14 17 20 23 26 29 32 35 38 0
-44 1 4 7 10 13 16 19 22 25 28 31 34 37 40 0
-45 2 5 8 11 14 17 20 23 26 29 32 35 38 41 0
-47 1 4 7 10 13 16 19 22 25 28 31 34 37 40 43 0
-48 2 5 8 11 14 17 20 23 26 29 32 35 38 41 44 0
-50 1 4 7 10 13 16 19 22 25 28 31 34 37 40 43 46 0
-51 2 5 8 11 14 17 20 23 26 29 32 35 38 41 44 47 0
-53 1 4 7 10 13 16 19 22 25 28 31 34 37 40 43 46 49 0
-54 2 5 8 11 14 17 20 23 26 29 32 35 38 41 44 47 50 0
-56 1 4 7 10 13 16 19 22 25 28 31 34 37 40 43 46 49 52 0
-57 2 5 8 11 14 17 20 23 26 29 32 35 38 41 44 47 50 53 0
-59 1 4 7 10 13 16 19 22 25 28 31 34 37 40 43 46 49 52 55 0
-60 2 5 8 11 14 17 20 23 26 29 32 35 38 41 44 47 50 53 56 0
-62 1 4 7 10 13 16 19 22 25 28 31 34 37 40 43 46 49 52 55 58 0
-63 2 5 8 11 14 17 20 23 26 29 32 35 38 41 44 47 50 53 56 59 0
-65 1 4 7 10 13 16 19 22 25 28 31 34 37 40 43 46 49 52 55 58 61 0
-66 2 5 8 11 14 17 20 23 26 29 32 35 38 41 44 47 50 53 56 59 62 0
-68 1 4 7 10 13 16 19 22 25 28 31 34 37 40 43 46 49 52 55 58 61 64 0
-69 2 5 8 11 14 17 20 23 26 29 32 35 38 41 44 47 50 53 56 59 62 65 0
-71 1 4 7 10 13 16 19 22 25 28 31 34 37 40 43 46 49 52 55 58 61 64 67 0
-72 2 5 8 11 14 17 20 23 26 29 32 35 38 41 44 47 50 53 56 59 62 65 68 0
-74 1 4 7 10 13 16 19 22 25 28 31 34 37 40 43 46 49 52 55 58 61 64 67 70 0
-75 2 5 8 11 14 17 20 23 26 29 32 35 38 41 44 47 50 53 56 59 62 65 68 71 0
-77 1 4 7 10 13 16 19 22 25 28 31 34 37 40 43 46 49 52 55 58 61 64 67 70 73 0
-78 2 5 8 11 14 17 20 23 26 29 32 35 38 41 44 47 50 53 56 59 62 65 68 71 74 0
-80 1 4 7 10 13 16 19 22 25 28 31 34 37 40 43 46 49 52 55 58 61 64 67 70 73 76 0
-81 2 5 8 11 14 17 20 23 26 29 32 35 38 41 44 47 50 53 56 59 62 65 68 71 74 77 0
-83 1 4 7 10 13 16 19 22 25 28 31 34 37 40 43 46 49 52 55 58 61 64 67 70 73 76 79 0
-84 2 5 8 11 14 17 20 23 26 29 32 35 38 41 44 47 50 53 56 59 62 65 68 71 74 77 80 0
-86 1 4 7 10 13 16 19 22 25 28 31 34 37 40 43 46 49 52 55 58 61 64 67 70 73 76 79 82 0
-87 2 5 8 11 14 17 20 23 26 29 32 35 38 41 44 47 50 53 56 59 62 65 68 71 74 77 80 83 0
-89 1 4 7 10 13 16 19 22 25 28 31 34 37 40 43 46 49 52 55 58 61 64 67 70 73 76 79 82 85 0
-90 2 5 8 11 14 17 20 23 26 29 32 35 38 41 44 47 50 53 56 59 62 65 68 71 74 77 80 83 86 0
-92 1 4 7 10 13 16 19 22 25 28 31 34 37 40 43 46 49 52 55 58 61 64 67 70 73 76 79 82 85 88 0
-93 2 5 8 11 14 17 20 23 26 29 32 35 38 41 44 47 50 53 56 59 62 65 68 71 74 77 80 83 86 89 0
-95 1 4 7 10 13 16 19 22 25 28 31 34 37 40 43 46 49 52 55 58 61 64 67 70 73 76 79 82 85 88 91 0
-96 2 5 8 11 14 17 20 23 26 29 32 35 38 41 44 47 50 53 56 59 62 65 68 71 74 77 80 83 86 89 92 0
-98 1 4 7 10 13 16 19 22 25 28 31 34 37 40 43 46 49 52 55 58 61 64 67 70 73 76 79 82 85 88 91 94 0
-99 2 5 8 11 14 17 20 23 26 29 32 35 38 41 44 47 50 53 56 59 62 65 68 71 74 77 80 83 86 89 92 95 0
-101 1 4 7 10 13 16 19 22 25 28 31 34 37 40 43 46 49 52 55 58 61 64 67 70 73 76 79 82 85 88 91 94 97 0
-102 2 5 8 11 14 17 20 23 26 29 32 35 38 41 44 47 50 53 56 59 62 65 68 71 74 77 80 83 86 89 92 95 98 0
-104 1 4 7 10 13 16 19 22 25 28 31 34 37 40 43 46 49 52 55 58 61 64 67 70 73 76 79 82 85 88 91 94 97 100 0
-105 2 5 8 11 14 17 20 23 26 29 32 35 38 41 44 47 50 53 56 59 62 65 68 71 74 77 80 83 86 89 92 95 98 101 0
-107 1 4 7 10 13 16 19 22 25 28 31 34 37 40 43 46 49 52 55 58 61 64 67 70 73 76 79 82 85 88 91 94 97 100 103 0
-108 2 5 8 11 14 17 20 23 26 29 32 35 38 41 44 47 50 53 56 59 62 65 68 71 74 77 80 83 86 89 92 95 98 101 104 0
-110 1 4 7 10 13 16 19 22 25 28 31 34 37 40 43 46 49 52 55 58 61 64 67 70 73 76 79 82 85 88 91 94 97 100 103 106 0
-111 2 5 8 11 14 17 20 23 26 29 32 35 38 41 44 47 50 53 56 59 62 65 68 71 74 77 80 83 86 89 92 95 98 101 104 107 0
-113 1 4 7 10 13 16 19 22 25 28 31 34 37 40 43 46 49 52 55 58 61 64 67 70 73 76 79 82 85 88 91 94 97 100 103 106 109 0
-114 2 5 8 11 14 17 20 23 26 29 32 35 38 41 44 47 50 53 56 59 62 65 68 71 74 77 80 83 86 89 92 95 98 101 104 107 110 0
-116 1 4 7 10 13 16 19 22 25 28 31 34 37 40 43 46 49 52 55 58 61 64 67 70 73 76 79 82 85 88 91 94 97 100 103 106 109 112 0
-117 2 5 8 11 14 17 20 23 26 29 32 35 38 41 44 47 50 53 56 59 62 65 68 71 74 77 80 83 86 89 92 95 98 101 104 107 110 113 0
-119 1 4 7 10 13 16 19 22 25 28 31 34 37 40 43 46 49 52 55 58 61 64 67 70 73 76 79 82 85 88 91 94 97 100 103 106 109 112 115 0
-120 2 5 8 11 14 17 20 23 26 29 32 35 38 41 44 47 50 53 56 59 62 65 68 71 74 77 80 83 86 89 92 95 98 101 104 107 110 113 116 0
-122 1 4 7 10 13 16 19 22 25 28 31 34 37 40 43 46 49 52 55 58 61 64 67 70 73 76 79 82 85 88 91 94 97 100 103 106 109 112 115 118 0
-123 2 5 8 11 14 17 20 23 26 29 32 35 38 41 44 47 50 53 56 59 62 65 68 71 74 77 80 83 86 89 92 95 98 101 104 107 110 113 116 119 0
-125 1 4 7 10 13 16 19 22 25 28 31 34 37 40 43 46 49 52 55 58 61 64 67 70 73 76 79 82 85 88 91 94 97 100 103 106 109 112 115 118 121 0
-126 2 5 8 11 14 17 20 23 26 29 32 35 38 41 44 47 50 53 56 59 62 65 68 71 74 77 80 83 86 89 92 95 98 101 104 107 110 113 116 119 122 0
-128 1 4 7 10 13 16 19 22 25 28 31 34 37 40 43 46 49 52 55 58 61 64 67 70 73 76 79 82 85 88 91 94 97 100 103 106 109 112 115 118 121 124 0
-129 2 5 8 11 14 17 20 23 26 29 32 35 38 41 44 47 50 53 56 59 62 65 68 71 74 77 80 83 86 89 92 95 98 101 104 107 110 113 116 119 122 125 0
-131 1 4 7 10 13 16 19 22 25 28 31 34 37 40 43 46 49 52 55 58 61 64 67 70 73 76 79 82 85 88 91 94 97 100 103 106 109 112 115 118 121 124 127 0
-132 2 5 8 11 14 17 20 23 26 29 32 35 38 41 44 47 50 53 56 59 62 65 68 71 74 77 80 83 86 89 92 95 98 101 104 107 110 113 116 119 122 125 128 0
-134 1 4 7 10 13 16 19 22 25 28 31 34 37 40 43 46 49 52 55 58 61 64 67 70 73 76 79 82 85 88 91 94 97 100 103 106 109 112 115 118 121 124 127 130 0
-135 2 5 8 11 14 17 20 23 26 29 32 35 38 41 44 47 50 53 56 59 62 65 68 71 74 77 80 83 86 89 92 95 98 101 104 107 110 113 116 119 122 125 128 131 0
-137 1 4 7 10 13 16 19 22 25 28 31 34 37 40 43 46 49 52 55 58 61 64 67 70 73 76 79 82 85 88 91 94 97 100 103 106 109 112 115 118 121 124 127 130 133 0
-138 2 5 8 11 14 17 20 23 26 29 32 35 38 41 44 47 50 53 56 59 62 65 68 71 74 77 80 83 86 89 92 95 98 101 104 107 110 113 116 119 122 125 128 131 134 0
-140 1 4 7 10 13 16 19 22 25 28 31 34 37 40 43 46 49 52 55 58 61 64 67 70 73 76 79 82 85 88 91 94 97 100 103 106 109 112 115 118 121 124 127 130 133 136 0
-141 2 5 8 11 14 17 20 23 26 29 32 35 38 41 44 47 50 53 56 59 62 65 68 71 74 77 80 83 86 89 92 95 98 101 104 107 110 113 116 119 122 125 128 131 134 137 0
-143 1 4 7 10 13 16 19 22 25 28 31 34 37 40 43 46 49 52 55 58 61 64 67 70 73 76 79 82 85 88 91 94 97 100 103 106 109 112 115 118 121 124 127 130 133 136 139 0
-144 2 5 8 11 14 17 20 23 26 29 32 35 38 41 44 47 50 53 56 59 62 65 68 71 74 77 80 83 86 89 92 95 98 101 104 107 110 113 116 119 122 125 128 131 134 137 140 0
-146 1 4 7 10 13 16 19 22 25 28 31 34 37 40 43 46 49 52 55 58 61 64 67 70 73 76 79 82 85 88 91 94 97 100 103 106 109 112 115 118 121 124 127 130 133 136 139 142 0
-147 2 5 8 11 14 17 20 23 26 29 32 35 38 41 44 47 50 53 56 59 62 65 68 71 74 77 80 83 86 89 92 95 98 101 104 107 110 113 116 119 122 125 128 131 134 137 140 143 0
-149 1 4 7 10 13 16 19 22 25 28 31 34 37 40 43 46 49 52 55 58 61 64 67 70 73 76 79 82 85 88 91 94 97 100 103 106 109 112 115 118 121 124 127 130 133 136 139 142 145 0
-150 2 5 8 11 14 17 20 23 26 29 32 35 38 41 44 47 50 53 56 59 62 65 68 71 74 77 80 83 86 89 92 95 98 101 104 107 110 113 116 119 122 125 128 131 134 137 140 143 146 0
-152 1 4 7 10 13 16 19 22 25 28 31 34 37 40 43 46 49 52 55 58 61 64 67 70 73 76 79 82 85 88 91 94 97 100 103 106 109 112 115 118 121 124 127 130 133 136 139 142 145 148 0
-153 2 5 8 11 14 17 20 23 26 29 32 35 38 41 44 47 50 53 56 59 62 65 68 71 74 77 80 83 86 89 92 95 98 101 104 107 110 113 116 119 122 125 128 131 134 137 140 143 146 149 0
-155 1 4 7 10 13 16 19 22 25 28 31 34 37 40 43 46 49 52 55 58 61 64 67 70 73 76 79 82 85 88 91 94 97 100 103 106 109 112 115 118 121 124 127 130 133 136 139 142 145 148 151 0
-156 2 5 8 11 14 17 20 23 26 29 32 35 38 41 44 47 50 53 56 59 62 65 68 71 74 77 80 83 86 89 92 95 98 101 104 107 110 113 116 119 122 125 128 131 134 137 140 143 146 149 152 0
-158 1 4 7 10 13 16 19 22 25 28 31 34 37 40 43 46 49 52 55 58 61 64 67 70 73 76 79 82 85 88 91 94 97 100 103 106 109 112 115 118 121 124 127 130 133 136 139 142 145 148 151 154 0
-159 2 5 8 11 14 17 20 23 26 29 32 35 38 41 44 47 50 53 56 59 62 65 68 71 74 77 80 83 86 89 92 95 98 101 104 107 110 113 116 119 122 125 128 131 134 137 140 143 146 149 152 155 0
-161 1 4 7 10 13 16 19 22 25 28 31 34 37 40 43 46 49 52 55 58 61 64 67 70 73 76 79 82 85 88 91 94 97 100 103 106 109 112 115 118 121 124 127 130 133 136 139 142 145 148 151 154 157 0
-162 2 5 8 11 14 17 20 23 26 29 32 35 38 41 44 47 50 53 56 59 62 65 68 71 74 77 80 83 86 89 92 95 98 101 104 107 110 113 116 119 122 125 128 131 134 137 140 143 146 149 152 155 158 0
-164 1 4 7 10 13 16 19 22 25 28 31 34 37 40 43 46 49 52 55 58 61 64 67 70 73 76 79 82 85 88 91 94 97 100 103 106 109 112 115 118 121 124 127 130 133 136 139 142 145 148 151 154 157 160 0
-165 2 5 8 11 14 17 20 23 26 29 32 35 38 41 44 47 50 53 56 59 62 65 68 71 74 77 80 83 86 89 92 95 98 101 104 107 110 113 116 119 122 125 128 131 134 137 140 143 146 149 152 155 158 161 0
-167 1 4 7 10 13 16 19 22 25 28 31 34 37 40 43 46 49 52 55 58 61 64 67 70 73 76 79 82 85 88 91 94 97 100 103 106 109 112 115 118 121 124 127 130 133 136 139 142 145 148 151 154 157 160 163 0
-168 2 5 8 11 14 17 20 23 26 29 32 35 38 41 44 47 50 53 56 59 62 65 68 71 74 77 80 83 86 89 92 95 98 101 104 107 110 113 116 119 122 125 128 131 134 137 140 143 146 149 152 155 158 161 164 0
-170 1 4 7 10 13 16 19 22 25 28 31 34 37 40 43 46 49 52 55 58 61 64 67 70 73 76 79 82 85 88 91 94 97 100 103 106 109 112 115 118 121 124 127 130 133 136 139 142 145 148 151 154 157 160 163 166 0
-171 2 5 8 11 14 17 20 23 26 29 32 35 38 41 44 47 50 53 56 59 62 65 68 71 74 77 80 83 86 89 92 95 98 101 104 107 110 113 116 119 122 125 128 131 134 137 140 143 146 149 152 155 158 161 164 167 0
-173 1 4 7 10 13 16 19 22 25 28 31 34 37 40 43 46 49 52 55 58 61 64 67 70 73 76 79 82 85 88 91 94 97 100 103 106 109 112 115 118 121 124 127 130 133 136 139 142 145 148 151 154 157 160 163 166 169 0
-174 2 5 8 11 14 17 20 23 26 29 32 35 38 41 44 47 50 53 56 59 62 65 68 71 74 77 80 83 86 89 92 95 98 101 104 107 110 113 116 119 122 125 128 131 134 137 140 143 146 149 152 155 158 161 164 167 170 0
-176 1 4 7 10 13 16 19 22 25 28 31 34 37 40 43 46 49 52 55 58 61 64 67 70 73 76 79 82 85 88 91 94 97 100 103 106 109 112 115 118 121 124 127 130 133 136 139 142 145 148 151 154 157 160 163 166 169 172 0
-177 2 5 8 11 14 17 20 23 26 29 32 35 38 41 44 47 50 53 56 59 62 65 68 71 74 77 80 83 86 89 92 95 98 101 104 107 110 113 116 119 122 125 128 131 134 137 140 143 146 149 152 155 158 161 164 167 170 173 0
-179 1 4 7 10 13 16 19 22 25 28 31 34 37 40 43 46 49 52 55 58 61 64 67 70 73 76 79 82 85 88 91 94 97 100 103 106 109 112 115 118 121 124 127 130 133 136 139 142 145 148 151 154 157 160 163 166 169 172 175 0
-180 2 5 8 11 14 17 20 23 26 29 32 35 38 41 44 47 50 53 56 59 62 65 68 71 74 77 80 83 86 89 92 95 98 101 104 107 110 113 116 119 122 125 128 131 134 137 140 143 146 149 152 155 158 161 164 167 170 173 176 0
-182 1 4 7 10 13 16 19 22 25 28 31 34 37 40 43 46 49 52 55 58 61 64 67 70 73 76 79 82 85 88 91 94 97 100 103 106 109 112 115 118 121 124 127 130 133 136 139 142 145 148 151 154 157 160 163 166 169 172 175 178 0
-183 2 5 8 11 14 17 20 23 26 29 32 35 38 41 44 47 50 53 56 59 62 65 68 71 74 77 80 83 86 89 92 95 98 101 104 107 110 113 116 119 122 125 128 131 134 137 140 143 146 149 152 155 158 161 164 167 170 173 176 179 0
-185 1 4 7 10 13 16 19 22 25 28 31 34 37 40 43 46 49 52 55 58 61 64 67 70 73 76 79 82 85 88 91 94 97 100 103 106 109 112 115 118 121 124 127 130 133 136 139 142 145 148 151 154 157 160 163 166 169 172 175 178 181 0
-186 2 5 8 11 14 17 20 23 26 29 32 35 38 41 44 47 50 53 56 59 62 65 68 71 74 77 80 83 86 89 92 95 98 101 104 107 110 113 116 119 122 125 128 131 134 137 140 143 146 149 152 155 158 161 164 167 170 173 176 179 182 0
-188 1 4 7 10 13 16 19 22 25 28 31 34 37 40 43 46 49 52 55 58 61 64 67 70 73 76 79 82 85 88 91 94 97 100 103 106 109 112 115 118 121 124 127 130 133 136 139 142 145 148 151 154 157 160 163 166 169 172 175 178 181 184 0
-189 2 5 8 11 14 17 20 23 26 29 32 35 38 41 44 47 50 53 56 59 62 65 68 71 74 77 80 83 86 89 92 95 98 101 104 107 110 113 116 119 122 125 128 131 134 137 140 143 146 149 152 155 158 161 164 167 170 173 176 179 182 185 0
-191 1 4 7 10 13 16 19 22 25 28 31 34 37 40 43 46 49 52 55 58 61 64 67 70 73 76 79 82 85 88 91 94 97 100 103 106 109 112 115 118 121 124 127 130 133 136 139 142 145 148 151 154 157 160 163 166 169 172 175 178 181 184 187 0
-192 2 5 8 11 14 17 20 23 26 29 32 35 38 41 44 47 50 53 56 59 62 65 68 71 74 77 80 83 86 89 92 95 98 101 104 107 110 113 116 119 122 125 128 131 134 137 140 143 146 149 152 155 158 161 164 167 170 173 176 179 182 185 188 0
