p cnf 540 10529
1 2 3 0
4 5 6 0
7 8 9 0
10 11 12 0
13 14 15 0
16 17 18 0
19 20 21 0
22 23 24 0
25 26 27 0
28 29 30 0
31 32 33 0
34 35 36 0
37 38 39 0
40 41 42 0
43 44 45 0
46 47 48 0
49 50 51 0
52 53 54 0
55 56 57 0
58 59 60 0
61 62 63 0
64 65 66 0
67 68 69 0
70 71 72 0
73 74 75 0
76 77 78 0
79 80 81 0
82 83 84 0
85 86 87 0
88 89 90 0
91 92 93 0
94 95 96 0
97 98 99 0
100 101 102 0
103 104 105 0
106 107 108 0
109 110 111 0
112 113 114 0
115 116 117 0
118 119 120 0
121 122 123 0
124 125 126 0
127 128 129 0
130 131 132 0
133 134 135 0
136 137 138 0
139 140 141 0
142 143 144 0
145 146 147 0
148 149 150 0
151 152 153 0
154 155 156 0
157 158 159 0
160 161 162 0
163 164 165 0
166 167 168 0
169 170 171 0
172 173 174 0
175 176 177 0
178 179 180 0
181 182 183 0
184 185 186 0
187 188 189 0
190 191 192 0
193 194 195 0
196 197 198 0
199 200 201 0
202 203 204 0
205 206 207 0
208 209 210 0
211 212 213 0
214 215 216 0
217 218 219 0
220 221 222 0
223 224 225 0
226 227 228 0
229 230 231 0
232 233 234 0
235 236 237 0
238 239 240 0
241 242 243 0
244 245 246 0
247 248 249 0
250 251 252 0
253 254 255 0
256 257 258 0
259 260 261 0
262 263 264 0
265 266 267 0
268 269 270 0
271 272 273 0
274 275 276 0
277 278 279 0
280 281 282 0
283 284 285 0
286 287 288 0
289 290 291 0
292 293 294 0
295 296 297 0
298 299 300 0
301 302 303 0
304 305 306 0
307 308 309 0
310 311 312 0
313 314 315 0
316 317 318 0
319 320 321 0
322 323 324 0
325 326 327 0
328 329 330 0
331 332 333 0
334 335 336 0
337 338 339 0
340 341 342 0
343 344 345 0
346 347 348 0
349 350 351 0
352 353 354 0
355 356 357 0
358 359 360 0
361 362 363 0
364 365 366 0
367 368 369 0
370 371 372 0
373 374 375 0
376 377 378 0
379 380 381 0
382 383 384 0
385 386 387 0
388 389 390 0
391 392 393 0
394 395 396 0
397 398 399 0
400 401 402 0
403 404 405 0
406 407 408 0
409 410 411 0
412 413 414 0
415 416 417 0
418 419 420 0
421 422 423 0
424 425 426 0
427 428 429 0
430 431 432 0
433 434 435 0
436 437 438 0
439 440 441 0
442 443 444 0
445 446 447 0
448 449 450 0
451 452 453 0
454 455 456 0
457 458 459 0
460 461 462 0
463 464 465 0
466 467 468 0
469 470 471 0
472 473 474 0
475 476 477 0
478 479 480 0
481 482 483 0
484 485 486 0
487 488 489 0
490 491 492 0
493 494 495 0
496 497 498 0
499 500 501 0
502 503 504 0
505 506 507 0
508 509 510 0
511 512 513 0
514 515 516 0
517 518 519 0
520 521 522 0
523 524 525 0
526 527 528 0
529 530 531 0
532 533 534 0
535 536 537 0
538 539 540 0
-1 -10 -16 0
-2 -11 -17 0
-3 -12 -18 0
-4 -10 -19 0
-5 -11 -20 0
-6 -12 -21 0
-7 -10 -22 0
-8 -11 -23 0
-9 -12 -24 0
-10 -25 0
-11 -26 0
-12 -27 0
-10 -13 -28 0
-11 -14 -29 0
-12 -15 -30 0
-10 -16 -31 0
-11 -17 -32 0
-12 -18 -33 0
-10 -19 -34 0
-11 -20 -35 0
-12 -21 -36 0
-10 -22 -37 0
-11 -23 -38 0
-12 -24 -39 0
-10 -25 -40 0
-11 -26 -41 0
-12 -27 -42 0
-10 -28 -43 0
-11 -29 -44 0
-12 -30 -45 0
-10 -31 -46 0
-11 -32 -47 0
-12 -33 -48 0
-10 -34 -49 0
-11 -35 -50 0
-12 -36 -51 0
-10 -37 -52 0
-11 -38 -53 0
-12 -39 -54 0
-10 -40 -55 0
-11 -41 -56 0
-12 -42 -57 0
-10 -43 -58 0
-11 -44 -59 0
-12 -45 -60 0
-10 -46 -61 0
-11 -47 -62 0
-12 -48 -63 0
-10 -49 -64 0
-11 -50 -65 0
-12 -51 -66 0
-10 -52 -67 0
-11 -53 -68 0
-12 -54 -69 0
-10 -55 -70 0
-11 -56 -71 0
-12 -57 -72 0
-10 -58 -73 0
-11 -59 -74 0
-12 -60 -75 0
-10 -61 -76 0
-11 -62 -77 0
-12 -63 -78 0
-10 -64 -79 0
-11 -65 -80 0
-12 -66 -81 0
-10 -67 -82 0
-11 -68 -83 0
-12 -69 -84 0
-10 -70 -85 0
-11 -71 -86 0
-12 -72 -87 0
-10 -73 -88 0
-11 -74 -89 0
-12 -75 -90 0
-10 -76 -91 0
-11 -77 -92 0
-12 -78 -93 0
-10 -79 -94 0
-11 -80 -95 0
-12 -81 -96 0
-10 -82 -97 0
-11 -83 -98 0
-12 -84 -99 0
-10 -85 -100 0
-11 -86 -101 0
-12 -87 -102 0
-10 -88 -103 0
-11 -89 -104 0
-12 -90 -105 0
-10 -91 -106 0
-11 -92 -107 0
-12 -93 -108 0
-10 -94 -109 0
-11 -95 -110 0
-12 -96 -111 0
-10 -97 -112 0
-11 -98 -113 0
-12 -99 -114 0
-10 -100 -115 0
-11 -101 -116 0
-12 -102 -117 0
-10 -103 -118 0
-11 -104 -119 0
-12 -105 -120 0
-10 -106 -121 0
-11 -107 -122 0
-12 -108 -123 0
-10 -109 -124 0
-11 -110 -125 0
-12 -111 -126 0
-10 -112 -127 0
-11 -113 -128 0
-12 -114 -129 0
-10 -115 -130 0
-11 -116 -131 0
-12 -117 -132 0
-10 -118 -133 0
-11 -119 -134 0
-12 -120 -135 0
-10 -121 -136 0
-11 -122 -137 0
-12 -123 -138 0
-10 -124 -139 0
-11 -125 -140 0
-12 -126 -141 0
-10 -127 -142 0
-11 -128 -143 0
-12 -129 -144 0
-10 -130 -145 0
-11 -131 -146 0
-12 -132 -147 0
-10 -133 -148 0
-11 -134 -149 0
-12 -135 -150 0
-10 -136 -151 0
-11 -137 -152 0
-12 -138 -153 0
-10 -139 -154 0
-11 -140 -155 0
-12 -141 -156 0
-10 -142 -157 0
-11 -143 -158 0
-12 -144 -159 0
-10 -145 -160 0
-11 -146 -161 0
-12 -147 -162 0
-10 -148 -163 0
-11 -149 -164 0
-12 -150 -165 0
-10 -151 -166 0
-11 -152 -167 0
-12 -153 -168 0
-10 -154 -169 0
-11 -155 -170 0
-12 -156 -171 0
-10 -157 -172 0
-11 -158 -173 0
-12 -159 -174 0
-10 -160 -175 0
-11 -161 -176 0
-12 -162 -177 0
-10 -163 -178 0
-11 -164 -179 0
-12 -165 -180 0
-10 -166 -181 0
-11 -167 -182 0
-12 -168 -183 0
-10 -169 -184 0
-11 -170 -185 0
-12 -171 -186 0
-10 -172 -187 0
-11 -173 -188 0
-12 -174 -189 0
-10 -175 -190 0
-11 -176 -191 0
-12 -177 -192 0
-10 -178 -193 0
-11 -179 -194 0
-12 -180 -195 0
-10 -181 -196 0
-11 -182 -197 0
-12 -183 -198 0
-10 -184 -199 0
-11 -185 -200 0
-12 -186 -201 0
-10 -187 -202 0
-11 -188 -203 0
-12 -189 -204 0
-10 -190 -205 0
-11 -191 -206 0
-12 -192 -207 0
-10 -193 -208 0
-11 -194 -209 0
-12 -195 -210 0
-10 -196 -211 0
-11 -197 -212 0
-12 -198 -213 0
-10 -199 -214 0
-11 -200 -215 0
-12 -201 -216 0
-10 -202 -217 0
-11 -203 -218 0
-12 -204 -219 0
-10 -205 -220 0
-11 -206 -221 0
-12 -207 -222 0
-10 -208 -223 0
-11 -209 -224 0
-12 -210 -225 0
-10 -211 -226 0
-11 -212 -227 0
-12 -213 -228 0
-10 -214 -229 0
-11 -215 -230 0
-12 -216 -231 0
-10 -217 -232 0
-11 -218 -233 0
-12 -219 -234 0
-10 -220 -235 0
-11 -221 -236 0
-12 -222 -237 0
-10 -223 -238 0
-11 -224 -239 0
-12 -225 -240 0
-10 -226 -241 0
-11 -227 -242 0
-12 -228 -243 0
-10 -229 -244 0
-11 -230 -245 0
-12 -231 -246 0
-10 -232 -247 0
-11 -233 -248 0
-12 -234 -249 0
-10 -235 -250 0
-11 -236 -251 0
-12 -237 -252 0
-10 -238 -253 0
-11 -239 -254 0
-12 -240 -255 0
-10 -241 -256 0
-11 -242 -257 0
-12 -243 -258 0
-10 -244 -259 0
-11 -245 -260 0
-12 -246 -261 0
-10 -247 -262 0
-11 -248 -263 0
-12 -249 -264 0
-10 -250 -265 0
-11 -251 -266 0
-12 -252 -267 0
-10 -253 -268 0
-11 -254 -269 0
-12 -255 -270 0
-10 -256 -271 0
-11 -257 -272 0
-12 -258 -273 0
-10 -259 -274 0
-11 -260 -275 0
-12 -261 -276 0
-10 -262 -277 0
-11 -263 -278 0
-12 -264 -279 0
-10 -265 -280 0
-11 -266 -281 0
-12 -267 -282 0
-10 -268 -283 0
-11 -269 -284 0
-12 -270 -285 0
-10 -271 -286 0
-11 -272 -287 0
-12 -273 -288 0
-10 -274 -289 0
-11 -275 -290 0
-12 -276 -291 0
-10 -277 -292 0
-11 -278 -293 0
-12 -279 -294 0
-10 -280 -295 0
-11 -281 -296 0
-12 -282 -297 0
-10 -283 -298 0
-11 -284 -299 0
-12 -285 -300 0
-10 -286 -301 0
-11 -287 -302 0
-12 -288 -303 0
-10 -289 -304 0
-11 -290 -305 0
-12 -291 -306 0
-10 -292 -307 0
-11 -293 -308 0
-12 -294 -309 0
-10 -295 -310 0
-11 -296 -311 0
-12 -297 -312 0
-10 -298 -313 0
-11 -299 -314 0
-12 -300 -315 0
-10 -301 -316 0
-11 -302 -317 0
-12 -303 -318 0
-10 -304 -319 0
-11 -305 -320 0
-12 -306 -321 0
-10 -307 -322 0
-11 -308 -323 0
-12 -309 -324 0
-10 -310 -325 0
-11 -311 -326 0
-12 -312 -327 0
-10 -313 -328 0
-11 -314 -329 0
-12 -315 -330 0
-10 -316 -331 0
-11 -317 -332 0
-12 -318 -333 0
-10 -319 -334 0
-11 -320 -335 0
-12 -321 -336 0
-10 -322 -337 0
-11 -323 -338 0
-12 -324 -339 0
-10 -325 -340 0
-11 -326 -341 0
-12 -327 -342 0
-10 -328 -343 0
-11 -329 -344 0
-12 -330 -345 0
-10 -331 -346 0
-11 -332 -347 0
-12 -333 -348 0
-10 -334 -349 0
-11 -335 -350 0
-12 -336 -351 0
-10 -337 -352 0
-11 -338 -353 0
-12 -339 -354 0
-10 -340 -355 0
-11 -341 -356 0
-12 -342 -357 0
-10 -343 -358 0
-11 -344 -359 0
-12 -345 -360 0
-10 -346 -361 0
-11 -347 -362 0
-12 -348 -363 0
-10 -349 -364 0
-11 -350 -365 0
-12 -351 -366 0
-10 -352 -367 0
-11 -353 -368 0
-12 -354 -369 0
-10 -355 -370 0
-11 -356 -371 0
-12 -357 -372 0
-10 -358 -373 0
-11 -359 -374 0
-12 -360 -375 0
-10 -361 -376 0
-11 -362 -377 0
-12 -363 -378 0
-10 -364 -379 0
-11 -365 -380 0
-12 -366 -381 0
-10 -367 -382 0
-11 -368 -383 0
-12 -369 -384 0
-10 -370 -385 0
-11 -371 -386 0
-12 -372 -387 0
-10 -373 -388 0
-11 -374 -389 0
-12 -375 -390 0
-10 -376 -391 0
-11 -377 -392 0
-12 -378 -393 0
-10 -379 -394 0
-11 -380 -395 0
-12 -381 -396 0
-10 -382 -397 0
-11 -383 -398 0
-12 -384 -399 0
-10 -385 -400 0
-11 -386 -401 0
-12 -387 -402 0
-10 -388 -403 0
-11 -389 -404 0
-12 -390 -405 0
-10 -391 -406 0
-11 -392 -407 0
-12 -393 -408 0
-10 -394 -409 0
-11 -395 -410 0
-12 -396 -411 0
-10 -397 -412 0
-11 -398 -413 0
-12 -399 -414 0
-10 -400 -415 0
-11 -401 -416 0
-12 -402 -417 0
-10 -403 -418 0
-11 -404 -419 0
-12 -405 -420 0
-10 -406 -421 0
-11 -407 -422 0
-12 -408 -423 0
-10 -409 -424 0
-11 -410 -425 0
-12 -411 -426 0
-10 -412 -427 0
-11 -413 -428 0
-12 -414 -429 0
-10 -415 -430 0
-11 -416 -431 0
-12 -417 -432 0
-10 -418 -433 0
-11 -419 -434 0
-12 -420 -435 0
-10 -421 -436 0
-11 -422 -437 0
-12 -423 -438 0
-10 -424 -439 0
-11 -425 -440 0
-12 -426 -441 0
-10 -427 -442 0
-11 -428 -443 0
-12 -429 -444 0
-10 -430 -445 0
-11 -431 -446 0
-12 -432 -447 0
-10 -433 -448 0
-11 -434 -449 0
-12 -435 -450 0
-10 -436 -451 0
-11 -437 -452 0
-12 -438 -453 0
-10 -439 -454 0
-11 -440 -455 0
-12 -441 -456 0
-10 -442 -457 0
-11 -443 -458 0
-12 -444 -459 0
-10 -445 -460 0
-11 -446 -461 0
-12 -447 -462 0
-10 -448 -463 0
-11 -449 -464 0
-12 -450 -465 0
-10 -451 -466 0
-11 -452 -467 0
-12 -453 -468 0
-10 -454 -469 0
-11 -455 -470 0
-12 -456 -471 0
-10 -457 -472 0
-11 -458 -473 0
-12 -459 -474 0
-10 -460 -475 0
-11 -461 -476 0
-12 -462 -477 0
-10 -463 -478 0
-11 -464 -479 0
-12 -465 -480 0
-10 -466 -481 0
-11 -467 -482 0
-12 -468 -483 0
-10 -469 -484 0
-11 -470 -485 0
-12 -471 -486 0
-10 -472 -487 0
-11 -473 -488 0
-12 -474 -489 0
-10 -475 -490 0
-11 -476 -491 0
-12 -477 -492 0
-10 -478 -493 0
-11 -479 -494 0
-12 -480 -495 0
-10 -481 -496 0
-11 -482 -497 0
-12 -483 -498 0
-10 -484 -499 0
-11 -485 -500 0
-12 -486 -501 0
-10 -487 -502 0
-11 -488 -503 0
-12 -489 -504 0
-10 -490 -505 0
-11 -491 -506 0
-12 -492 -507 0
-10 -493 -508 0
-11 -494 -509 0
-12 -495 -510 0
-10 -496 -511 0
-11 -497 -512 0
-12 -498 -513 0
-10 -499 -514 0
-11 -500 -515 0
-12 -501 -516 0
-10 -502 -517 0
-11 -503 -518 0
-12 -504 -519 0
-10 -505 -520 0
-11 -506 -521 0
-12 -507 -522 0
-10 -508 -523 0
-11 -509 -524 0
-12 -510 -525 0
-10 -511 -526 0
-11 -512 -527 0
-12 -513 -528 0
-10 -514 -529 0
-11 -515 -530 0
-12 -516 -531 0
-10 -517 -532 0
-11 -518 -533 0
-12 -519 -534 0
-10 -520 -535 0
-11 -521 -536 0
-12 -522 -537 0
-10 -523 -538 0
-11 -524 -539 0
-12 -525 -540 0
-1 -22 -31 0
-2 -23 -32 0
-3 -24 -33 0
-4 -22 -34 0
-5 -23 -35 0
-6 -24 -36 0
-7 -22 -37 0
-8 -23 -38 0
-9 -24 -39 0
-10 -22 -40 0
-11 -23 -41 0
-12 -24 -42 0
-13 -22 -43 0
-14 -23 -44 0
-15 -24 -45 0
-16 -22 -46 0
-17 -23 -47 0
-18 -24 -48 0
-19 -22 -49 0
-20 -23 -50 0
-21 -24 -51 0
-22 -52 0
-23 -53 0
-24 -54 0
-22 -25 -55 0
-23 -26 -56 0
-24 -27 -57 0
-22 -28 -58 0
-23 -29 -59 0
-24 -30 -60 0
-22 -31 -61 0
-23 -32 -62 0
-24 -33 -63 0
-22 -34 -64 0
-23 -35 -65 0
-24 -36 -66 0
-22 -37 -67 0
-23 -38 -68 0
-24 -39 -69 0
-22 -40 -70 0
-23 -41 -71 0
-24 -42 -72 0
-22 -43 -73 0
-23 -44 -74 0
-24 -45 -75 0
-22 -46 -76 0
-23 -47 -77 0
-24 -48 -78 0
-22 -49 -79 0
-23 -50 -80 0
-24 -51 -81 0
-22 -52 -82 0
-23 -53 -83 0
-24 -54 -84 0
-22 -55 -85 0
-23 -56 -86 0
-24 -57 -87 0
-22 -58 -88 0
-23 -59 -89 0
-24 -60 -90 0
-22 -61 -91 0
-23 -62 -92 0
-24 -63 -93 0
-22 -64 -94 0
-23 -65 -95 0
-24 -66 -96 0
-22 -67 -97 0
-23 -68 -98 0
-24 -69 -99 0
-22 -70 -100 0
-23 -71 -101 0
-24 -72 -102 0
-22 -73 -103 0
-23 -74 -104 0
-24 -75 -105 0
-22 -76 -106 0
-23 -77 -107 0
-24 -78 -108 0
-22 -79 -109 0
-23 -80 -110 0
-24 -81 -111 0
-22 -82 -112 0
-23 -83 -113 0
-24 -84 -114 0
-22 -85 -115 0
-23 -86 -116 0
-24 -87 -117 0
-22 -88 -118 0
-23 -89 -119 0
-24 -90 -120 0
-22 -91 -121 0
-23 -92 -122 0
-24 -93 -123 0
-22 -94 -124 0
-23 -95 -125 0
-24 -96 -126 0
-22 -97 -127 0
-23 -98 -128 0
-24 -99 -129 0
-22 -100 -130 0
-23 -101 -131 0
-24 -102 -132 0
-22 -103 -133 0
-23 -104 -134 0
-24 -105 -135 0
-22 -106 -136 0
-23 -107 -137 0
-24 -108 -138 0
-22 -109 -139 0
-23 -110 -140 0
-24 -111 -141 0
-22 -112 -142 0
-23 -113 -143 0
-24 -114 -144 0
-22 -115 -145 0
-23 -116 -146 0
-24 -117 -147 0
-22 -118 -148 0
-23 -119 -149 0
-24 -120 -150 0
-22 -121 -151 0
-23 -122 -152 0
-24 -123 -153 0
-22 -124 -154 0
-23 -125 -155 0
-24 -126 -156 0
-22 -127 -157 0
-23 -128 -158 0
-24 -129 -159 0
-22 -130 -160 0
-23 -131 -161 0
-24 -132 -162 0
-22 -133 -163 0
-23 -134 -164 0
-24 -135 -165 0
-22 -136 -166 0
-23 -137 -167 0
-24 -138 -168 0
-22 -139 -169 0
-23 -140 -170 0
-24 -141 -171 0
-22 -142 -172 0
-23 -143 -173 0
-24 -144 -174 0
-22 -145 -175 0
-23 -146 -176 0
-24 -147 -177 0
-22 -148 -178 0
-23 -149 -179 0
-24 -150 -180 0
-22 -151 -181 0
-23 -152 -182 0
-24 -153 -183 0
-22 -154 -184 0
-23 -155 -185 0
-24 -156 -186 0
-22 -157 -187 0
-23 -158 -188 0
-24 -159 -189 0
-22 -160 -190 0
-23 -161 -191 0
-24 -162 -192 0
-22 -163 -193 0
-23 -164 -194 0
-24 -165 -195 0
-22 -166 -196 0
-23 -167 -197 0
-24 -168 -198 0
-22 -169 -199 0
-23 -170 -200 0
-24 -171 -201 0
-22 -172 -202 0
-23 -173 -203 0
-24 -174 -204 0
-22 -175 -205 0
-23 -176 -206 0
-24 -177 -207 0
-22 -178 -208 0
-23 -179 -209 0
-24 -180 -210 0
-22 -181 -211 0
-23 -182 -212 0
-24 -183 -213 0
-22 -184 -214 0
-23 -185 -215 0
-24 -186 -216 0
-22 -187 -217 0
-23 -188 -218 0
-24 -189 -219 0
-22 -190 -220 0
-23 -191 -221 0
-24 -192 -222 0
-22 -193 -223 0
-23 -194 -224 0
-24 -195 -225 0
-22 -196 -226 0
-23 -197 -227 0
-24 -198 -228 0
-22 -199 -229 0
-23 -200 -230 0
-24 -201 -231 0
-22 -202 -232 0
-23 -203 -233 0
-24 -204 -234 0
-22 -205 -235 0
-23 -206 -236 0
-24 -207 -237 0
-22 -208 -238 0
-23 -209 -239 0
-24 -210 -240 0
-22 -211 -241 0
-23 -212 -242 0
-24 -213 -243 0
-22 -214 -244 0
-23 -215 -245 0
-24 -216 -246 0
-22 -217 -247 0
-23 -218 -248 0
-24 -219 -249 0
-22 -220 -250 0
-23 -221 -251 0
-24 -222 -252 0
-22 -223 -253 0
-23 -224 -254 0
-24 -225 -255 0
-22 -226 -256 0
-23 -227 -257 0
-24 -228 -258 0
-22 -229 -259 0
-23 -230 -260 0
-24 -231 -261 0
-22 -232 -262 0
-23 -233 -263 0
-24 -234 -264 0
-22 -235 -265 0
-23 -236 -266 0
-24 -237 -267 0
-22 -238 -268 0
-23 -239 -269 0
-24 -240 -270 0
-22 -241 -271 0
-23 -242 -272 0
-24 -243 -273 0
-22 -244 -274 0
-23 -245 -275 0
-24 -246 -276 0
-22 -247 -277 0
-23 -248 -278 0
-24 -249 -279 0
-22 -250 -280 0
-23 -251 -281 0
-24 -252 -282 0
-22 -253 -283 0
-23 -254 -284 0
-24 -255 -285 0
-22 -256 -286 0
-23 -257 -287 0
-24 -258 -288 0
-22 -259 -289 0
-23 -260 -290 0
-24 -261 -291 0
-22 -262 -292 0
-23 -263 -293 0
-24 -264 -294 0
-22 -265 -295 0
-23 -266 -296 0
-24 -267 -297 0
-22 -268 -298 0
-23 -269 -299 0
-24 -270 -300 0
-22 -271 -301 0
-23 -272 -302 0
-24 -273 -303 0
-22 -274 -304 0
-23 -275 -305 0
-24 -276 -306 0
-22 -277 -307 0
-23 -278 -308 0
-24 -279 -309 0
-22 -280 -310 0
-23 -281 -311 0
-24 -282 -312 0
-22 -283 -313 0
-23 -284 -314 0
-24 -285 -315 0
-22 -286 -316 0
-23 -287 -317 0
-24 -288 -318 0
-22 -289 -319 0
-23 -290 -320 0
-24 -291 -321 0
-22 -292 -322 0
-23 -293 -323 0
-24 -294 -324 0
-22 -295 -325 0
-23 -296 -326 0
-24 -297 -327 0
-22 -298 -328 0
-23 -299 -329 0
-24 -300 -330 0
-22 -301 -331 0
-23 -302 -332 0
-24 -303 -333 0
-22 -304 -334 0
-23 -305 -335 0
-24 -306 -336 0
-22 -307 -337 0
-23 -308 -338 0
-24 -309 -339 0
-22 -310 -340 0
-23 -311 -341 0
-24 -312 -342 0
-22 -313 -343 0
-23 -314 -344 0
-24 -315 -345 0
-22 -316 -346 0
-23 -317 -347 0
-24 -318 -348 0
-22 -319 -349 0
-23 -320 -350 0
-24 -321 -351 0
-22 -322 -352 0
-23 -323 -353 0
-24 -324 -354 0
-22 -325 -355 0
-23 -326 -356 0
-24 -327 -357 0
-22 -328 -358 0
-23 -329 -359 0
-24 -330 -360 0
-22 -331 -361 0
-23 -332 -362 0
-24 -333 -363 0
-22 -334 -364 0
-23 -335 -365 0
-24 -336 -366 0
-22 -337 -367 0
-23 -338 -368 0
-24 -339 -369 0
-22 -340 -370 0
-23 -341 -371 0
-24 -342 -372 0
-22 -343 -373 0
-23 -344 -374 0
-24 -345 -375 0
-22 -346 -376 0
-23 -347 -377 0
-24 -348 -378 0
-22 -349 -379 0
-23 -350 -380 0
-24 -351 -381 0
-22 -352 -382 0
-23 -353 -383 0
-24 -354 -384 0
-22 -355 -385 0
-23 -356 -386 0
-24 -357 -387 0
-22 -358 -388 0
-23 -359 -389 0
-24 -360 -390 0
-22 -361 -391 0
-23 -362 -392 0
-24 -363 -393 0
-22 -364 -394 0
-23 -365 -395 0
-24 -366 -396 0
-22 -367 -397 0
-23 -368 -398 0
-24 -369 -399 0
-22 -370 -400 0
-23 -371 -401 0
-24 -372 -402 0
-22 -373 -403 0
-23 -374 -404 0
-24 -375 -405 0
-22 -376 -406 0
-23 -377 -407 0
-24 -378 -408 0
-22 -379 -409 0
-23 -380 -410 0
-24 -381 -411 0
-22 -382 -412 0
-23 -383 -413 0
-24 -384 -414 0
-22 -385 -415 0
-23 -386 -416 0
-24 -387 -417 0
-22 -388 -418 0
-23 -389 -419 0
-24 -390 -420 0
-22 -391 -421 0
-23 -392 -422 0
-24 -393 -423 0
-22 -394 -424 0
-23 -395 -425 0
-24 -396 -426 0
-22 -397 -427 0
-23 -398 -428 0
-24 -399 -429 0
-22 -400 -430 0
-23 -401 -431 0
-24 -402 -432 0
-22 -403 -433 0
-23 -404 -434 0
-24 -405 -435 0
-22 -406 -436 0
-23 -407 -437 0
-24 -408 -438 0
-22 -409 -439 0
-23 -410 -440 0
-24 -411 -441 0
-22 -412 -442 0
-23 -413 -443 0
-24 -414 -444 0
-22 -415 -445 0
-23 -416 -446 0
-24 -417 -447 0
-22 -418 -448 0
-23 -419 -449 0
-24 -420 -450 0
-22 -421 -451 0
-23 -422 -452 0
-24 -423 -453 0
-22 -424 -454 0
-23 -425 -455 0
-24 -426 -456 0
-22 -427 -457 0
-23 -428 -458 0
-24 -429 -459 0
-22 -430 -460 0
-23 -431 -461 0
-24 -432 -462 0
-22 -433 -463 0
-23 -434 -464 0
-24 -435 -465 0
-22 -436 -466 0
-23 -437 -467 0
-24 -438 -468 0
-22 -439 -469 0
-23 -440 -470 0
-24 -441 -471 0
-22 -442 -472 0
-23 -443 -473 0
-24 -444 -474 0
-22 -445 -475 0
-23 -446 -476 0
-24 -447 -477 0
-22 -448 -478 0
-23 -449 -479 0
-24 -450 -480 0
-22 -451 -481 0
-23 -452 -482 0
-24 -453 -483 0
-22 -454 -484 0
-23 -455 -485 0
-24 -456 -486 0
-22 -457 -487 0
-23 -458 -488 0
-24 -459 -489 0
-22 -460 -490 0
-23 -461 -491 0
-24 -462 -492 0
-22 -463 -493 0
-23 -464 -494 0
-24 -465 -495 0
-22 -466 -496 0
-23 -467 -497 0
-24 -468 -498 0
-22 -469 -499 0
-23 -470 -500 0
-24 -471 -501 0
-22 -472 -502 0
-23 -473 -503 0
-24 -474 -504 0
-22 -475 -505 0
-23 -476 -506 0
-24 -477 -507 0
-22 -478 -508 0
-23 -479 -509 0
-24 -480 -510 0
-22 -481 -511 0
-23 -482 -512 0
-24 -483 -513 0
-22 -484 -514 0
-23 -485 -515 0
-24 -486 -516 0
-22 -487 -517 0
-23 -488 -518 0
-24 -489 -519 0
-22 -490 -520 0
-23 -491 -521 0
-24 -492 -522 0
-22 -493 -523 0
-23 -494 -524 0
-24 -495 -525 0
-22 -496 -526 0
-23 -497 -527 0
-24 -498 -528 0
-22 -499 -529 0
-23 -500 -530 0
-24 -501 -531 0
-22 -502 -532 0
-23 -503 -533 0
-24 -504 -534 0
-22 -505 -535 0
-23 -506 -536 0
-24 -507 -537 0
-22 -508 -538 0
-23 -509 -539 0
-24 -510 -540 0
-1 -34 -46 0
-2 -35 -47 0
-3 -36 -48 0
-4 -34 -49 0
-5 -35 -50 0
-6 -36 -51 0
-7 -34 -52 0
-8 -35 -53 0
-9 -36 -54 0
-10 -34 -55 0
-11 -35 -56 0
-12 -36 -57 0
-13 -34 -58 0
-14 -35 -59 0
-15 -36 -60 0
-16 -34 -61 0
-17 -35 -62 0
-18 -36 -63 0
-19 -34 -64 0
-20 -35 -65 0
-21 -36 -66 0
-22 -34 -67 0
-23 -35 -68 0
-24 -36 -69 0
-25 -34 -70 0
-26 -35 -71 0
-27 -36 -72 0
-28 -34 -73 0
-29 -35 -74 0
-30 -36 -75 0
-31 -34 -76 0
-32 -35 -77 0
-33 -36 -78 0
-34 -79 0
-35 -80 0
-36 -81 0
-34 -37 -82 0
-35 -38 -83 0
-36 -39 -84 0
-34 -40 -85 0
-35 -41 -86 0
-36 -42 -87 0
-34 -43 -88 0
-35 -44 -89 0
-36 -45 -90 0
-34 -46 -91 0
-35 -47 -92 0
-36 -48 -93 0
-34 -49 -94 0
-35 -50 -95 0
-36 -51 -96 0
-34 -52 -97 0
-35 -53 -98 0
-36 -54 -99 0
-34 -55 -100 0
-35 -56 -101 0
-36 -57 -102 0
-34 -58 -103 0
-35 -59 -104 0
-36 -60 -105 0
-34 -61 -106 0
-35 -62 -107 0
-36 -63 -108 0
-34 -64 -109 0
-35 -65 -110 0
-36 -66 -111 0
-34 -67 -112 0
-35 -68 -113 0
-36 -69 -114 0
-34 -70 -115 0
-35 -71 -116 0
-36 -72 -117 0
-34 -73 -118 0
-35 -74 -119 0
-36 -75 -120 0
-34 -76 -121 0
-35 -77 -122 0
-36 -78 -123 0
-34 -79 -124 0
-35 -80 -125 0
-36 -81 -126 0
-34 -82 -127 0
-35 -83 -128 0
-36 -84 -129 0
-34 -85 -130 0
-35 -86 -131 0
-36 -87 -132 0
-34 -88 -133 0
-35 -89 -134 0
-36 -90 -135 0
-34 -91 -136 0
-35 -92 -137 0
-36 -93 -138 0
-34 -94 -139 0
-35 -95 -140 0
-36 -96 -141 0
-34 -97 -142 0
-35 -98 -143 0
-36 -99 -144 0
-34 -100 -145 0
-35 -101 -146 0
-36 -102 -147 0
-34 -103 -148 0
-35 -104 -149 0
-36 -105 -150 0
-34 -106 -151 0
-35 -107 -152 0
-36 -108 -153 0
-34 -109 -154 0
-35 -110 -155 0
-36 -111 -156 0
-34 -112 -157 0
-35 -113 -158 0
-36 -114 -159 0
-34 -115 -160 0
-35 -116 -161 0
-36 -117 -162 0
-34 -118 -163 0
-35 -119 -164 0
-36 -120 -165 0
-34 -121 -166 0
-35 -122 -167 0
-36 -123 -168 0
-34 -124 -169 0
-35 -125 -170 0
-36 -126 -171 0
-34 -127 -172 0
-35 -128 -173 0
-36 -129 -174 0
-34 -130 -175 0
-35 -131 -176 0
-36 -132 -177 0
-34 -133 -178 0
-35 -134 -179 0
-36 -135 -180 0
-34 -136 -181 0
-35 -137 -182 0
-36 -138 -183 0
-34 -139 -184 0
-35 -140 -185 0
-36 -141 -186 0
-34 -142 -187 0
-35 -143 -188 0
-36 -144 -189 0
-34 -145 -190 0
-35 -146 -191 0
-36 -147 -192 0
-34 -148 -193 0
-35 -149 -194 0
-36 -150 -195 0
-34 -151 -196 0
-35 -152 -197 0
-36 -153 -198 0
-34 -154 -199 0
-35 -155 -200 0
-36 -156 -201 0
-34 -157 -202 0
-35 -158 -203 0
-36 -159 -204 0
-34 -160 -205 0
-35 -161 -206 0
-36 -162 -207 0
-34 -163 -208 0
-35 -164 -209 0
-36 -165 -210 0
-34 -166 -211 0
-35 -167 -212 0
-36 -168 -213 0
-34 -169 -214 0
-35 -170 -215 0
-36 -171 -216 0
-34 -172 -217 0
-35 -173 -218 0
-36 -174 -219 0
-34 -175 -220 0
-35 -176 -221 0
-36 -177 -222 0
-34 -178 -223 0
-35 -179 -224 0
-36 -180 -225 0
-34 -181 -226 0
-35 -182 -227 0
-36 -183 -228 0
-34 -184 -229 0
-35 -185 -230 0
-36 -186 -231 0
-34 -187 -232 0
-35 -188 -233 0
-36 -189 -234 0
-34 -190 -235 0
-35 -191 -236 0
-36 -192 -237 0
-34 -193 -238 0
-35 -194 -239 0
-36 -195 -240 0
-34 -196 -241 0
-35 -197 -242 0
-36 -198 -243 0
-34 -199 -244 0
-35 -200 -245 0
-36 -201 -246 0
-34 -202 -247 0
-35 -203 -248 0
-36 -204 -249 0
-34 -205 -250 0
-35 -206 -251 0
-36 -207 -252 0
-34 -208 -253 0
-35 -209 -254 0
-36 -210 -255 0
-34 -211 -256 0
-35 -212 -257 0
-36 -213 -258 0
-34 -214 -259 0
-35 -215 -260 0
-36 -216 -261 0
-34 -217 -262 0
-35 -218 -263 0
-36 -219 -264 0
-34 -220 -265 0
-35 -221 -266 0
-36 -222 -267 0
-34 -223 -268 0
-35 -224 -269 0
-36 -225 -270 0
-34 -226 -271 0
-35 -227 -272 0
-36 -228 -273 0
-34 -229 -274 0
-35 -230 -275 0
-36 -231 -276 0
-34 -232 -277 0
-35 -233 -278 0
-36 -234 -279 0
-34 -235 -280 0
-35 -236 -281 0
-36 -237 -282 0
-34 -238 -283 0
-35 -239 -284 0
-36 -240 -285 0
-34 -241 -286 0
-35 -242 -287 0
-36 -243 -288 0
-34 -244 -289 0
-35 -245 -290 0
-36 -246 -291 0
-34 -247 -292 0
-35 -248 -293 0
-36 -249 -294 0
-34 -250 -295 0
-35 -251 -296 0
-36 -252 -297 0
-34 -253 -298 0
-35 -254 -299 0
-36 -255 -300 0
-34 -256 -301 0
-35 -257 -302 0
-36 -258 -303 0
-34 -259 -304 0
-35 -260 -305 0
-36 -261 -306 0
-34 -262 -307 0
-35 -263 -308 0
-36 -264 -309 0
-34 -265 -310 0
-35 -266 -311 0
-36 -267 -312 0
-34 -268 -313 0
-35 -269 -314 0
-36 -270 -315 0
-34 -271 -316 0
-35 -272 -317 0
-36 -273 -318 0
-34 -274 -319 0
-35 -275 -320 0
-36 -276 -321 0
-34 -277 -322 0
-35 -278 -323 0
-36 -279 -324 0
-34 -280 -325 0
-35 -281 -326 0
-36 -282 -327 0
-34 -283 -328 0
-35 -284 -329 0
-36 -285 -330 0
-34 -286 -331 0
-35 -287 -332 0
-36 -288 -333 0
-34 -289 -334 0
-35 -290 -335 0
-36 -291 -336 0
-34 -292 -337 0
-35 -293 -338 0
-36 -294 -339 0
-34 -295 -340 0
-35 -296 -341 0
-36 -297 -342 0
-34 -298 -343 0
-35 -299 -344 0
-36 -300 -345 0
-34 -301 -346 0
-35 -302 -347 0
-36 -303 -348 0
-34 -304 -349 0
-35 -305 -350 0
-36 -306 -351 0
-34 -307 -352 0
-35 -308 -353 0
-36 -309 -354 0
-34 -310 -355 0
-35 -311 -356 0
-36 -312 -357 0
-34 -313 -358 0
-35 -314 -359 0
-36 -315 -360 0
-34 -316 -361 0
-35 -317 -362 0
-36 -318 -363 0
-34 -319 -364 0
-35 -320 -365 0
-36 -321 -366 0
-34 -322 -367 0
-35 -323 -368 0
-36 -324 -369 0
-34 -325 -370 0
-35 -326 -371 0
-36 -327 -372 0
-34 -328 -373 0
-35 -329 -374 0
-36 -330 -375 0
-34 -331 -376 0
-35 -332 -377 0
-36 -333 -378 0
-34 -334 -379 0
-35 -335 -380 0
-36 -336 -381 0
-34 -337 -382 0
-35 -338 -383 0
-36 -339 -384 0
-34 -340 -385 0
-35 -341 -386 0
-36 -342 -387 0
-34 -343 -388 0
-35 -344 -389 0
-36 -345 -390 0
-34 -346 -391 0
-35 -347 -392 0
-36 -348 -393 0
-34 -349 -394 0
-35 -350 -395 0
-36 -351 -396 0
-34 -352 -397 0
-35 -353 -398 0
-36 -354 -399 0
-34 -355 -400 0
-35 -356 -401 0
-36 -357 -402 0
-34 -358 -403 0
-35 -359 -404 0
-36 -360 -405 0
-34 -361 -406 0
-35 -362 -407 0
-36 -363 -408 0
-34 -364 -409 0
-35 -365 -410 0
-36 -366 -411 0
-34 -367 -412 0
-35 -368 -413 0
-36 -369 -414 0
-34 -370 -415 0
-35 -371 -416 0
-36 -372 -417 0
-34 -373 -418 0
-35 -374 -419 0
-36 -375 -420 0
-34 -376 -421 0
-35 -377 -422 0
-36 -378 -423 0
-34 -379 -424 0
-35 -380 -425 0
-36 -381 -426 0
-34 -382 -427 0
-35 -383 -428 0
-36 -384 -429 0
-34 -385 -430 0
-35 -386 -431 0
-36 -387 -432 0
-34 -388 -433 0
-35 -389 -434 0
-36 -390 -435 0
-34 -391 -436 0
-35 -392 -437 0
-36 -393 -438 0
-34 -394 -439 0
-35 -395 -440 0
-36 -396 -441 0
-34 -397 -442 0
-35 -398 -443 0
-36 -399 -444 0
-34 -400 -445 0
-35 -401 -446 0
-36 -402 -447 0
-34 -403 -448 0
-35 -404 -449 0
-36 -405 -450 0
-34 -406 -451 0
-35 -407 -452 0
-36 -408 -453 0
-34 -409 -454 0
-35 -410 -455 0
-36 -411 -456 0
-34 -412 -457 0
-35 -413 -458 0
-36 -414 -459 0
-34 -415 -460 0
-35 -416 -461 0
-36 -417 -462 0
-34 -418 -463 0
-35 -419 -464 0
-36 -420 -465 0
-34 -421 -466 0
-35 -422 -467 0
-36 -423 -468 0
-34 -424 -469 0
-35 -425 -470 0
-36 -426 -471 0
-34 -427 -472 0
-35 -428 -473 0
-36 -429 -474 0
-34 -430 -475 0
-35 -431 -476 0
-36 -432 -477 0
-34 -433 -478 0
-35 -434 -479 0
-36 -435 -480 0
-34 -436 -481 0
-35 -437 -482 0
-36 -438 -483 0
-34 -439 -484 0
-35 -440 -485 0
-36 -441 -486 0
-34 -442 -487 0
-35 -443 -488 0
-36 -444 -489 0
-34 -445 -490 0
-35 -446 -491 0
-36 -447 -492 0
-34 -448 -493 0
-35 -449 -494 0
-36 -450 -495 0
-34 -451 -496 0
-35 -452 -497 0
-36 -453 -498 0
-34 -454 -499 0
-35 -455 -500 0
-36 -456 -501 0
-34 -457 -502 0
-35 -458 -503 0
-36 -459 -504 0
-34 -460 -505 0
-35 -461 -506 0
-36 -462 -507 0
-34 -463 -508 0
-35 -464 -509 0
-36 -465 -510 0
-34 -466 -511 0
-35 -467 -512 0
-36 -468 -513 0
-34 -469 -514 0
-35 -470 -515 0
-36 -471 -516 0
-34 -472 -517 0
-35 -473 -518 0
-36 -474 -519 0
-34 -475 -520 0
-35 -476 -521 0
-36 -477 -522 0
-34 -478 -523 0
-35 -479 -524 0
-36 -480 -525 0
-34 -481 -526 0
-35 -482 -527 0
-36 -483 -528 0
-34 -484 -529 0
-35 -485 -530 0
-36 -486 -531 0
-34 -487 -532 0
-35 -488 -533 0
-36 -489 -534 0
-34 -490 -535 0
-35 -491 -536 0
-36 -492 -537 0
-34 -493 -538 0
-35 -494 -539 0
-36 -495 -540 0
-1 -46 -61 0
-2 -47 -62 0
-3 -48 -63 0
-4 -46 -64 0
-5 -47 -65 0
-6 -48 -66 0
-7 -46 -67 0
-8 -47 -68 0
-9 -48 -69 0
-10 -46 -70 0
-11 -47 -71 0
-12 -48 -72 0
-13 -46 -73 0
-14 -47 -74 0
-15 -48 -75 0
-16 -46 -76 0
-17 -47 -77 0
-18 -48 -78 0
-19 -46 -79 0
-20 -47 -80 0
-21 -48 -81 0
-22 -46 -82 0
-23 -47 -83 0
-24 -48 -84 0
-25 -46 -85 0
-26 -47 -86 0
-27 -48 -87 0
-28 -46 -88 0
-29 -47 -89 0
-30 -48 -90 0
-31 -46 -91 0
-32 -47 -92 0
-33 -48 -93 0
-34 -46 -94 0
-35 -47 -95 0
-36 -48 -96 0
-37 -46 -97 0
-38 -47 -98 0
-39 -48 -99 0
-40 -46 -100 0
-41 -47 -101 0
-42 -48 -102 0
-43 -46 -103 0
-44 -47 -104 0
-45 -48 -105 0
-46 -106 0
-47 -107 0
-48 -108 0
-46 -49 -109 0
-47 -50 -110 0
-48 -51 -111 0
-46 -52 -112 0
-47 -53 -113 0
-48 -54 -114 0
-46 -55 -115 0
-47 -56 -116 0
-48 -57 -117 0
-46 -58 -118 0
-47 -59 -119 0
-48 -60 -120 0
-46 -61 -121 0
-47 -62 -122 0
-48 -63 -123 0
-46 -64 -124 0
-47 -65 -125 0
-48 -66 -126 0
-46 -67 -127 0
-47 -68 -128 0
-48 -69 -129 0
-46 -70 -130 0
-47 -71 -131 0
-48 -72 -132 0
-46 -73 -133 0
-47 -74 -134 0
-48 -75 -135 0
-46 -76 -136 0
-47 -77 -137 0
-48 -78 -138 0
-46 -79 -139 0
-47 -80 -140 0
-48 -81 -141 0
-46 -82 -142 0
-47 -83 -143 0
-48 -84 -144 0
-46 -85 -145 0
-47 -86 -146 0
-48 -87 -147 0
-46 -88 -148 0
-47 -89 -149 0
-48 -90 -150 0
-46 -91 -151 0
-47 -92 -152 0
-48 -93 -153 0
-46 -94 -154 0
-47 -95 -155 0
-48 -96 -156 0
-46 -97 -157 0
-47 -98 -158 0
-48 -99 -159 0
-46 -100 -160 0
-47 -101 -161 0
-48 -102 -162 0
-46 -103 -163 0
-47 -104 -164 0
-48 -105 -165 0
-46 -106 -166 0
-47 -107 -167 0
-48 -108 -168 0
-46 -109 -169 0
-47 -110 -170 0
-48 -111 -171 0
-46 -112 -172 0
-47 -113 -173 0
-48 -114 -174 0
-46 -115 -175 0
-47 -116 -176 0
-48 -117 -177 0
-46 -118 -178 0
-47 -119 -179 0
-48 -120 -180 0
-46 -121 -181 0
-47 -122 -182 0
-48 -123 -183 0
-46 -124 -184 0
-47 -125 -185 0
-48 -126 -186 0
-46 -127 -187 0
-47 -128 -188 0
-48 -129 -189 0
-46 -130 -190 0
-47 -131 -191 0
-48 -132 -192 0
-46 -133 -193 0
-47 -134 -194 0
-48 -135 -195 0
-46 -136 -196 0
-47 -137 -197 0
-48 -138 -198 0
-46 -139 -199 0
-47 -140 -200 0
-48 -141 -201 0
-46 -142 -202 0
-47 -143 -203 0
-48 -144 -204 0
-46 -145 -205 0
-47 -146 -206 0
-48 -147 -207 0
-46 -148 -208 0
-47 -149 -209 0
-48 -150 -210 0
-46 -151 -211 0
-47 -152 -212 0
-48 -153 -213 0
-46 -154 -214 0
-47 -155 -215 0
-48 -156 -216 0
-46 -157 -217 0
-47 -158 -218 0
-48 -159 -219 0
-46 -160 -220 0
-47 -161 -221 0
-48 -162 -222 0
-46 -163 -223 0
-47 -164 -224 0
-48 -165 -225 0
-46 -166 -226 0
-47 -167 -227 0
-48 -168 -228 0
-46 -169 -229 0
-47 -170 -230 0
-48 -171 -231 0
-46 -172 -232 0
-47 -173 -233 0
-48 -174 -234 0
-46 -175 -235 0
-47 -176 -236 0
-48 -177 -237 0
-46 -178 -238 0
-47 -179 -239 0
-48 -180 -240 0
-46 -181 -241 0
-47 -182 -242 0
-48 -183 -243 0
-46 -184 -244 0
-47 -185 -245 0
-48 -186 -246 0
-46 -187 -247 0
-47 -188 -248 0
-48 -189 -249 0
-46 -190 -250 0
-47 -191 -251 0
-48 -192 -252 0
-46 -193 -253 0
-47 -194 -254 0
-48 -195 -255 0
-46 -196 -256 0
-47 -197 -257 0
-48 -198 -258 0
-46 -199 -259 0
-47 -200 -260 0
-48 -201 -261 0
-46 -202 -262 0
-47 -203 -263 0
-48 -204 -264 0
-46 -205 -265 0
-47 -206 -266 0
-48 -207 -267 0
-46 -208 -268 0
-47 -209 -269 0
-48 -210 -270 0
-46 -211 -271 0
-47 -212 -272 0
-48 -213 -273 0
-46 -214 -274 0
-47 -215 -275 0
-48 -216 -276 0
-46 -217 -277 0
-47 -218 -278 0
-48 -219 -279 0
-46 -220 -280 0
-47 -221 -281 0
-48 -222 -282 0
-46 -223 -283 0
-47 -224 -284 0
-48 -225 -285 0
-46 -226 -286 0
-47 -227 -287 0
-48 -228 -288 0
-46 -229 -289 0
-47 -230 -290 0
-48 -231 -291 0
-46 -232 -292 0
-47 -233 -293 0
-48 -234 -294 0
-46 -235 -295 0
-47 -236 -296 0
-48 -237 -297 0
-46 -238 -298 0
-47 -239 -299 0
-48 -240 -300 0
-46 -241 -301 0
-47 -242 -302 0
-48 -243 -303 0
-46 -244 -304 0
-47 -245 -305 0
-48 -246 -306 0
-46 -247 -307 0
-47 -248 -308 0
-48 -249 -309 0
-46 -250 -310 0
-47 -251 -311 0
-48 -252 -312 0
-46 -253 -313 0
-47 -254 -314 0
-48 -255 -315 0
-46 -256 -316 0
-47 -257 -317 0
-48 -258 -318 0
-46 -259 -319 0
-47 -260 -320 0
-48 -261 -321 0
-46 -262 -322 0
-47 -263 -323 0
-48 -264 -324 0
-46 -265 -325 0
-47 -266 -326 0
-48 -267 -327 0
-46 -268 -328 0
-47 -269 -329 0
-48 -270 -330 0
-46 -271 -331 0
-47 -272 -332 0
-48 -273 -333 0
-46 -274 -334 0
-47 -275 -335 0
-48 -276 -336 0
-46 -277 -337 0
-47 -278 -338 0
-48 -279 -339 0
-46 -280 -340 0
-47 -281 -341 0
-48 -282 -342 0
-46 -283 -343 0
-47 -284 -344 0
-48 -285 -345 0
-46 -286 -346 0
-47 -287 -347 0
-48 -288 -348 0
-46 -289 -349 0
-47 -290 -350 0
-48 -291 -351 0
-46 -292 -352 0
-47 -293 -353 0
-48 -294 -354 0
-46 -295 -355 0
-47 -296 -356 0
-48 -297 -357 0
-46 -298 -358 0
-47 -299 -359 0
-48 -300 -360 0
-46 -301 -361 0
-47 -302 -362 0
-48 -303 -363 0
-46 -304 -364 0
-47 -305 -365 0
-48 -306 -366 0
-46 -307 -367 0
-47 -308 -368 0
-48 -309 -369 0
-46 -310 -370 0
-47 -311 -371 0
-48 -312 -372 0
-46 -313 -373 0
-47 -314 -374 0
-48 -315 -375 0
-46 -316 -376 0
-47 -317 -377 0
-48 -318 -378 0
-46 -319 -379 0
-47 -320 -380 0
-48 -321 -381 0
-46 -322 -382 0
-47 -323 -383 0
-48 -324 -384 0
-46 -325 -385 0
-47 -326 -386 0
-48 -327 -387 0
-46 -328 -388 0
-47 -329 -389 0
-48 -330 -390 0
-46 -331 -391 0
-47 -332 -392 0
-48 -333 -393 0
-46 -334 -394 0
-47 -335 -395 0
-48 -336 -396 0
-46 -337 -397 0
-47 -338 -398 0
-48 -339 -399 0
-46 -340 -400 0
-47 -341 -401 0
-48 -342 -402 0
-46 -343 -403 0
-47 -344 -404 0
-48 -345 -405 0
-46 -346 -406 0
-47 -347 -407 0
-48 -348 -408 0
-46 -349 -409 0
-47 -350 -410 0
-48 -351 -411 0
-46 -352 -412 0
-47 -353 -413 0
-48 -354 -414 0
-46 -355 -415 0
-47 -356 -416 0
-48 -357 -417 0
-46 -358 -418 0
-47 -359 -419 0
-48 -360 -420 0
-46 -361 -421 0
-47 -362 -422 0
-48 -363 -423 0
-46 -364 -424 0
-47 -365 -425 0
-48 -366 -426 0
-46 -367 -427 0
-47 -368 -428 0
-48 -369 -429 0
-46 -370 -430 0
-47 -371 -431 0
-48 -372 -432 0
-46 -373 -433 0
-47 -374 -434 0
-48 -375 -435 0
-46 -376 -436 0
-47 -377 -437 0
-48 -378 -438 0
-46 -379 -439 0
-47 -380 -440 0
-48 -381 -441 0
-46 -382 -442 0
-47 -383 -443 0
-48 -384 -444 0
-46 -385 -445 0
-47 -386 -446 0
-48 -387 -447 0
-46 -388 -448 0
-47 -389 -449 0
-48 -390 -450 0
-46 -391 -451 0
-47 -392 -452 0
-48 -393 -453 0
-46 -394 -454 0
-47 -395 -455 0
-48 -396 -456 0
-46 -397 -457 0
-47 -398 -458 0
-48 -399 -459 0
-46 -400 -460 0
-47 -401 -461 0
-48 -402 -462 0
-46 -403 -463 0
-47 -404 -464 0
-48 -405 -465 0
-46 -406 -466 0
-47 -407 -467 0
-48 -408 -468 0
-46 -409 -469 0
-47 -410 -470 0
-48 -411 -471 0
-46 -412 -472 0
-47 -413 -473 0
-48 -414 -474 0
-46 -415 -475 0
-47 -416 -476 0
-48 -417 -477 0
-46 -418 -478 0
-47 -419 -479 0
-48 -420 -480 0
-46 -421 -481 0
-47 -422 -482 0
-48 -423 -483 0
-46 -424 -484 0
-47 -425 -485 0
-48 -426 -486 0
-46 -427 -487 0
-47 -428 -488 0
-48 -429 -489 0
-46 -430 -490 0
-47 -431 -491 0
-48 -432 -492 0
-46 -433 -493 0
-47 -434 -494 0
-48 -435 -495 0
-46 -436 -496 0
-47 -437 -497 0
-48 -438 -498 0
-46 -439 -499 0
-47 -440 -500 0
-48 -441 -501 0
-46 -442 -502 0
-47 -443 -503 0
-48 -444 -504 0
-46 -445 -505 0
-47 -446 -506 0
-48 -447 -507 0
-46 -448 -508 0
-47 -449 -509 0
-48 -450 -510 0
-46 -451 -511 0
-47 -452 -512 0
-48 -453 -513 0
-46 -454 -514 0
-47 -455 -515 0
-48 -456 -516 0
-46 -457 -517 0
-47 -458 -518 0
-48 -459 -519 0
-46 -460 -520 0
-47 -461 -521 0
-48 -462 -522 0
-46 -463 -523 0
-47 -464 -524 0
-48 -465 -525 0
-46 -466 -526 0
-47 -467 -527 0
-48 -468 -528 0
-46 -469 -529 0
-47 -470 -530 0
-48 -471 -531 0
-46 -472 -532 0
-47 -473 -533 0
-48 -474 -534 0
-46 -475 -535 0
-47 -476 -536 0
-48 -477 -537 0
-46 -478 -538 0
-47 -479 -539 0
-48 -480 -540 0
-1 -58 -76 0
-2 -59 -77 0
-3 -60 -78 0
-4 -58 -79 0
-5 -59 -80 0
-6 -60 -81 0
-7 -58 -82 0
-8 -59 -83 0
-9 -60 -84 0
-10 -58 -85 0
-11 -59 -86 0
-12 -60 -87 0
-13 -58 -88 0
-14 -59 -89 0
-15 -60 -90 0
-16 -58 -91 0
-17 -59 -92 0
-18 -60 -93 0
-19 -58 -94 0
-20 -59 -95 0
-21 -60 -96 0
-22 -58 -97 0
-23 -59 -98 0
-24 -60 -99 0
-25 -58 -100 0
-26 -59 -101 0
-27 -60 -102 0
-28 -58 -103 0
-29 -59 -104 0
-30 -60 -105 0
-31 -58 -106 0
-32 -59 -107 0
-33 -60 -108 0
-34 -58 -109 0
-35 -59 -110 0
-36 -60 -111 0
-37 -58 -112 0
-38 -59 -113 0
-39 -60 -114 0
-40 -58 -115 0
-41 -59 -116 0
-42 -60 -117 0
-43 -58 -118 0
-44 -59 -119 0
-45 -60 -120 0
-46 -58 -121 0
-47 -59 -122 0
-48 -60 -123 0
-49 -58 -124 0
-50 -59 -125 0
-51 -60 -126 0
-52 -58 -127 0
-53 -59 -128 0
-54 -60 -129 0
-55 -58 -130 0
-56 -59 -131 0
-57 -60 -132 0
-58 -133 0
-59 -134 0
-60 -135 0
-58 -61 -136 0
-59 -62 -137 0
-60 -63 -138 0
-58 -64 -139 0
-59 -65 -140 0
-60 -66 -141 0
-58 -67 -142 0
-59 -68 -143 0
-60 -69 -144 0
-58 -70 -145 0
-59 -71 -146 0
-60 -72 -147 0
-58 -73 -148 0
-59 -74 -149 0
-60 -75 -150 0
-58 -76 -151 0
-59 -77 -152 0
-60 -78 -153 0
-58 -79 -154 0
-59 -80 -155 0
-60 -81 -156 0
-58 -82 -157 0
-59 -83 -158 0
-60 -84 -159 0
-58 -85 -160 0
-59 -86 -161 0
-60 -87 -162 0
-58 -88 -163 0
-59 -89 -164 0
-60 -90 -165 0
-58 -91 -166 0
-59 -92 -167 0
-60 -93 -168 0
-58 -94 -169 0
-59 -95 -170 0
-60 -96 -171 0
-58 -97 -172 0
-59 -98 -173 0
-60 -99 -174 0
-58 -100 -175 0
-59 -101 -176 0
-60 -102 -177 0
-58 -103 -178 0
-59 -104 -179 0
-60 -105 -180 0
-58 -106 -181 0
-59 -107 -182 0
-60 -108 -183 0
-58 -109 -184 0
-59 -110 -185 0
-60 -111 -186 0
-58 -112 -187 0
-59 -113 -188 0
-60 -114 -189 0
-58 -115 -190 0
-59 -116 -191 0
-60 -117 -192 0
-58 -118 -193 0
-59 -119 -194 0
-60 -120 -195 0
-58 -121 -196 0
-59 -122 -197 0
-60 -123 -198 0
-58 -124 -199 0
-59 -125 -200 0
-60 -126 -201 0
-58 -127 -202 0
-59 -128 -203 0
-60 -129 -204 0
-58 -130 -205 0
-59 -131 -206 0
-60 -132 -207 0
-58 -133 -208 0
-59 -134 -209 0
-60 -135 -210 0
-58 -136 -211 0
-59 -137 -212 0
-60 -138 -213 0
-58 -139 -214 0
-59 -140 -215 0
-60 -141 -216 0
-58 -142 -217 0
-59 -143 -218 0
-60 -144 -219 0
-58 -145 -220 0
-59 -146 -221 0
-60 -147 -222 0
-58 -148 -223 0
-59 -149 -224 0
-60 -150 -225 0
-58 -151 -226 0
-59 -152 -227 0
-60 -153 -228 0
-58 -154 -229 0
-59 -155 -230 0
-60 -156 -231 0
-58 -157 -232 0
-59 -158 -233 0
-60 -159 -234 0
-58 -160 -235 0
-59 -161 -236 0
-60 -162 -237 0
-58 -163 -238 0
-59 -164 -239 0
-60 -165 -240 0
-58 -166 -241 0
-59 -167 -242 0
-60 -168 -243 0
-58 -169 -244 0
-59 -170 -245 0
-60 -171 -246 0
-58 -172 -247 0
-59 -173 -248 0
-60 -174 -249 0
-58 -175 -250 0
-59 -176 -251 0
-60 -177 -252 0
-58 -178 -253 0
-59 -179 -254 0
-60 -180 -255 0
-58 -181 -256 0
-59 -182 -257 0
-60 -183 -258 0
-58 -184 -259 0
-59 -185 -260 0
-60 -186 -261 0
-58 -187 -262 0
-59 -188 -263 0
-60 -189 -264 0
-58 -190 -265 0
-59 -191 -266 0
-60 -192 -267 0
-58 -193 -268 0
-59 -194 -269 0
-60 -195 -270 0
-58 -196 -271 0
-59 -197 -272 0
-60 -198 -273 0
-58 -199 -274 0
-59 -200 -275 0
-60 -201 -276 0
-58 -202 -277 0
-59 -203 -278 0
-60 -204 -279 0
-58 -205 -280 0
-59 -206 -281 0
-60 -207 -282 0
-58 -208 -283 0
-59 -209 -284 0
-60 -210 -285 0
-58 -211 -286 0
-59 -212 -287 0
-60 -213 -288 0
-58 -214 -289 0
-59 -215 -290 0
-60 -216 -291 0
-58 -217 -292 0
-59 -218 -293 0
-60 -219 -294 0
-58 -220 -295 0
-59 -221 -296 0
-60 -222 -297 0
-58 -223 -298 0
-59 -224 -299 0
-60 -225 -300 0
-58 -226 -301 0
-59 -227 -302 0
-60 -228 -303 0
-58 -229 -304 0
-59 -230 -305 0
-60 -231 -306 0
-58 -232 -307 0
-59 -233 -308 0
-60 -234 -309 0
-58 -235 -310 0
-59 -236 -311 0
-60 -237 -312 0
-58 -238 -313 0
-59 -239 -314 0
-60 -240 -315 0
-58 -241 -316 0
-59 -242 -317 0
-60 -243 -318 0
-58 -244 -319 0
-59 -245 -320 0
-60 -246 -321 0
-58 -247 -322 0
-59 -248 -323 0
-60 -249 -324 0
-58 -250 -325 0
-59 -251 -326 0
-60 -252 -327 0
-58 -253 -328 0
-59 -254 -329 0
-60 -255 -330 0
-58 -256 -331 0
-59 -257 -332 0
-60 -258 -333 0
-58 -259 -334 0
-59 -260 -335 0
-60 -261 -336 0
-58 -262 -337 0
-59 -263 -338 0
-60 -264 -339 0
-58 -265 -340 0
-59 -266 -341 0
-60 -267 -342 0
-58 -268 -343 0
-59 -269 -344 0
-60 -270 -345 0
-58 -271 -346 0
-59 -272 -347 0
-60 -273 -348 0
-58 -274 -349 0
-59 -275 -350 0
-60 -276 -351 0
-58 -277 -352 0
-59 -278 -353 0
-60 -279 -354 0
-58 -280 -355 0
-59 -281 -356 0
-60 -282 -357 0
-58 -283 -358 0
-59 -284 -359 0
-60 -285 -360 0
-58 -286 -361 0
-59 -287 -362 0
-60 -288 -363 0
-58 -289 -364 0
-59 -290 -365 0
-60 -291 -366 0
-58 -292 -367 0
-59 -293 -368 0
-60 -294 -369 0
-58 -295 -370 0
-59 -296 -371 0
-60 -297 -372 0
-58 -298 -373 0
-59 -299 -374 0
-60 -300 -375 0
-58 -301 -376 0
-59 -302 -377 0
-60 -303 -378 0
-58 -304 -379 0
-59 -305 -380 0
-60 -306 -381 0
-58 -307 -382 0
-59 -308 -383 0
-60 -309 -384 0
-58 -310 -385 0
-59 -311 -386 0
-60 -312 -387 0
-58 -313 -388 0
-59 -314 -389 0
-60 -315 -390 0
-58 -316 -391 0
-59 -317 -392 0
-60 -318 -393 0
-58 -319 -394 0
-59 -320 -395 0
-60 -321 -396 0
-58 -322 -397 0
-59 -323 -398 0
-60 -324 -399 0
-58 -325 -400 0
-59 -326 -401 0
-60 -327 -402 0
-58 -328 -403 0
-59 -329 -404 0
-60 -330 -405 0
-58 -331 -406 0
-59 -332 -407 0
-60 -333 -408 0
-58 -334 -409 0
-59 -335 -410 0
-60 -336 -411 0
-58 -337 -412 0
-59 -338 -413 0
-60 -339 -414 0
-58 -340 -415 0
-59 -341 -416 0
-60 -342 -417 0
-58 -343 -418 0
-59 -344 -419 0
-60 -345 -420 0
-58 -346 -421 0
-59 -347 -422 0
-60 -348 -423 0
-58 -349 -424 0
-59 -350 -425 0
-60 -351 -426 0
-58 -352 -427 0
-59 -353 -428 0
-60 -354 -429 0
-58 -355 -430 0
-59 -356 -431 0
-60 -357 -432 0
-58 -358 -433 0
-59 -359 -434 0
-60 -360 -435 0
-58 -361 -436 0
-59 -362 -437 0
-60 -363 -438 0
-58 -364 -439 0
-59 -365 -440 0
-60 -366 -441 0
-58 -367 -442 0
-59 -368 -443 0
-60 -369 -444 0
-58 -370 -445 0
-59 -371 -446 0
-60 -372 -447 0
-58 -373 -448 0
-59 -374 -449 0
-60 -375 -450 0
-58 -376 -451 0
-59 -377 -452 0
-60 -378 -453 0
-58 -379 -454 0
-59 -380 -455 0
-60 -381 -456 0
-58 -382 -457 0
-59 -383 -458 0
-60 -384 -459 0
-58 -385 -460 0
-59 -386 -461 0
-60 -387 -462 0
-58 -388 -463 0
-59 -389 -464 0
-60 -390 -465 0
-58 -391 -466 0
-59 -392 -467 0
-60 -393 -468 0
-58 -394 -469 0
-59 -395 -470 0
-60 -396 -471 0
-58 -397 -472 0
-59 -398 -473 0
-60 -399 -474 0
-58 -400 -475 0
-59 -401 -476 0
-60 -402 -477 0
-58 -403 -478 0
-59 -404 -479 0
-60 -405 -480 0
-58 -406 -481 0
-59 -407 -482 0
-60 -408 -483 0
-58 -409 -484 0
-59 -410 -485 0
-60 -411 -486 0
-58 -412 -487 0
-59 -413 -488 0
-60 -414 -489 0
-58 -415 -490 0
-59 -416 -491 0
-60 -417 -492 0
-58 -418 -493 0
-59 -419 -494 0
-60 -420 -495 0
-58 -421 -496 0
-59 -422 -497 0
-60 -423 -498 0
-58 -424 -499 0
-59 -425 -500 0
-60 -426 -501 0
-58 -427 -502 0
-59 -428 -503 0
-60 -429 -504 0
-58 -430 -505 0
-59 -431 -506 0
-60 -432 -507 0
-58 -433 -508 0
-59 -434 -509 0
-60 -435 -510 0
-58 -436 -511 0
-59 -437 -512 0
-60 -438 -513 0
-58 -439 -514 0
-59 -440 -515 0
-60 -441 -516 0
-58 -442 -517 0
-59 -443 -518 0
-60 -444 -519 0
-58 -445 -520 0
-59 -446 -521 0
-60 -447 -522 0
-58 -448 -523 0
-59 -449 -524 0
-60 -450 -525 0
-58 -451 -526 0
-59 -452 -527 0
-60 -453 -528 0
-58 -454 -529 0
-59 -455 -530 0
-60 -456 -531 0
-58 -457 -532 0
-59 -458 -533 0
-60 -459 -534 0
-58 -460 -535 0
-59 -461 -536 0
-60 -462 -537 0
-58 -463 -538 0
-59 -464 -539 0
-60 -465 -540 0
-1 -70 -91 0
-2 -71 -92 0
-3 -72 -93 0
-4 -70 -94 0
-5 -71 -95 0
-6 -72 -96 0
-7 -70 -97 0
-8 -71 -98 0
-9 -72 -99 0
-10 -70 -100 0
-11 -71 -101 0
-12 -72 -102 0
-13 -70 -103 0
-14 -71 -104 0
-15 -72 -105 0
-16 -70 -106 0
-17 -71 -107 0
-18 -72 -108 0
-19 -70 -109 0
-20 -71 -110 0
-21 -72 -111 0
-22 -70 -112 0
-23 -71 -113 0
-24 -72 -114 0
-25 -70 -115 0
-26 -71 -116 0
-27 -72 -117 0
-28 -70 -118 0
-29 -71 -119 0
-30 -72 -120 0
-31 -70 -121 0
-32 -71 -122 0
-33 -72 -123 0
-34 -70 -124 0
-35 -71 -125 0
-36 -72 -126 0
-37 -70 -127 0
-38 -71 -128 0
-39 -72 -129 0
-40 -70 -130 0
-41 -71 -131 0
-42 -72 -132 0
-43 -70 -133 0
-44 -71 -134 0
-45 -72 -135 0
-46 -70 -136 0
-47 -71 -137 0
-48 -72 -138 0
-49 -70 -139 0
-50 -71 -140 0
-51 -72 -141 0
-52 -70 -142 0
-53 -71 -143 0
-54 -72 -144 0
-55 -70 -145 0
-56 -71 -146 0
-57 -72 -147 0
-58 -70 -148 0
-59 -71 -149 0
-60 -72 -150 0
-61 -70 -151 0
-62 -71 -152 0
-63 -72 -153 0
-64 -70 -154 0
-65 -71 -155 0
-66 -72 -156 0
-67 -70 -157 0
-68 -71 -158 0
-69 -72 -159 0
-70 -160 0
-71 -161 0
-72 -162 0
-70 -73 -163 0
-71 -74 -164 0
-72 -75 -165 0
-70 -76 -166 0
-71 -77 -167 0
-72 -78 -168 0
-70 -79 -169 0
-71 -80 -170 0
-72 -81 -171 0
-70 -82 -172 0
-71 -83 -173 0
-72 -84 -174 0
-70 -85 -175 0
-71 -86 -176 0
-72 -87 -177 0
-70 -88 -178 0
-71 -89 -179 0
-72 -90 -180 0
-70 -91 -181 0
-71 -92 -182 0
-72 -93 -183 0
-70 -94 -184 0
-71 -95 -185 0
-72 -96 -186 0
-70 -97 -187 0
-71 -98 -188 0
-72 -99 -189 0
-70 -100 -190 0
-71 -101 -191 0
-72 -102 -192 0
-70 -103 -193 0
-71 -104 -194 0
-72 -105 -195 0
-70 -106 -196 0
-71 -107 -197 0
-72 -108 -198 0
-70 -109 -199 0
-71 -110 -200 0
-72 -111 -201 0
-70 -112 -202 0
-71 -113 -203 0
-72 -114 -204 0
-70 -115 -205 0
-71 -116 -206 0
-72 -117 -207 0
-70 -118 -208 0
-71 -119 -209 0
-72 -120 -210 0
-70 -121 -211 0
-71 -122 -212 0
-72 -123 -213 0
-70 -124 -214 0
-71 -125 -215 0
-72 -126 -216 0
-70 -127 -217 0
-71 -128 -218 0
-72 -129 -219 0
-70 -130 -220 0
-71 -131 -221 0
-72 -132 -222 0
-70 -133 -223 0
-71 -134 -224 0
-72 -135 -225 0
-70 -136 -226 0
-71 -137 -227 0
-72 -138 -228 0
-70 -139 -229 0
-71 -140 -230 0
-72 -141 -231 0
-70 -142 -232 0
-71 -143 -233 0
-72 -144 -234 0
-70 -145 -235 0
-71 -146 -236 0
-72 -147 -237 0
-70 -148 -238 0
-71 -149 -239 0
-72 -150 -240 0
-70 -151 -241 0
-71 -152 -242 0
-72 -153 -243 0
-70 -154 -244 0
-71 -155 -245 0
-72 -156 -246 0
-70 -157 -247 0
-71 -158 -248 0
-72 -159 -249 0
-70 -160 -250 0
-71 -161 -251 0
-72 -162 -252 0
-70 -163 -253 0
-71 -164 -254 0
-72 -165 -255 0
-70 -166 -256 0
-71 -167 -257 0
-72 -168 -258 0
-70 -169 -259 0
-71 -170 -260 0
-72 -171 -261 0
-70 -172 -262 0
-71 -173 -263 0
-72 -174 -264 0
-70 -175 -265 0
-71 -176 -266 0
-72 -177 -267 0
-70 -178 -268 0
-71 -179 -269 0
-72 -180 -270 0
-70 -181 -271 0
-71 -182 -272 0
-72 -183 -273 0
-70 -184 -274 0
-71 -185 -275 0
-72 -186 -276 0
-70 -187 -277 0
-71 -188 -278 0
-72 -189 -279 0
-70 -190 -280 0
-71 -191 -281 0
-72 -192 -282 0
-70 -193 -283 0
-71 -194 -284 0
-72 -195 -285 0
-70 -196 -286 0
-71 -197 -287 0
-72 -198 -288 0
-70 -199 -289 0
-71 -200 -290 0
-72 -201 -291 0
-70 -202 -292 0
-71 -203 -293 0
-72 -204 -294 0
-70 -205 -295 0
-71 -206 -296 0
-72 -207 -297 0
-70 -208 -298 0
-71 -209 -299 0
-72 -210 -300 0
-70 -211 -301 0
-71 -212 -302 0
-72 -213 -303 0
-70 -214 -304 0
-71 -215 -305 0
-72 -216 -306 0
-70 -217 -307 0
-71 -218 -308 0
-72 -219 -309 0
-70 -220 -310 0
-71 -221 -311 0
-72 -222 -312 0
-70 -223 -313 0
-71 -224 -314 0
-72 -225 -315 0
-70 -226 -316 0
-71 -227 -317 0
-72 -228 -318 0
-70 -229 -319 0
-71 -230 -320 0
-72 -231 -321 0
-70 -232 -322 0
-71 -233 -323 0
-72 -234 -324 0
-70 -235 -325 0
-71 -236 -326 0
-72 -237 -327 0
-70 -238 -328 0
-71 -239 -329 0
-72 -240 -330 0
-70 -241 -331 0
-71 -242 -332 0
-72 -243 -333 0
-70 -244 -334 0
-71 -245 -335 0
-72 -246 -336 0
-70 -247 -337 0
-71 -248 -338 0
-72 -249 -339 0
-70 -250 -340 0
-71 -251 -341 0
-72 -252 -342 0
-70 -253 -343 0
-71 -254 -344 0
-72 -255 -345 0
-70 -256 -346 0
-71 -257 -347 0
-72 -258 -348 0
-70 -259 -349 0
-71 -260 -350 0
-72 -261 -351 0
-70 -262 -352 0
-71 -263 -353 0
-72 -264 -354 0
-70 -265 -355 0
-71 -266 -356 0
-72 -267 -357 0
-70 -268 -358 0
-71 -269 -359 0
-72 -270 -360 0
-70 -271 -361 0
-71 -272 -362 0
-72 -273 -363 0
-70 -274 -364 0
-71 -275 -365 0
-72 -276 -366 0
-70 -277 -367 0
-71 -278 -368 0
-72 -279 -369 0
-70 -280 -370 0
-71 -281 -371 0
-72 -282 -372 0
-70 -283 -373 0
-71 -284 -374 0
-72 -285 -375 0
-70 -286 -376 0
-71 -287 -377 0
-72 -288 -378 0
-70 -289 -379 0
-71 -290 -380 0
-72 -291 -381 0
-70 -292 -382 0
-71 -293 -383 0
-72 -294 -384 0
-70 -295 -385 0
-71 -296 -386 0
-72 -297 -387 0
-70 -298 -388 0
-71 -299 -389 0
-72 -300 -390 0
-70 -301 -391 0
-71 -302 -392 0
-72 -303 -393 0
-70 -304 -394 0
-71 -305 -395 0
-72 -306 -396 0
-70 -307 -397 0
-71 -308 -398 0
-72 -309 -399 0
-70 -310 -400 0
-71 -311 -401 0
-72 -312 -402 0
-70 -313 -403 0
-71 -314 -404 0
-72 -315 -405 0
-70 -316 -406 0
-71 -317 -407 0
-72 -318 -408 0
-70 -319 -409 0
-71 -320 -410 0
-72 -321 -411 0
-70 -322 -412 0
-71 -323 -413 0
-72 -324 -414 0
-70 -325 -415 0
-71 -326 -416 0
-72 -327 -417 0
-70 -328 -418 0
-71 -329 -419 0
-72 -330 -420 0
-70 -331 -421 0
-71 -332 -422 0
-72 -333 -423 0
-70 -334 -424 0
-71 -335 -425 0
-72 -336 -426 0
-70 -337 -427 0
-71 -338 -428 0
-72 -339 -429 0
-70 -340 -430 0
-71 -341 -431 0
-72 -342 -432 0
-70 -343 -433 0
-71 -344 -434 0
-72 -345 -435 0
-70 -346 -436 0
-71 -347 -437 0
-72 -348 -438 0
-70 -349 -439 0
-71 -350 -440 0
-72 -351 -441 0
-70 -352 -442 0
-71 -353 -443 0
-72 -354 -444 0
-70 -355 -445 0
-71 -356 -446 0
-72 -357 -447 0
-70 -358 -448 0
-71 -359 -449 0
-72 -360 -450 0
-70 -361 -451 0
-71 -362 -452 0
-72 -363 -453 0
-70 -364 -454 0
-71 -365 -455 0
-72 -366 -456 0
-70 -367 -457 0
-71 -368 -458 0
-72 -369 -459 0
-70 -370 -460 0
-71 -371 -461 0
-72 -372 -462 0
-70 -373 -463 0
-71 -374 -464 0
-72 -375 -465 0
-70 -376 -466 0
-71 -377 -467 0
-72 -378 -468 0
-70 -379 -469 0
-71 -380 -470 0
-72 -381 -471 0
-70 -382 -472 0
-71 -383 -473 0
-72 -384 -474 0
-70 -385 -475 0
-71 -386 -476 0
-72 -387 -477 0
-70 -388 -478 0
-71 -389 -479 0
-72 -390 -480 0
-70 -391 -481 0
-71 -392 -482 0
-72 -393 -483 0
-70 -394 -484 0
-71 -395 -485 0
-72 -396 -486 0
-70 -397 -487 0
-71 -398 -488 0
-72 -399 -489 0
-70 -400 -490 0
-71 -401 -491 0
-72 -402 -492 0
-70 -403 -493 0
-71 -404 -494 0
-72 -405 -495 0
-70 -406 -496 0
-71 -407 -497 0
-72 -408 -498 0
-70 -409 -499 0
-71 -410 -500 0
-72 -411 -501 0
-70 -412 -502 0
-71 -413 -503 0
-72 -414 -504 0
-70 -415 -505 0
-71 -416 -506 0
-72 -417 -507 0
-70 -418 -508 0
-71 -419 -509 0
-72 -420 -510 0
-70 -421 -511 0
-71 -422 -512 0
-72 -423 -513 0
-70 -424 -514 0
-71 -425 -515 0
-72 -426 -516 0
-70 -427 -517 0
-71 -428 -518 0
-72 -429 -519 0
-70 -430 -520 0
-71 -431 -521 0
-72 -432 -522 0
-70 -433 -523 0
-71 -434 -524 0
-72 -435 -525 0
-70 -436 -526 0
-71 -437 -527 0
-72 -438 -528 0
-70 -439 -529 0
-71 -440 -530 0
-72 -441 -531 0
-70 -442 -532 0
-71 -443 -533 0
-72 -444 -534 0
-70 -445 -535 0
-71 -446 -536 0
-72 -447 -537 0
-70 -448 -538 0
-71 -449 -539 0
-72 -450 -540 0
-1 -82 -106 0
-2 -83 -107 0
-3 -84 -108 0
-4 -82 -109 0
-5 -83 -110 0
-6 -84 -111 0
-7 -82 -112 0
-8 -83 -113 0
-9 -84 -114 0
-10 -82 -115 0
-11 -83 -116 0
-12 -84 -117 0
-13 -82 -118 0
-14 -83 -119 0
-15 -84 -120 0
-16 -82 -121 0
-17 -83 -122 0
-18 -84 -123 0
-19 -82 -124 0
-20 -83 -125 0
-21 -84 -126 0
-22 -82 -127 0
-23 -83 -128 0
-24 -84 -129 0
-25 -82 -130 0
-26 -83 -131 0
-27 -84 -132 0
-28 -82 -133 0
-29 -83 -134 0
-30 -84 -135 0
-31 -82 -136 0
-32 -83 -137 0
-33 -84 -138 0
-34 -82 -139 0
-35 -83 -140 0
-36 -84 -141 0
-37 -82 -142 0
-38 -83 -143 0
-39 -84 -144 0
-40 -82 -145 0
-41 -83 -146 0
-42 -84 -147 0
-43 -82 -148 0
-44 -83 -149 0
-45 -84 -150 0
-46 -82 -151 0
-47 -83 -152 0
-48 -84 -153 0
-49 -82 -154 0
-50 -83 -155 0
-51 -84 -156 0
-52 -82 -157 0
-53 -83 -158 0
-54 -84 -159 0
-55 -82 -160 0
-56 -83 -161 0
-57 -84 -162 0
-58 -82 -163 0
-59 -83 -164 0
-60 -84 -165 0
-61 -82 -166 0
-62 -83 -167 0
-63 -84 -168 0
-64 -82 -169 0
-65 -83 -170 0
-66 -84 -171 0
-67 -82 -172 0
-68 -83 -173 0
-69 -84 -174 0
-70 -82 -175 0
-71 -83 -176 0
-72 -84 -177 0
-73 -82 -178 0
-74 -83 -179 0
-75 -84 -180 0
-76 -82 -181 0
-77 -83 -182 0
-78 -84 -183 0
-79 -82 -184 0
-80 -83 -185 0
-81 -84 -186 0
-82 -187 0
-83 -188 0
-84 -189 0
-82 -85 -190 0
-83 -86 -191 0
-84 -87 -192 0
-82 -88 -193 0
-83 -89 -194 0
-84 -90 -195 0
-82 -91 -196 0
-83 -92 -197 0
-84 -93 -198 0
-82 -94 -199 0
-83 -95 -200 0
-84 -96 -201 0
-82 -97 -202 0
-83 -98 -203 0
-84 -99 -204 0
-82 -100 -205 0
-83 -101 -206 0
-84 -102 -207 0
-82 -103 -208 0
-83 -104 -209 0
-84 -105 -210 0
-82 -106 -211 0
-83 -107 -212 0
-84 -108 -213 0
-82 -109 -214 0
-83 -110 -215 0
-84 -111 -216 0
-82 -112 -217 0
-83 -113 -218 0
-84 -114 -219 0
-82 -115 -220 0
-83 -116 -221 0
-84 -117 -222 0
-82 -118 -223 0
-83 -119 -224 0
-84 -120 -225 0
-82 -121 -226 0
-83 -122 -227 0
-84 -123 -228 0
-82 -124 -229 0
-83 -125 -230 0
-84 -126 -231 0
-82 -127 -232 0
-83 -128 -233 0
-84 -129 -234 0
-82 -130 -235 0
-83 -131 -236 0
-84 -132 -237 0
-82 -133 -238 0
-83 -134 -239 0
-84 -135 -240 0
-82 -136 -241 0
-83 -137 -242 0
-84 -138 -243 0
-82 -139 -244 0
-83 -140 -245 0
-84 -141 -246 0
-82 -142 -247 0
-83 -143 -248 0
-84 -144 -249 0
-82 -145 -250 0
-83 -146 -251 0
-84 -147 -252 0
-82 -148 -253 0
-83 -149 -254 0
-84 -150 -255 0
-82 -151 -256 0
-83 -152 -257 0
-84 -153 -258 0
-82 -154 -259 0
-83 -155 -260 0
-84 -156 -261 0
-82 -157 -262 0
-83 -158 -263 0
-84 -159 -264 0
-82 -160 -265 0
-83 -161 -266 0
-84 -162 -267 0
-82 -163 -268 0
-83 -164 -269 0
-84 -165 -270 0
-82 -166 -271 0
-83 -167 -272 0
-84 -168 -273 0
-82 -169 -274 0
-83 -170 -275 0
-84 -171 -276 0
-82 -172 -277 0
-83 -173 -278 0
-84 -174 -279 0
-82 -175 -280 0
-83 -176 -281 0
-84 -177 -282 0
-82 -178 -283 0
-83 -179 -284 0
-84 -180 -285 0
-82 -181 -286 0
-83 -182 -287 0
-84 -183 -288 0
-82 -184 -289 0
-83 -185 -290 0
-84 -186 -291 0
-82 -187 -292 0
-83 -188 -293 0
-84 -189 -294 0
-82 -190 -295 0
-83 -191 -296 0
-84 -192 -297 0
-82 -193 -298 0
-83 -194 -299 0
-84 -195 -300 0
-82 -196 -301 0
-83 -197 -302 0
-84 -198 -303 0
-82 -199 -304 0
-83 -200 -305 0
-84 -201 -306 0
-82 -202 -307 0
-83 -203 -308 0
-84 -204 -309 0
-82 -205 -310 0
-83 -206 -311 0
-84 -207 -312 0
-82 -208 -313 0
-83 -209 -314 0
-84 -210 -315 0
-82 -211 -316 0
-83 -212 -317 0
-84 -213 -318 0
-82 -214 -319 0
-83 -215 -320 0
-84 -216 -321 0
-82 -217 -322 0
-83 -218 -323 0
-84 -219 -324 0
-82 -220 -325 0
-83 -221 -326 0
-84 -222 -327 0
-82 -223 -328 0
-83 -224 -329 0
-84 -225 -330 0
-82 -226 -331 0
-83 -227 -332 0
-84 -228 -333 0
-82 -229 -334 0
-83 -230 -335 0
-84 -231 -336 0
-82 -232 -337 0
-83 -233 -338 0
-84 -234 -339 0
-82 -235 -340 0
-83 -236 -341 0
-84 -237 -342 0
-82 -238 -343 0
-83 -239 -344 0
-84 -240 -345 0
-82 -241 -346 0
-83 -242 -347 0
-84 -243 -348 0
-82 -244 -349 0
-83 -245 -350 0
-84 -246 -351 0
-82 -247 -352 0
-83 -248 -353 0
-84 -249 -354 0
-82 -250 -355 0
-83 -251 -356 0
-84 -252 -357 0
-82 -253 -358 0
-83 -254 -359 0
-84 -255 -360 0
-82 -256 -361 0
-83 -257 -362 0
-84 -258 -363 0
-82 -259 -364 0
-83 -260 -365 0
-84 -261 -366 0
-82 -262 -367 0
-83 -263 -368 0
-84 -264 -369 0
-82 -265 -370 0
-83 -266 -371 0
-84 -267 -372 0
-82 -268 -373 0
-83 -269 -374 0
-84 -270 -375 0
-82 -271 -376 0
-83 -272 -377 0
-84 -273 -378 0
-82 -274 -379 0
-83 -275 -380 0
-84 -276 -381 0
-82 -277 -382 0
-83 -278 -383 0
-84 -279 -384 0
-82 -280 -385 0
-83 -281 -386 0
-84 -282 -387 0
-82 -283 -388 0
-83 -284 -389 0
-84 -285 -390 0
-82 -286 -391 0
-83 -287 -392 0
-84 -288 -393 0
-82 -289 -394 0
-83 -290 -395 0
-84 -291 -396 0
-82 -292 -397 0
-83 -293 -398 0
-84 -294 -399 0
-82 -295 -400 0
-83 -296 -401 0
-84 -297 -402 0
-82 -298 -403 0
-83 -299 -404 0
-84 -300 -405 0
-82 -301 -406 0
-83 -302 -407 0
-84 -303 -408 0
-82 -304 -409 0
-83 -305 -410 0
-84 -306 -411 0
-82 -307 -412 0
-83 -308 -413 0
-84 -309 -414 0
-82 -310 -415 0
-83 -311 -416 0
-84 -312 -417 0
-82 -313 -418 0
-83 -314 -419 0
-84 -315 -420 0
-82 -316 -421 0
-83 -317 -422 0
-84 -318 -423 0
-82 -319 -424 0
-83 -320 -425 0
-84 -321 -426 0
-82 -322 -427 0
-83 -323 -428 0
-84 -324 -429 0
-82 -325 -430 0
-83 -326 -431 0
-84 -327 -432 0
-82 -328 -433 0
-83 -329 -434 0
-84 -330 -435 0
-82 -331 -436 0
-83 -332 -437 0
-84 -333 -438 0
-82 -334 -439 0
-83 -335 -440 0
-84 -336 -441 0
-82 -337 -442 0
-83 -338 -443 0
-84 -339 -444 0
-82 -340 -445 0
-83 -341 -446 0
-84 -342 -447 0
-82 -343 -448 0
-83 -344 -449 0
-84 -345 -450 0
-82 -346 -451 0
-83 -347 -452 0
-84 -348 -453 0
-82 -349 -454 0
-83 -350 -455 0
-84 -351 -456 0
-82 -352 -457 0
-83 -353 -458 0
-84 -354 -459 0
-82 -355 -460 0
-83 -356 -461 0
-84 -357 -462 0
-82 -358 -463 0
-83 -359 -464 0
-84 -360 -465 0
-82 -361 -466 0
-83 -362 -467 0
-84 -363 -468 0
-82 -364 -469 0
-83 -365 -470 0
-84 -366 -471 0
-82 -367 -472 0
-83 -368 -473 0
-84 -369 -474 0
-82 -370 -475 0
-83 -371 -476 0
-84 -372 -477 0
-82 -373 -478 0
-83 -374 -479 0
-84 -375 -480 0
-82 -376 -481 0
-83 -377 -482 0
-84 -378 -483 0
-82 -379 -484 0
-83 -380 -485 0
-84 -381 -486 0
-82 -382 -487 0
-83 -383 -488 0
-84 -384 -489 0
-82 -385 -490 0
-83 -386 -491 0
-84 -387 -492 0
-82 -388 -493 0
-83 -389 -494 0
-84 -390 -495 0
-82 -391 -496 0
-83 -392 -497 0
-84 -393 -498 0
-82 -394 -499 0
-83 -395 -500 0
-84 -396 -501 0
-82 -397 -502 0
-83 -398 -503 0
-84 -399 -504 0
-82 -400 -505 0
-83 -401 -506 0
-84 -402 -507 0
-82 -403 -508 0
-83 -404 -509 0
-84 -405 -510 0
-82 -406 -511 0
-83 -407 -512 0
-84 -408 -513 0
-82 -409 -514 0
-83 -410 -515 0
-84 -411 -516 0
-82 -412 -517 0
-83 -413 -518 0
-84 -414 -519 0
-82 -415 -520 0
-83 -416 -521 0
-84 -417 -522 0
-82 -418 -523 0
-83 -419 -524 0
-84 -420 -525 0
-82 -421 -526 0
-83 -422 -527 0
-84 -423 -528 0
-82 -424 -529 0
-83 -425 -530 0
-84 -426 -531 0
-82 -427 -532 0
-83 -428 -533 0
-84 -429 -534 0
-82 -430 -535 0
-83 -431 -536 0
-84 -432 -537 0
-82 -433 -538 0
-83 -434 -539 0
-84 -435 -540 0
-1 -94 -121 0
-2 -95 -122 0
-3 -96 -123 0
-4 -94 -124 0
-5 -95 -125 0
-6 -96 -126 0
-7 -94 -127 0
-8 -95 -128 0
-9 -96 -129 0
-10 -94 -130 0
-11 -95 -131 0
-12 -96 -132 0
-13 -94 -133 0
-14 -95 -134 0
-15 -96 -135 0
-16 -94 -136 0
-17 -95 -137 0
-18 -96 -138 0
-19 -94 -139 0
-20 -95 -140 0
-21 -96 -141 0
-22 -94 -142 0
-23 -95 -143 0
-24 -96 -144 0
-25 -94 -145 0
-26 -95 -146 0
-27 -96 -147 0
-28 -94 -148 0
-29 -95 -149 0
-30 -96 -150 0
-31 -94 -151 0
-32 -95 -152 0
-33 -96 -153 0
-34 -94 -154 0
-35 -95 -155 0
-36 -96 -156 0
-37 -94 -157 0
-38 -95 -158 0
-39 -96 -159 0
-40 -94 -160 0
-41 -95 -161 0
-42 -96 -162 0
-43 -94 -163 0
-44 -95 -164 0
-45 -96 -165 0
-46 -94 -166 0
-47 -95 -167 0
-48 -96 -168 0
-49 -94 -169 0
-50 -95 -170 0
-51 -96 -171 0
-52 -94 -172 0
-53 -95 -173 0
-54 -96 -174 0
-55 -94 -175 0
-56 -95 -176 0
-57 -96 -177 0
-58 -94 -178 0
-59 -95 -179 0
-60 -96 -180 0
-61 -94 -181 0
-62 -95 -182 0
-63 -96 -183 0
-64 -94 -184 0
-65 -95 -185 0
-66 -96 -186 0
-67 -94 -187 0
-68 -95 -188 0
-69 -96 -189 0
-70 -94 -190 0
-71 -95 -191 0
-72 -96 -192 0
-73 -94 -193 0
-74 -95 -194 0
-75 -96 -195 0
-76 -94 -196 0
-77 -95 -197 0
-78 -96 -198 0
-79 -94 -199 0
-80 -95 -200 0
-81 -96 -201 0
-82 -94 -202 0
-83 -95 -203 0
-84 -96 -204 0
-85 -94 -205 0
-86 -95 -206 0
-87 -96 -207 0
-88 -94 -208 0
-89 -95 -209 0
-90 -96 -210 0
-91 -94 -211 0
-92 -95 -212 0
-93 -96 -213 0
-94 -214 0
-95 -215 0
-96 -216 0
-94 -97 -217 0
-95 -98 -218 0
-96 -99 -219 0
-94 -100 -220 0
-95 -101 -221 0
-96 -102 -222 0
-94 -103 -223 0
-95 -104 -224 0
-96 -105 -225 0
-94 -106 -226 0
-95 -107 -227 0
-96 -108 -228 0
-94 -109 -229 0
-95 -110 -230 0
-96 -111 -231 0
-94 -112 -232 0
-95 -113 -233 0
-96 -114 -234 0
-94 -115 -235 0
-95 -116 -236 0
-96 -117 -237 0
-94 -118 -238 0
-95 -119 -239 0
-96 -120 -240 0
-94 -121 -241 0
-95 -122 -242 0
-96 -123 -243 0
-94 -124 -244 0
-95 -125 -245 0
-96 -126 -246 0
-94 -127 -247 0
-95 -128 -248 0
-96 -129 -249 0
-94 -130 -250 0
-95 -131 -251 0
-96 -132 -252 0
-94 -133 -253 0
-95 -134 -254 0
-96 -135 -255 0
-94 -136 -256 0
-95 -137 -257 0
-96 -138 -258 0
-94 -139 -259 0
-95 -140 -260 0
-96 -141 -261 0
-94 -142 -262 0
-95 -143 -263 0
-96 -144 -264 0
-94 -145 -265 0
-95 -146 -266 0
-96 -147 -267 0
-94 -148 -268 0
-95 -149 -269 0
-96 -150 -270 0
-94 -151 -271 0
-95 -152 -272 0
-96 -153 -273 0
-94 -154 -274 0
-95 -155 -275 0
-96 -156 -276 0
-94 -157 -277 0
-95 -158 -278 0
-96 -159 -279 0
-94 -160 -280 0
-95 -161 -281 0
-96 -162 -282 0
-94 -163 -283 0
-95 -164 -284 0
-96 -165 -285 0
-94 -166 -286 0
-95 -167 -287 0
-96 -168 -288 0
-94 -169 -289 0
-95 -170 -290 0
-96 -171 -291 0
-94 -172 -292 0
-95 -173 -293 0
-96 -174 -294 0
-94 -175 -295 0
-95 -176 -296 0
-96 -177 -297 0
-94 -178 -298 0
-95 -179 -299 0
-96 -180 -300 0
-94 -181 -301 0
-95 -182 -302 0
-96 -183 -303 0
-94 -184 -304 0
-95 -185 -305 0
-96 -186 -306 0
-94 -187 -307 0
-95 -188 -308 0
-96 -189 -309 0
-94 -190 -310 0
-95 -191 -311 0
-96 -192 -312 0
-94 -193 -313 0
-95 -194 -314 0
-96 -195 -315 0
-94 -196 -316 0
-95 -197 -317 0
-96 -198 -318 0
-94 -199 -319 0
-95 -200 -320 0
-96 -201 -321 0
-94 -202 -322 0
-95 -203 -323 0
-96 -204 -324 0
-94 -205 -325 0
-95 -206 -326 0
-96 -207 -327 0
-94 -208 -328 0
-95 -209 -329 0
-96 -210 -330 0
-94 -211 -331 0
-95 -212 -332 0
-96 -213 -333 0
-94 -214 -334 0
-95 -215 -335 0
-96 -216 -336 0
-94 -217 -337 0
-95 -218 -338 0
-96 -219 -339 0
-94 -220 -340 0
-95 -221 -341 0
-96 -222 -342 0
-94 -223 -343 0
-95 -224 -344 0
-96 -225 -345 0
-94 -226 -346 0
-95 -227 -347 0
-96 -228 -348 0
-94 -229 -349 0
-95 -230 -350 0
-96 -231 -351 0
-94 -232 -352 0
-95 -233 -353 0
-96 -234 -354 0
-94 -235 -355 0
-95 -236 -356 0
-96 -237 -357 0
-94 -238 -358 0
-95 -239 -359 0
-96 -240 -360 0
-94 -241 -361 0
-95 -242 -362 0
-96 -243 -363 0
-94 -244 -364 0
-95 -245 -365 0
-96 -246 -366 0
-94 -247 -367 0
-95 -248 -368 0
-96 -249 -369 0
-94 -250 -370 0
-95 -251 -371 0
-96 -252 -372 0
-94 -253 -373 0
-95 -254 -374 0
-96 -255 -375 0
-94 -256 -376 0
-95 -257 -377 0
-96 -258 -378 0
-94 -259 -379 0
-95 -260 -380 0
-96 -261 -381 0
-94 -262 -382 0
-95 -263 -383 0
-96 -264 -384 0
-94 -265 -385 0
-95 -266 -386 0
-96 -267 -387 0
-94 -268 -388 0
-95 -269 -389 0
-96 -270 -390 0
-94 -271 -391 0
-95 -272 -392 0
-96 -273 -393 0
-94 -274 -394 0
-95 -275 -395 0
-96 -276 -396 0
-94 -277 -397 0
-95 -278 -398 0
-96 -279 -399 0
-94 -280 -400 0
-95 -281 -401 0
-96 -282 -402 0
-94 -283 -403 0
-95 -284 -404 0
-96 -285 -405 0
-94 -286 -406 0
-95 -287 -407 0
-96 -288 -408 0
-94 -289 -409 0
-95 -290 -410 0
-96 -291 -411 0
-94 -292 -412 0
-95 -293 -413 0
-96 -294 -414 0
-94 -295 -415 0
-95 -296 -416 0
-96 -297 -417 0
-94 -298 -418 0
-95 -299 -419 0
-96 -300 -420 0
-94 -301 -421 0
-95 -302 -422 0
-96 -303 -423 0
-94 -304 -424 0
-95 -305 -425 0
-96 -306 -426 0
-94 -307 -427 0
-95 -308 -428 0
-96 -309 -429 0
-94 -310 -430 0
-95 -311 -431 0
-96 -312 -432 0
-94 -313 -433 0
-95 -314 -434 0
-96 -315 -435 0
-94 -316 -436 0
-95 -317 -437 0
-96 -318 -438 0
-94 -319 -439 0
-95 -320 -440 0
-96 -321 -441 0
-94 -322 -442 0
-95 -323 -443 0
-96 -324 -444 0
-94 -325 -445 0
-95 -326 -446 0
-96 -327 -447 0
-94 -328 -448 0
-95 -329 -449 0
-96 -330 -450 0
-94 -331 -451 0
-95 -332 -452 0
-96 -333 -453 0
-94 -334 -454 0
-95 -335 -455 0
-96 -336 -456 0
-94 -337 -457 0
-95 -338 -458 0
-96 -339 -459 0
-94 -340 -460 0
-95 -341 -461 0
-96 -342 -462 0
-94 -343 -463 0
-95 -344 -464 0
-96 -345 -465 0
-94 -346 -466 0
-95 -347 -467 0
-96 -348 -468 0
-94 -349 -469 0
-95 -350 -470 0
-96 -351 -471 0
-94 -352 -472 0
-95 -353 -473 0
-96 -354 -474 0
-94 -355 -475 0
-95 -356 -476 0
-96 -357 -477 0
-94 -358 -478 0
-95 -359 -479 0
-96 -360 -480 0
-94 -361 -481 0
-95 -362 -482 0
-96 -363 -483 0
-94 -364 -484 0
-95 -365 -485 0
-96 -366 -486 0
-94 -367 -487 0
-95 -368 -488 0
-96 -369 -489 0
-94 -370 -490 0
-95 -371 -491 0
-96 -372 -492 0
-94 -373 -493 0
-95 -374 -494 0
-96 -375 -495 0
-94 -376 -496 0
-95 -377 -497 0
-96 -378 -498 0
-94 -379 -499 0
-95 -380 -500 0
-96 -381 -501 0
-94 -382 -502 0
-95 -383 -503 0
-96 -384 -504 0
-94 -385 -505 0
-95 -386 -506 0
-96 -387 -507 0
-94 -388 -508 0
-95 -389 -509 0
-96 -390 -510 0
-94 -391 -511 0
-95 -392 -512 0
-96 -393 -513 0
-94 -394 -514 0
-95 -395 -515 0
-96 -396 -516 0
-94 -397 -517 0
-95 -398 -518 0
-96 -399 -519 0
-94 -400 -520 0
-95 -401 -521 0
-96 -402 -522 0
-94 -403 -523 0
-95 -404 -524 0
-96 -405 -525 0
-94 -406 -526 0
-95 -407 -527 0
-96 -408 -528 0
-94 -409 -529 0
-95 -410 -530 0
-96 -411 -531 0
-94 -412 -532 0
-95 -413 -533 0
-96 -414 -534 0
-94 -415 -535 0
-95 -416 -536 0
-96 -417 -537 0
-94 -418 -538 0
-95 -419 -539 0
-96 -420 -540 0
-1 -106 -136 0
-2 -107 -137 0
-3 -108 -138 0
-4 -106 -139 0
-5 -107 -140 0
-6 -108 -141 0
-7 -106 -142 0
-8 -107 -143 0
-9 -108 -144 0
-10 -106 -145 0
-11 -107 -146 0
-12 -108 -147 0
-13 -106 -148 0
-14 -107 -149 0
-15 -108 -150 0
-16 -106 -151 0
-17 -107 -152 0
-18 -108 -153 0
-19 -106 -154 0
-20 -107 -155 0
-21 -108 -156 0
-22 -106 -157 0
-23 -107 -158 0
-24 -108 -159 0
-25 -106 -160 0
-26 -107 -161 0
-27 -108 -162 0
-28 -106 -163 0
-29 -107 -164 0
-30 -108 -165 0
-31 -106 -166 0
-32 -107 -167 0
-33 -108 -168 0
-34 -106 -169 0
-35 -107 -170 0
-36 -108 -171 0
-37 -106 -172 0
-38 -107 -173 0
-39 -108 -174 0
-40 -106 -175 0
-41 -107 -176 0
-42 -108 -177 0
-43 -106 -178 0
-44 -107 -179 0
-45 -108 -180 0
-46 -106 -181 0
-47 -107 -182 0
-48 -108 -183 0
-49 -106 -184 0
-50 -107 -185 0
-51 -108 -186 0
-52 -106 -187 0
-53 -107 -188 0
-54 -108 -189 0
-55 -106 -190 0
-56 -107 -191 0
-57 -108 -192 0
-58 -106 -193 0
-59 -107 -194 0
-60 -108 -195 0
-61 -106 -196 0
-62 -107 -197 0
-63 -108 -198 0
-64 -106 -199 0
-65 -107 -200 0
-66 -108 -201 0
-67 -106 -202 0
-68 -107 -203 0
-69 -108 -204 0
-70 -106 -205 0
-71 -107 -206 0
-72 -108 -207 0
-73 -106 -208 0
-74 -107 -209 0
-75 -108 -210 0
-76 -106 -211 0
-77 -107 -212 0
-78 -108 -213 0
-79 -106 -214 0
-80 -107 -215 0
-81 -108 -216 0
-82 -106 -217 0
-83 -107 -218 0
-84 -108 -219 0
-85 -106 -220 0
-86 -107 -221 0
-87 -108 -222 0
-88 -106 -223 0
-89 -107 -224 0
-90 -108 -225 0
-91 -106 -226 0
-92 -107 -227 0
-93 -108 -228 0
-94 -106 -229 0
-95 -107 -230 0
-96 -108 -231 0
-97 -106 -232 0
-98 -107 -233 0
-99 -108 -234 0
-100 -106 -235 0
-101 -107 -236 0
-102 -108 -237 0
-103 -106 -238 0
-104 -107 -239 0
-105 -108 -240 0
-106 -241 0
-107 -242 0
-108 -243 0
-106 -109 -244 0
-107 -110 -245 0
-108 -111 -246 0
-106 -112 -247 0
-107 -113 -248 0
-108 -114 -249 0
-106 -115 -250 0
-107 -116 -251 0
-108 -117 -252 0
-106 -118 -253 0
-107 -119 -254 0
-108 -120 -255 0
-106 -121 -256 0
-107 -122 -257 0
-108 -123 -258 0
-106 -124 -259 0
-107 -125 -260 0
-108 -126 -261 0
-106 -127 -262 0
-107 -128 -263 0
-108 -129 -264 0
-106 -130 -265 0
-107 -131 -266 0
-108 -132 -267 0
-106 -133 -268 0
-107 -134 -269 0
-108 -135 -270 0
-106 -136 -271 0
-107 -137 -272 0
-108 -138 -273 0
-106 -139 -274 0
-107 -140 -275 0
-108 -141 -276 0
-106 -142 -277 0
-107 -143 -278 0
-108 -144 -279 0
-106 -145 -280 0
-107 -146 -281 0
-108 -147 -282 0
-106 -148 -283 0
-107 -149 -284 0
-108 -150 -285 0
-106 -151 -286 0
-107 -152 -287 0
-108 -153 -288 0
-106 -154 -289 0
-107 -155 -290 0
-108 -156 -291 0
-106 -157 -292 0
-107 -158 -293 0
-108 -159 -294 0
-106 -160 -295 0
-107 -161 -296 0
-108 -162 -297 0
-106 -163 -298 0
-107 -164 -299 0
-108 -165 -300 0
-106 -166 -301 0
-107 -167 -302 0
-108 -168 -303 0
-106 -169 -304 0
-107 -170 -305 0
-108 -171 -306 0
-106 -172 -307 0
-107 -173 -308 0
-108 -174 -309 0
-106 -175 -310 0
-107 -176 -311 0
-108 -177 -312 0
-106 -178 -313 0
-107 -179 -314 0
-108 -180 -315 0
-106 -181 -316 0
-107 -182 -317 0
-108 -183 -318 0
-106 -184 -319 0
-107 -185 -320 0
-108 -186 -321 0
-106 -187 -322 0
-107 -188 -323 0
-108 -189 -324 0
-106 -190 -325 0
-107 -191 -326 0
-108 -192 -327 0
-106 -193 -328 0
-107 -194 -329 0
-108 -195 -330 0
-106 -196 -331 0
-107 -197 -332 0
-108 -198 -333 0
-106 -199 -334 0
-107 -200 -335 0
-108 -201 -336 0
-106 -202 -337 0
-107 -203 -338 0
-108 -204 -339 0
-106 -205 -340 0
-107 -206 -341 0
-108 -207 -342 0
-106 -208 -343 0
-107 -209 -344 0
-108 -210 -345 0
-106 -211 -346 0
-107 -212 -347 0
-108 -213 -348 0
-106 -214 -349 0
-107 -215 -350 0
-108 -216 -351 0
-106 -217 -352 0
-107 -218 -353 0
-108 -219 -354 0
-106 -220 -355 0
-107 -221 -356 0
-108 -222 -357 0
-106 -223 -358 0
-107 -224 -359 0
-108 -225 -360 0
-106 -226 -361 0
-107 -227 -362 0
-108 -228 -363 0
-106 -229 -364 0
-107 -230 -365 0
-108 -231 -366 0
-106 -232 -367 0
-107 -233 -368 0
-108 -234 -369 0
-106 -235 -370 0
-107 -236 -371 0
-108 -237 -372 0
-106 -238 -373 0
-107 -239 -374 0
-108 -240 -375 0
-106 -241 -376 0
-107 -242 -377 0
-108 -243 -378 0
-106 -244 -379 0
-107 -245 -380 0
-108 -246 -381 0
-106 -247 -382 0
-107 -248 -383 0
-108 -249 -384 0
-106 -250 -385 0
-107 -251 -386 0
-108 -252 -387 0
-106 -253 -388 0
-107 -254 -389 0
-108 -255 -390 0
-106 -256 -391 0
-107 -257 -392 0
-108 -258 -393 0
-106 -259 -394 0
-107 -260 -395 0
-108 -261 -396 0
-106 -262 -397 0
-107 -263 -398 0
-108 -264 -399 0
-106 -265 -400 0
-107 -266 -401 0
-108 -267 -402 0
-106 -268 -403 0
-107 -269 -404 0
-108 -270 -405 0
-106 -271 -406 0
-107 -272 -407 0
-108 -273 -408 0
-106 -274 -409 0
-107 -275 -410 0
-108 -276 -411 0
-106 -277 -412 0
-107 -278 -413 0
-108 -279 -414 0
-106 -280 -415 0
-107 -281 -416 0
-108 -282 -417 0
-106 -283 -418 0
-107 -284 -419 0
-108 -285 -420 0
-106 -286 -421 0
-107 -287 -422 0
-108 -288 -423 0
-106 -289 -424 0
-107 -290 -425 0
-108 -291 -426 0
-106 -292 -427 0
-107 -293 -428 0
-108 -294 -429 0
-106 -295 -430 0
-107 -296 -431 0
-108 -297 -432 0
-106 -298 -433 0
-107 -299 -434 0
-108 -300 -435 0
-106 -301 -436 0
-107 -302 -437 0
-108 -303 -438 0
-106 -304 -439 0
-107 -305 -440 0
-108 -306 -441 0
-106 -307 -442 0
-107 -308 -443 0
-108 -309 -444 0
-106 -310 -445 0
-107 -311 -446 0
-108 -312 -447 0
-106 -313 -448 0
-107 -314 -449 0
-108 -315 -450 0
-106 -316 -451 0
-107 -317 -452 0
-108 -318 -453 0
-106 -319 -454 0
-107 -320 -455 0
-108 -321 -456 0
-106 -322 -457 0
-107 -323 -458 0
-108 -324 -459 0
-106 -325 -460 0
-107 -326 -461 0
-108 -327 -462 0
-106 -328 -463 0
-107 -329 -464 0
-108 -330 -465 0
-106 -331 -466 0
-107 -332 -467 0
-108 -333 -468 0
-106 -334 -469 0
-107 -335 -470 0
-108 -336 -471 0
-106 -337 -472 0
-107 -338 -473 0
-108 -339 -474 0
-106 -340 -475 0
-107 -341 -476 0
-108 -342 -477 0
-106 -343 -478 0
-107 -344 -479 0
-108 -345 -480 0
-106 -346 -481 0
-107 -347 -482 0
-108 -348 -483 0
-106 -349 -484 0
-107 -350 -485 0
-108 -351 -486 0
-106 -352 -487 0
-107 -353 -488 0
-108 -354 -489 0
-106 -355 -490 0
-107 -356 -491 0
-108 -357 -492 0
-106 -358 -493 0
-107 -359 -494 0
-108 -360 -495 0
-106 -361 -496 0
-107 -362 -497 0
-108 -363 -498 0
-106 -364 -499 0
-107 -365 -500 0
-108 -366 -501 0
-106 -367 -502 0
-107 -368 -503 0
-108 -369 -504 0
-106 -370 -505 0
-107 -371 -506 0
-108 -372 -507 0
-106 -373 -508 0
-107 -374 -509 0
-108 -375 -510 0
-106 -376 -511 0
-107 -377 -512 0
-108 -378 -513 0
-106 -379 -514 0
-107 -380 -515 0
-108 -381 -516 0
-106 -382 -517 0
-107 -383 -518 0
-108 -384 -519 0
-106 -385 -520 0
-107 -386 -521 0
-108 -387 -522 0
-106 -388 -523 0
-107 -389 -524 0
-108 -390 -525 0
-106 -391 -526 0
-107 -392 -527 0
-108 -393 -528 0
-106 -394 -529 0
-107 -395 -530 0
-108 -396 -531 0
-106 -397 -532 0
-107 -398 -533 0
-108 -399 -534 0
-106 -400 -535 0
-107 -401 -536 0
-108 -402 -537 0
-106 -403 -538 0
-107 -404 -539 0
-108 -405 -540 0
-1 -118 -151 0
-2 -119 -152 0
-3 -120 -153 0
-4 -118 -154 0
-5 -119 -155 0
-6 -120 -156 0
-7 -118 -157 0
-8 -119 -158 0
-9 -120 -159 0
-10 -118 -160 0
-11 -119 -161 0
-12 -120 -162 0
-13 -118 -163 0
-14 -119 -164 0
-15 -120 -165 0
-16 -118 -166 0
-17 -119 -167 0
-18 -120 -168 0
-19 -118 -169 0
-20 -119 -170 0
-21 -120 -171 0
-22 -118 -172 0
-23 -119 -173 0
-24 -120 -174 0
-25 -118 -175 0
-26 -119 -176 0
-27 -120 -177 0
-28 -118 -178 0
-29 -119 -179 0
-30 -120 -180 0
-31 -118 -181 0
-32 -119 -182 0
-33 -120 -183 0
-34 -118 -184 0
-35 -119 -185 0
-36 -120 -186 0
-37 -118 -187 0
-38 -119 -188 0
-39 -120 -189 0
-40 -118 -190 0
-41 -119 -191 0
-42 -120 -192 0
-43 -118 -193 0
-44 -119 -194 0
-45 -120 -195 0
-46 -118 -196 0
-47 -119 -197 0
-48 -120 -198 0
-49 -118 -199 0
-50 -119 -200 0
-51 -120 -201 0
-52 -118 -202 0
-53 -119 -203 0
-54 -120 -204 0
-55 -118 -205 0
-56 -119 -206 0
-57 -120 -207 0
-58 -118 -208 0
-59 -119 -209 0
-60 -120 -210 0
-61 -118 -211 0
-62 -119 -212 0
-63 -120 -213 0
-64 -118 -214 0
-65 -119 -215 0
-66 -120 -216 0
-67 -118 -217 0
-68 -119 -218 0
-69 -120 -219 0
-70 -118 -220 0
-71 -119 -221 0
-72 -120 -222 0
-73 -118 -223 0
-74 -119 -224 0
-75 -120 -225 0
-76 -118 -226 0
-77 -119 -227 0
-78 -120 -228 0
-79 -118 -229 0
-80 -119 -230 0
-81 -120 -231 0
-82 -118 -232 0
-83 -119 -233 0
-84 -120 -234 0
-85 -118 -235 0
-86 -119 -236 0
-87 -120 -237 0
-88 -118 -238 0
-89 -119 -239 0
-90 -120 -240 0
-91 -118 -241 0
-92 -119 -242 0
-93 -120 -243 0
-94 -118 -244 0
-95 -119 -245 0
-96 -120 -246 0
-97 -118 -247 0
-98 -119 -248 0
-99 -120 -249 0
-100 -118 -250 0
-101 -119 -251 0
-102 -120 -252 0
-103 -118 -253 0
-104 -119 -254 0
-105 -120 -255 0
-106 -118 -256 0
-107 -119 -257 0
-108 -120 -258 0
-109 -118 -259 0
-110 -119 -260 0
-111 -120 -261 0
-112 -118 -262 0
-113 -119 -263 0
-114 -120 -264 0
-115 -118 -265 0
-116 -119 -266 0
-117 -120 -267 0
-118 -268 0
-119 -269 0
-120 -270 0
-118 -121 -271 0
-119 -122 -272 0
-120 -123 -273 0
-118 -124 -274 0
-119 -125 -275 0
-120 -126 -276 0
-118 -127 -277 0
-119 -128 -278 0
-120 -129 -279 0
-118 -130 -280 0
-119 -131 -281 0
-120 -132 -282 0
-118 -133 -283 0
-119 -134 -284 0
-120 -135 -285 0
-118 -136 -286 0
-119 -137 -287 0
-120 -138 -288 0
-118 -139 -289 0
-119 -140 -290 0
-120 -141 -291 0
-118 -142 -292 0
-119 -143 -293 0
-120 -144 -294 0
-118 -145 -295 0
-119 -146 -296 0
-120 -147 -297 0
-118 -148 -298 0
-119 -149 -299 0
-120 -150 -300 0
-118 -151 -301 0
-119 -152 -302 0
-120 -153 -303 0
-118 -154 -304 0
-119 -155 -305 0
-120 -156 -306 0
-118 -157 -307 0
-119 -158 -308 0
-120 -159 -309 0
-118 -160 -310 0
-119 -161 -311 0
-120 -162 -312 0
-118 -163 -313 0
-119 -164 -314 0
-120 -165 -315 0
-118 -166 -316 0
-119 -167 -317 0
-120 -168 -318 0
-118 -169 -319 0
-119 -170 -320 0
-120 -171 -321 0
-118 -172 -322 0
-119 -173 -323 0
-120 -174 -324 0
-118 -175 -325 0
-119 -176 -326 0
-120 -177 -327 0
-118 -178 -328 0
-119 -179 -329 0
-120 -180 -330 0
-118 -181 -331 0
-119 -182 -332 0
-120 -183 -333 0
-118 -184 -334 0
-119 -185 -335 0
-120 -186 -336 0
-118 -187 -337 0
-119 -188 -338 0
-120 -189 -339 0
-118 -190 -340 0
-119 -191 -341 0
-120 -192 -342 0
-118 -193 -343 0
-119 -194 -344 0
-120 -195 -345 0
-118 -196 -346 0
-119 -197 -347 0
-120 -198 -348 0
-118 -199 -349 0
-119 -200 -350 0
-120 -201 -351 0
-118 -202 -352 0
-119 -203 -353 0
-120 -204 -354 0
-118 -205 -355 0
-119 -206 -356 0
-120 -207 -357 0
-118 -208 -358 0
-119 -209 -359 0
-120 -210 -360 0
-118 -211 -361 0
-119 -212 -362 0
-120 -213 -363 0
-118 -214 -364 0
-119 -215 -365 0
-120 -216 -366 0
-118 -217 -367 0
-119 -218 -368 0
-120 -219 -369 0
-118 -220 -370 0
-119 -221 -371 0
-120 -222 -372 0
-118 -223 -373 0
-119 -224 -374 0
-120 -225 -375 0
-118 -226 -376 0
-119 -227 -377 0
-120 -228 -378 0
-118 -229 -379 0
-119 -230 -380 0
-120 -231 -381 0
-118 -232 -382 0
-119 -233 -383 0
-120 -234 -384 0
-118 -235 -385 0
-119 -236 -386 0
-120 -237 -387 0
-118 -238 -388 0
-119 -239 -389 0
-120 -240 -390 0
-118 -241 -391 0
-119 -242 -392 0
-120 -243 -393 0
-118 -244 -394 0
-119 -245 -395 0
-120 -246 -396 0
-118 -247 -397 0
-119 -248 -398 0
-120 -249 -399 0
-118 -250 -400 0
-119 -251 -401 0
-120 -252 -402 0
-118 -253 -403 0
-119 -254 -404 0
-120 -255 -405 0
-118 -256 -406 0
-119 -257 -407 0
-120 -258 -408 0
-118 -259 -409 0
-119 -260 -410 0
-120 -261 -411 0
-118 -262 -412 0
-119 -263 -413 0
-120 -264 -414 0
-118 -265 -415 0
-119 -266 -416 0
-120 -267 -417 0
-118 -268 -418 0
-119 -269 -419 0
-120 -270 -420 0
-118 -271 -421 0
-119 -272 -422 0
-120 -273 -423 0
-118 -274 -424 0
-119 -275 -425 0
-120 -276 -426 0
-118 -277 -427 0
-119 -278 -428 0
-120 -279 -429 0
-118 -280 -430 0
-119 -281 -431 0
-120 -282 -432 0
-118 -283 -433 0
-119 -284 -434 0
-120 -285 -435 0
-118 -286 -436 0
-119 -287 -437 0
-120 -288 -438 0
-118 -289 -439 0
-119 -290 -440 0
-120 -291 -441 0
-118 -292 -442 0
-119 -293 -443 0
-120 -294 -444 0
-118 -295 -445 0
-119 -296 -446 0
-120 -297 -447 0
-118 -298 -448 0
-119 -299 -449 0
-120 -300 -450 0
-118 -301 -451 0
-119 -302 -452 0
-120 -303 -453 0
-118 -304 -454 0
-119 -305 -455 0
-120 -306 -456 0
-118 -307 -457 0
-119 -308 -458 0
-120 -309 -459 0
-118 -310 -460 0
-119 -311 -461 0
-120 -312 -462 0
-118 -313 -463 0
-119 -314 -464 0
-120 -315 -465 0
-118 -316 -466 0
-119 -317 -467 0
-120 -318 -468 0
-118 -319 -469 0
-119 -320 -470 0
-120 -321 -471 0
-118 -322 -472 0
-119 -323 -473 0
-120 -324 -474 0
-118 -325 -475 0
-119 -326 -476 0
-120 -327 -477 0
-118 -328 -478 0
-119 -329 -479 0
-120 -330 -480 0
-118 -331 -481 0
-119 -332 -482 0
-120 -333 -483 0
-118 -334 -484 0
-119 -335 -485 0
-120 -336 -486 0
-118 -337 -487 0
-119 -338 -488 0
-120 -339 -489 0
-118 -340 -490 0
-119 -341 -491 0
-120 -342 -492 0
-118 -343 -493 0
-119 -344 -494 0
-120 -345 -495 0
-118 -346 -496 0
-119 -347 -497 0
-120 -348 -498 0
-118 -349 -499 0
-119 -350 -500 0
-120 -351 -501 0
-118 -352 -502 0
-119 -353 -503 0
-120 -354 -504 0
-118 -355 -505 0
-119 -356 -506 0
-120 -357 -507 0
-118 -358 -508 0
-119 -359 -509 0
-120 -360 -510 0
-118 -361 -511 0
-119 -362 -512 0
-120 -363 -513 0
-118 -364 -514 0
-119 -365 -515 0
-120 -366 -516 0
-118 -367 -517 0
-119 -368 -518 0
-120 -369 -519 0
-118 -370 -520 0
-119 -371 -521 0
-120 -372 -522 0
-118 -373 -523 0
-119 -374 -524 0
-120 -375 -525 0
-118 -376 -526 0
-119 -377 -527 0
-120 -378 -528 0
-118 -379 -529 0
-119 -380 -530 0
-120 -381 -531 0
-118 -382 -532 0
-119 -383 -533 0
-120 -384 -534 0
-118 -385 -535 0
-119 -386 -536 0
-120 -387 -537 0
-118 -388 -538 0
-119 -389 -539 0
-120 -390 -540 0
-1 -130 -166 0
-2 -131 -167 0
-3 -132 -168 0
-4 -130 -169 0
-5 -131 -170 0
-6 -132 -171 0
-7 -130 -172 0
-8 -131 -173 0
-9 -132 -174 0
-10 -130 -175 0
-11 -131 -176 0
-12 -132 -177 0
-13 -130 -178 0
-14 -131 -179 0
-15 -132 -180 0
-16 -130 -181 0
-17 -131 -182 0
-18 -132 -183 0
-19 -130 -184 0
-20 -131 -185 0
-21 -132 -186 0
-22 -130 -187 0
-23 -131 -188 0
-24 -132 -189 0
-25 -130 -190 0
-26 -131 -191 0
-27 -132 -192 0
-28 -130 -193 0
-29 -131 -194 0
-30 -132 -195 0
-31 -130 -196 0
-32 -131 -197 0
-33 -132 -198 0
-34 -130 -199 0
-35 -131 -200 0
-36 -132 -201 0
-37 -130 -202 0
-38 -131 -203 0
-39 -132 -204 0
-40 -130 -205 0
-41 -131 -206 0
-42 -132 -207 0
-43 -130 -208 0
-44 -131 -209 0
-45 -132 -210 0
-46 -130 -211 0
-47 -131 -212 0
-48 -132 -213 0
-49 -130 -214 0
-50 -131 -215 0
-51 -132 -216 0
-52 -130 -217 0
-53 -131 -218 0
-54 -132 -219 0
-55 -130 -220 0
-56 -131 -221 0
-57 -132 -222 0
-58 -130 -223 0
-59 -131 -224 0
-60 -132 -225 0
-61 -130 -226 0
-62 -131 -227 0
-63 -132 -228 0
-64 -130 -229 0
-65 -131 -230 0
-66 -132 -231 0
-67 -130 -232 0
-68 -131 -233 0
-69 -132 -234 0
-70 -130 -235 0
-71 -131 -236 0
-72 -132 -237 0
-73 -130 -238 0
-74 -131 -239 0
-75 -132 -240 0
-76 -130 -241 0
-77 -131 -242 0
-78 -132 -243 0
-79 -130 -244 0
-80 -131 -245 0
-81 -132 -246 0
-82 -130 -247 0
-83 -131 -248 0
-84 -132 -249 0
-85 -130 -250 0
-86 -131 -251 0
-87 -132 -252 0
-88 -130 -253 0
-89 -131 -254 0
-90 -132 -255 0
-91 -130 -256 0
-92 -131 -257 0
-93 -132 -258 0
-94 -130 -259 0
-95 -131 -260 0
-96 -132 -261 0
-97 -130 -262 0
-98 -131 -263 0
-99 -132 -264 0
-100 -130 -265 0
-101 -131 -266 0
-102 -132 -267 0
-103 -130 -268 0
-104 -131 -269 0
-105 -132 -270 0
-106 -130 -271 0
-107 -131 -272 0
-108 -132 -273 0
-109 -130 -274 0
-110 -131 -275 0
-111 -132 -276 0
-112 -130 -277 0
-113 -131 -278 0
-114 -132 -279 0
-115 -130 -280 0
-116 -131 -281 0
-117 -132 -282 0
-118 -130 -283 0
-119 -131 -284 0
-120 -132 -285 0
-121 -130 -286 0
-122 -131 -287 0
-123 -132 -288 0
-124 -130 -289 0
-125 -131 -290 0
-126 -132 -291 0
-127 -130 -292 0
-128 -131 -293 0
-129 -132 -294 0
-130 -295 0
-131 -296 0
-132 -297 0
-130 -133 -298 0
-131 -134 -299 0
-132 -135 -300 0
-130 -136 -301 0
-131 -137 -302 0
-132 -138 -303 0
-130 -139 -304 0
-131 -140 -305 0
-132 -141 -306 0
-130 -142 -307 0
-131 -143 -308 0
-132 -144 -309 0
-130 -145 -310 0
-131 -146 -311 0
-132 -147 -312 0
-130 -148 -313 0
-131 -149 -314 0
-132 -150 -315 0
-130 -151 -316 0
-131 -152 -317 0
-132 -153 -318 0
-130 -154 -319 0
-131 -155 -320 0
-132 -156 -321 0
-130 -157 -322 0
-131 -158 -323 0
-132 -159 -324 0
-130 -160 -325 0
-131 -161 -326 0
-132 -162 -327 0
-130 -163 -328 0
-131 -164 -329 0
-132 -165 -330 0
-130 -166 -331 0
-131 -167 -332 0
-132 -168 -333 0
-130 -169 -334 0
-131 -170 -335 0
-132 -171 -336 0
-130 -172 -337 0
-131 -173 -338 0
-132 -174 -339 0
-130 -175 -340 0
-131 -176 -341 0
-132 -177 -342 0
-130 -178 -343 0
-131 -179 -344 0
-132 -180 -345 0
-130 -181 -346 0
-131 -182 -347 0
-132 -183 -348 0
-130 -184 -349 0
-131 -185 -350 0
-132 -186 -351 0
-130 -187 -352 0
-131 -188 -353 0
-132 -189 -354 0
-130 -190 -355 0
-131 -191 -356 0
-132 -192 -357 0
-130 -193 -358 0
-131 -194 -359 0
-132 -195 -360 0
-130 -196 -361 0
-131 -197 -362 0
-132 -198 -363 0
-130 -199 -364 0
-131 -200 -365 0
-132 -201 -366 0
-130 -202 -367 0
-131 -203 -368 0
-132 -204 -369 0
-130 -205 -370 0
-131 -206 -371 0
-132 -207 -372 0
-130 -208 -373 0
-131 -209 -374 0
-132 -210 -375 0
-130 -211 -376 0
-131 -212 -377 0
-132 -213 -378 0
-130 -214 -379 0
-131 -215 -380 0
-132 -216 -381 0
-130 -217 -382 0
-131 -218 -383 0
-132 -219 -384 0
-130 -220 -385 0
-131 -221 -386 0
-132 -222 -387 0
-130 -223 -388 0
-131 -224 -389 0
-132 -225 -390 0
-130 -226 -391 0
-131 -227 -392 0
-132 -228 -393 0
-130 -229 -394 0
-131 -230 -395 0
-132 -231 -396 0
-130 -232 -397 0
-131 -233 -398 0
-132 -234 -399 0
-130 -235 -400 0
-131 -236 -401 0
-132 -237 -402 0
-130 -238 -403 0
-131 -239 -404 0
-132 -240 -405 0
-130 -241 -406 0
-131 -242 -407 0
-132 -243 -408 0
-130 -244 -409 0
-131 -245 -410 0
-132 -246 -411 0
-130 -247 -412 0
-131 -248 -413 0
-132 -249 -414 0
-130 -250 -415 0
-131 -251 -416 0
-132 -252 -417 0
-130 -253 -418 0
-131 -254 -419 0
-132 -255 -420 0
-130 -256 -421 0
-131 -257 -422 0
-132 -258 -423 0
-130 -259 -424 0
-131 -260 -425 0
-132 -261 -426 0
-130 -262 -427 0
-131 -263 -428 0
-132 -264 -429 0
-130 -265 -430 0
-131 -266 -431 0
-132 -267 -432 0
-130 -268 -433 0
-131 -269 -434 0
-132 -270 -435 0
-130 -271 -436 0
-131 -272 -437 0
-132 -273 -438 0
-130 -274 -439 0
-131 -275 -440 0
-132 -276 -441 0
-130 -277 -442 0
-131 -278 -443 0
-132 -279 -444 0
-130 -280 -445 0
-131 -281 -446 0
-132 -282 -447 0
-130 -283 -448 0
-131 -284 -449 0
-132 -285 -450 0
-130 -286 -451 0
-131 -287 -452 0
-132 -288 -453 0
-130 -289 -454 0
-131 -290 -455 0
-132 -291 -456 0
-130 -292 -457 0
-131 -293 -458 0
-132 -294 -459 0
-130 -295 -460 0
-131 -296 -461 0
-132 -297 -462 0
-130 -298 -463 0
-131 -299 -464 0
-132 -300 -465 0
-130 -301 -466 0
-131 -302 -467 0
-132 -303 -468 0
-130 -304 -469 0
-131 -305 -470 0
-132 -306 -471 0
-130 -307 -472 0
-131 -308 -473 0
-132 -309 -474 0
-130 -310 -475 0
-131 -311 -476 0
-132 -312 -477 0
-130 -313 -478 0
-131 -314 -479 0
-132 -315 -480 0
-130 -316 -481 0
-131 -317 -482 0
-132 -318 -483 0
-130 -319 -484 0
-131 -320 -485 0
-132 -321 -486 0
-130 -322 -487 0
-131 -323 -488 0
-132 -324 -489 0
-130 -325 -490 0
-131 -326 -491 0
-132 -327 -492 0
-130 -328 -493 0
-131 -329 -494 0
-132 -330 -495 0
-130 -331 -496 0
-131 -332 -497 0
-132 -333 -498 0
-130 -334 -499 0
-131 -335 -500 0
-132 -336 -501 0
-130 -337 -502 0
-131 -338 -503 0
-132 -339 -504 0
-130 -340 -505 0
-131 -341 -506 0
-132 -342 -507 0
-130 -343 -508 0
-131 -344 -509 0
-132 -345 -510 0
-130 -346 -511 0
-131 -347 -512 0
-132 -348 -513 0
-130 -349 -514 0
-131 -350 -515 0
-132 -351 -516 0
-130 -352 -517 0
-131 -353 -518 0
-132 -354 -519 0
-130 -355 -520 0
-131 -356 -521 0
-132 -357 -522 0
-130 -358 -523 0
-131 -359 -524 0
-132 -360 -525 0
-130 -361 -526 0
-131 -362 -527 0
-132 -363 -528 0
-130 -364 -529 0
-131 -365 -530 0
-132 -366 -531 0
-130 -367 -532 0
-131 -368 -533 0
-132 -369 -534 0
-130 -370 -535 0
-131 -371 -536 0
-132 -372 -537 0
-130 -373 -538 0
-131 -374 -539 0
-132 -375 -540 0
-1 -142 -181 0
-2 -143 -182 0
-3 -144 -183 0
-4 -142 -184 0
-5 -143 -185 0
-6 -144 -186 0
-7 -142 -187 0
-8 -143 -188 0
-9 -144 -189 0
-10 -142 -190 0
-11 -143 -191 0
-12 -144 -192 0
-13 -142 -193 0
-14 -143 -194 0
-15 -144 -195 0
-16 -142 -196 0
-17 -143 -197 0
-18 -144 -198 0
-19 -142 -199 0
-20 -143 -200 0
-21 -144 -201 0
-22 -142 -202 0
-23 -143 -203 0
-24 -144 -204 0
-25 -142 -205 0
-26 -143 -206 0
-27 -144 -207 0
-28 -142 -208 0
-29 -143 -209 0
-30 -144 -210 0
-31 -142 -211 0
-32 -143 -212 0
-33 -144 -213 0
-34 -142 -214 0
-35 -143 -215 0
-36 -144 -216 0
-37 -142 -217 0
-38 -143 -218 0
-39 -144 -219 0
-40 -142 -220 0
-41 -143 -221 0
-42 -144 -222 0
-43 -142 -223 0
-44 -143 -224 0
-45 -144 -225 0
-46 -142 -226 0
-47 -143 -227 0
-48 -144 -228 0
-49 -142 -229 0
-50 -143 -230 0
-51 -144 -231 0
-52 -142 -232 0
-53 -143 -233 0
-54 -144 -234 0
-55 -142 -235 0
-56 -143 -236 0
-57 -144 -237 0
-58 -142 -238 0
-59 -143 -239 0
-60 -144 -240 0
-61 -142 -241 0
-62 -143 -242 0
-63 -144 -243 0
-64 -142 -244 0
-65 -143 -245 0
-66 -144 -246 0
-67 -142 -247 0
-68 -143 -248 0
-69 -144 -249 0
-70 -142 -250 0
-71 -143 -251 0
-72 -144 -252 0
-73 -142 -253 0
-74 -143 -254 0
-75 -144 -255 0
-76 -142 -256 0
-77 -143 -257 0
-78 -144 -258 0
-79 -142 -259 0
-80 -143 -260 0
-81 -144 -261 0
-82 -142 -262 0
-83 -143 -263 0
-84 -144 -264 0
-85 -142 -265 0
-86 -143 -266 0
-87 -144 -267 0
-88 -142 -268 0
-89 -143 -269 0
-90 -144 -270 0
-91 -142 -271 0
-92 -143 -272 0
-93 -144 -273 0
-94 -142 -274 0
-95 -143 -275 0
-96 -144 -276 0
-97 -142 -277 0
-98 -143 -278 0
-99 -144 -279 0
-100 -142 -280 0
-101 -143 -281 0
-102 -144 -282 0
-103 -142 -283 0
-104 -143 -284 0
-105 -144 -285 0
-106 -142 -286 0
-107 -143 -287 0
-108 -144 -288 0
-109 -142 -289 0
-110 -143 -290 0
-111 -144 -291 0
-112 -142 -292 0
-113 -143 -293 0
-114 -144 -294 0
-115 -142 -295 0
-116 -143 -296 0
-117 -144 -297 0
-118 -142 -298 0
-119 -143 -299 0
-120 -144 -300 0
-121 -142 -301 0
-122 -143 -302 0
-123 -144 -303 0
-124 -142 -304 0
-125 -143 -305 0
-126 -144 -306 0
-127 -142 -307 0
-128 -143 -308 0
-129 -144 -309 0
-130 -142 -310 0
-131 -143 -311 0
-132 -144 -312 0
-133 -142 -313 0
-134 -143 -314 0
-135 -144 -315 0
-136 -142 -316 0
-137 -143 -317 0
-138 -144 -318 0
-139 -142 -319 0
-140 -143 -320 0
-141 -144 -321 0
-142 -322 0
-143 -323 0
-144 -324 0
-142 -145 -325 0
-143 -146 -326 0
-144 -147 -327 0
-142 -148 -328 0
-143 -149 -329 0
-144 -150 -330 0
-142 -151 -331 0
-143 -152 -332 0
-144 -153 -333 0
-142 -154 -334 0
-143 -155 -335 0
-144 -156 -336 0
-142 -157 -337 0
-143 -158 -338 0
-144 -159 -339 0
-142 -160 -340 0
-143 -161 -341 0
-144 -162 -342 0
-142 -163 -343 0
-143 -164 -344 0
-144 -165 -345 0
-142 -166 -346 0
-143 -167 -347 0
-144 -168 -348 0
-142 -169 -349 0
-143 -170 -350 0
-144 -171 -351 0
-142 -172 -352 0
-143 -173 -353 0
-144 -174 -354 0
-142 -175 -355 0
-143 -176 -356 0
-144 -177 -357 0
-142 -178 -358 0
-143 -179 -359 0
-144 -180 -360 0
-142 -181 -361 0
-143 -182 -362 0
-144 -183 -363 0
-142 -184 -364 0
-143 -185 -365 0
-144 -186 -366 0
-142 -187 -367 0
-143 -188 -368 0
-144 -189 -369 0
-142 -190 -370 0
-143 -191 -371 0
-144 -192 -372 0
-142 -193 -373 0
-143 -194 -374 0
-144 -195 -375 0
-142 -196 -376 0
-143 -197 -377 0
-144 -198 -378 0
-142 -199 -379 0
-143 -200 -380 0
-144 -201 -381 0
-142 -202 -382 0
-143 -203 -383 0
-144 -204 -384 0
-142 -205 -385 0
-143 -206 -386 0
-144 -207 -387 0
-142 -208 -388 0
-143 -209 -389 0
-144 -210 -390 0
-142 -211 -391 0
-143 -212 -392 0
-144 -213 -393 0
-142 -214 -394 0
-143 -215 -395 0
-144 -216 -396 0
-142 -217 -397 0
-143 -218 -398 0
-144 -219 -399 0
-142 -220 -400 0
-143 -221 -401 0
-144 -222 -402 0
-142 -223 -403 0
-143 -224 -404 0
-144 -225 -405 0
-142 -226 -406 0
-143 -227 -407 0
-144 -228 -408 0
-142 -229 -409 0
-143 -230 -410 0
-144 -231 -411 0
-142 -232 -412 0
-143 -233 -413 0
-144 -234 -414 0
-142 -235 -415 0
-143 -236 -416 0
-144 -237 -417 0
-142 -238 -418 0
-143 -239 -419 0
-144 -240 -420 0
-142 -241 -421 0
-143 -242 -422 0
-144 -243 -423 0
-142 -244 -424 0
-143 -245 -425 0
-144 -246 -426 0
-142 -247 -427 0
-143 -248 -428 0
-144 -249 -429 0
-142 -250 -430 0
-143 -251 -431 0
-144 -252 -432 0
-142 -253 -433 0
-143 -254 -434 0
-144 -255 -435 0
-142 -256 -436 0
-143 -257 -437 0
-144 -258 -438 0
-142 -259 -439 0
-143 -260 -440 0
-144 -261 -441 0
-142 -262 -442 0
-143 -263 -443 0
-144 -264 -444 0
-142 -265 -445 0
-143 -266 -446 0
-144 -267 -447 0
-142 -268 -448 0
-143 -269 -449 0
-144 -270 -450 0
-142 -271 -451 0
-143 -272 -452 0
-144 -273 -453 0
-142 -274 -454 0
-143 -275 -455 0
-144 -276 -456 0
-142 -277 -457 0
-143 -278 -458 0
-144 -279 -459 0
-142 -280 -460 0
-143 -281 -461 0
-144 -282 -462 0
-142 -283 -463 0
-143 -284 -464 0
-144 -285 -465 0
-142 -286 -466 0
-143 -287 -467 0
-144 -288 -468 0
-142 -289 -469 0
-143 -290 -470 0
-144 -291 -471 0
-142 -292 -472 0
-143 -293 -473 0
-144 -294 -474 0
-142 -295 -475 0
-143 -296 -476 0
-144 -297 -477 0
-142 -298 -478 0
-143 -299 -479 0
-144 -300 -480 0
-142 -301 -481 0
-143 -302 -482 0
-144 -303 -483 0
-142 -304 -484 0
-143 -305 -485 0
-144 -306 -486 0
-142 -307 -487 0
-143 -308 -488 0
-144 -309 -489 0
-142 -310 -490 0
-143 -311 -491 0
-144 -312 -492 0
-142 -313 -493 0
-143 -314 -494 0
-144 -315 -495 0
-142 -316 -496 0
-143 -317 -497 0
-144 -318 -498 0
-142 -319 -499 0
-143 -320 -500 0
-144 -321 -501 0
-142 -322 -502 0
-143 -323 -503 0
-144 -324 -504 0
-142 -325 -505 0
-143 -326 -506 0
-144 -327 -507 0
-142 -328 -508 0
-143 -329 -509 0
-144 -330 -510 0
-142 -331 -511 0
-143 -332 -512 0
-144 -333 -513 0
-142 -334 -514 0
-143 -335 -515 0
-144 -336 -516 0
-142 -337 -517 0
-143 -338 -518 0
-144 -339 -519 0
-142 -340 -520 0
-143 -341 -521 0
-144 -342 -522 0
-142 -343 -523 0
-143 -344 -524 0
-144 -345 -525 0
-142 -346 -526 0
-143 -347 -527 0
-144 -348 -528 0
-142 -349 -529 0
-143 -350 -530 0
-144 -351 -531 0
-142 -352 -532 0
-143 -353 -533 0
-144 -354 -534 0
-142 -355 -535 0
-143 -356 -536 0
-144 -357 -537 0
-142 -358 -538 0
-143 -359 -539 0
-144 -360 -540 0
-1 -154 -196 0
-2 -155 -197 0
-3 -156 -198 0
-4 -154 -199 0
-5 -155 -200 0
-6 -156 -201 0
-7 -154 -202 0
-8 -155 -203 0
-9 -156 -204 0
-10 -154 -205 0
-11 -155 -206 0
-12 -156 -207 0
-13 -154 -208 0
-14 -155 -209 0
-15 -156 -210 0
-16 -154 -211 0
-17 -155 -212 0
-18 -156 -213 0
-19 -154 -214 0
-20 -155 -215 0
-21 -156 -216 0
-22 -154 -217 0
-23 -155 -218 0
-24 -156 -219 0
-25 -154 -220 0
-26 -155 -221 0
-27 -156 -222 0
-28 -154 -223 0
-29 -155 -224 0
-30 -156 -225 0
-31 -154 -226 0
-32 -155 -227 0
-33 -156 -228 0
-34 -154 -229 0
-35 -155 -230 0
-36 -156 -231 0
-37 -154 -232 0
-38 -155 -233 0
-39 -156 -234 0
-40 -154 -235 0
-41 -155 -236 0
-42 -156 -237 0
-43 -154 -238 0
-44 -155 -239 0
-45 -156 -240 0
-46 -154 -241 0
-47 -155 -242 0
-48 -156 -243 0
-49 -154 -244 0
-50 -155 -245 0
-51 -156 -246 0
-52 -154 -247 0
-53 -155 -248 0
-54 -156 -249 0
-55 -154 -250 0
-56 -155 -251 0
-57 -156 -252 0
-58 -154 -253 0
-59 -155 -254 0
-60 -156 -255 0
-61 -154 -256 0
-62 -155 -257 0
-63 -156 -258 0
-64 -154 -259 0
-65 -155 -260 0
-66 -156 -261 0
-67 -154 -262 0
-68 -155 -263 0
-69 -156 -264 0
-70 -154 -265 0
-71 -155 -266 0
-72 -156 -267 0
-73 -154 -268 0
-74 -155 -269 0
-75 -156 -270 0
-76 -154 -271 0
-77 -155 -272 0
-78 -156 -273 0
-79 -154 -274 0
-80 -155 -275 0
-81 -156 -276 0
-82 -154 -277 0
-83 -155 -278 0
-84 -156 -279 0
-85 -154 -280 0
-86 -155 -281 0
-87 -156 -282 0
-88 -154 -283 0
-89 -155 -284 0
-90 -156 -285 0
-91 -154 -286 0
-92 -155 -287 0
-93 -156 -288 0
-94 -154 -289 0
-95 -155 -290 0
-96 -156 -291 0
-97 -154 -292 0
-98 -155 -293 0
-99 -156 -294 0
-100 -154 -295 0
-101 -155 -296 0
-102 -156 -297 0
-103 -154 -298 0
-104 -155 -299 0
-105 -156 -300 0
-106 -154 -301 0
-107 -155 -302 0
-108 -156 -303 0
-109 -154 -304 0
-110 -155 -305 0
-111 -156 -306 0
-112 -154 -307 0
-113 -155 -308 0
-114 -156 -309 0
-115 -154 -310 0
-116 -155 -311 0
-117 -156 -312 0
-118 -154 -313 0
-119 -155 -314 0
-120 -156 -315 0
-121 -154 -316 0
-122 -155 -317 0
-123 -156 -318 0
-124 -154 -319 0
-125 -155 -320 0
-126 -156 -321 0
-127 -154 -322 0
-128 -155 -323 0
-129 -156 -324 0
-130 -154 -325 0
-131 -155 -326 0
-132 -156 -327 0
-133 -154 -328 0
-134 -155 -329 0
-135 -156 -330 0
-136 -154 -331 0
-137 -155 -332 0
-138 -156 -333 0
-139 -154 -334 0
-140 -155 -335 0
-141 -156 -336 0
-142 -154 -337 0
-143 -155 -338 0
-144 -156 -339 0
-145 -154 -340 0
-146 -155 -341 0
-147 -156 -342 0
-148 -154 -343 0
-149 -155 -344 0
-150 -156 -345 0
-151 -154 -346 0
-152 -155 -347 0
-153 -156 -348 0
-154 -349 0
-155 -350 0
-156 -351 0
-154 -157 -352 0
-155 -158 -353 0
-156 -159 -354 0
-154 -160 -355 0
-155 -161 -356 0
-156 -162 -357 0
-154 -163 -358 0
-155 -164 -359 0
-156 -165 -360 0
-154 -166 -361 0
-155 -167 -362 0
-156 -168 -363 0
-154 -169 -364 0
-155 -170 -365 0
-156 -171 -366 0
-154 -172 -367 0
-155 -173 -368 0
-156 -174 -369 0
-154 -175 -370 0
-155 -176 -371 0
-156 -177 -372 0
-154 -178 -373 0
-155 -179 -374 0
-156 -180 -375 0
-154 -181 -376 0
-155 -182 -377 0
-156 -183 -378 0
-154 -184 -379 0
-155 -185 -380 0
-156 -186 -381 0
-154 -187 -382 0
-155 -188 -383 0
-156 -189 -384 0
-154 -190 -385 0
-155 -191 -386 0
-156 -192 -387 0
-154 -193 -388 0
-155 -194 -389 0
-156 -195 -390 0
-154 -196 -391 0
-155 -197 -392 0
-156 -198 -393 0
-154 -199 -394 0
-155 -200 -395 0
-156 -201 -396 0
-154 -202 -397 0
-155 -203 -398 0
-156 -204 -399 0
-154 -205 -400 0
-155 -206 -401 0
-156 -207 -402 0
-154 -208 -403 0
-155 -209 -404 0
-156 -210 -405 0
-154 -211 -406 0
-155 -212 -407 0
-156 -213 -408 0
-154 -214 -409 0
-155 -215 -410 0
-156 -216 -411 0
-154 -217 -412 0
-155 -218 -413 0
-156 -219 -414 0
-154 -220 -415 0
-155 -221 -416 0
-156 -222 -417 0
-154 -223 -418 0
-155 -224 -419 0
-156 -225 -420 0
-154 -226 -421 0
-155 -227 -422 0
-156 -228 -423 0
-154 -229 -424 0
-155 -230 -425 0
-156 -231 -426 0
-154 -232 -427 0
-155 -233 -428 0
-156 -234 -429 0
-154 -235 -430 0
-155 -236 -431 0
-156 -237 -432 0
-154 -238 -433 0
-155 -239 -434 0
-156 -240 -435 0
-154 -241 -436 0
-155 -242 -437 0
-156 -243 -438 0
-154 -244 -439 0
-155 -245 -440 0
-156 -246 -441 0
-154 -247 -442 0
-155 -248 -443 0
-156 -249 -444 0
-154 -250 -445 0
-155 -251 -446 0
-156 -252 -447 0
-154 -253 -448 0
-155 -254 -449 0
-156 -255 -450 0
-154 -256 -451 0
-155 -257 -452 0
-156 -258 -453 0
-154 -259 -454 0
-155 -260 -455 0
-156 -261 -456 0
-154 -262 -457 0
-155 -263 -458 0
-156 -264 -459 0
-154 -265 -460 0
-155 -266 -461 0
-156 -267 -462 0
-154 -268 -463 0
-155 -269 -464 0
-156 -270 -465 0
-154 -271 -466 0
-155 -272 -467 0
-156 -273 -468 0
-154 -274 -469 0
-155 -275 -470 0
-156 -276 -471 0
-154 -277 -472 0
-155 -278 -473 0
-156 -279 -474 0
-154 -280 -475 0
-155 -281 -476 0
-156 -282 -477 0
-154 -283 -478 0
-155 -284 -479 0
-156 -285 -480 0
-154 -286 -481 0
-155 -287 -482 0
-156 -288 -483 0
-154 -289 -484 0
-155 -290 -485 0
-156 -291 -486 0
-154 -292 -487 0
-155 -293 -488 0
-156 -294 -489 0
-154 -295 -490 0
-155 -296 -491 0
-156 -297 -492 0
-154 -298 -493 0
-155 -299 -494 0
-156 -300 -495 0
-154 -301 -496 0
-155 -302 -497 0
-156 -303 -498 0
-154 -304 -499 0
-155 -305 -500 0
-156 -306 -501 0
-154 -307 -502 0
-155 -308 -503 0
-156 -309 -504 0
-154 -310 -505 0
-155 -311 -506 0
-156 -312 -507 0
-154 -313 -508 0
-155 -314 -509 0
-156 -315 -510 0
-154 -316 -511 0
-155 -317 -512 0
-156 -318 -513 0
-154 -319 -514 0
-155 -320 -515 0
-156 -321 -516 0
-154 -322 -517 0
-155 -323 -518 0
-156 -324 -519 0
-154 -325 -520 0
-155 -326 -521 0
-156 -327 -522 0
-154 -328 -523 0
-155 -329 -524 0
-156 -330 -525 0
-154 -331 -526 0
-155 -332 -527 0
-156 -333 -528 0
-154 -334 -529 0
-155 -335 -530 0
-156 -336 -531 0
-154 -337 -532 0
-155 -338 -533 0
-156 -339 -534 0
-154 -340 -535 0
-155 -341 -536 0
-156 -342 -537 0
-154 -343 -538 0
-155 -344 -539 0
-156 -345 -540 0
-1 -166 -211 0
-2 -167 -212 0
-3 -168 -213 0
-4 -166 -214 0
-5 -167 -215 0
-6 -168 -216 0
-7 -166 -217 0
-8 -167 -218 0
-9 -168 -219 0
-10 -166 -220 0
-11 -167 -221 0
-12 -168 -222 0
-13 -166 -223 0
-14 -167 -224 0
-15 -168 -225 0
-16 -166 -226 0
-17 -167 -227 0
-18 -168 -228 0
-19 -166 -229 0
-20 -167 -230 0
-21 -168 -231 0
-22 -166 -232 0
-23 -167 -233 0
-24 -168 -234 0
-25 -166 -235 0
-26 -167 -236 0
-27 -168 -237 0
-28 -166 -238 0
-29 -167 -239 0
-30 -168 -240 0
-31 -166 -241 0
-32 -167 -242 0
-33 -168 -243 0
-34 -166 -244 0
-35 -167 -245 0
-36 -168 -246 0
-37 -166 -247 0
-38 -167 -248 0
-39 -168 -249 0
-40 -166 -250 0
-41 -167 -251 0
-42 -168 -252 0
-43 -166 -253 0
-44 -167 -254 0
-45 -168 -255 0
-46 -166 -256 0
-47 -167 -257 0
-48 -168 -258 0
-49 -166 -259 0
-50 -167 -260 0
-51 -168 -261 0
-52 -166 -262 0
-53 -167 -263 0
-54 -168 -264 0
-55 -166 -265 0
-56 -167 -266 0
-57 -168 -267 0
-58 -166 -268 0
-59 -167 -269 0
-60 -168 -270 0
-61 -166 -271 0
-62 -167 -272 0
-63 -168 -273 0
-64 -166 -274 0
-65 -167 -275 0
-66 -168 -276 0
-67 -166 -277 0
-68 -167 -278 0
-69 -168 -279 0
-70 -166 -280 0
-71 -167 -281 0
-72 -168 -282 0
-73 -166 -283 0
-74 -167 -284 0
-75 -168 -285 0
-76 -166 -286 0
-77 -167 -287 0
-78 -168 -288 0
-79 -166 -289 0
-80 -167 -290 0
-81 -168 -291 0
-82 -166 -292 0
-83 -167 -293 0
-84 -168 -294 0
-85 -166 -295 0
-86 -167 -296 0
-87 -168 -297 0
-88 -166 -298 0
-89 -167 -299 0
-90 -168 -300 0
-91 -166 -301 0
-92 -167 -302 0
-93 -168 -303 0
-94 -166 -304 0
-95 -167 -305 0
-96 -168 -306 0
-97 -166 -307 0
-98 -167 -308 0
-99 -168 -309 0
-100 -166 -310 0
-101 -167 -311 0
-102 -168 -312 0
-103 -166 -313 0
-104 -167 -314 0
-105 -168 -315 0
-106 -166 -316 0
-107 -167 -317 0
-108 -168 -318 0
-109 -166 -319 0
-110 -167 -320 0
-111 -168 -321 0
-112 -166 -322 0
-113 -167 -323 0
-114 -168 -324 0
-115 -166 -325 0
-116 -167 -326 0
-117 -168 -327 0
-118 -166 -328 0
-119 -167 -329 0
-120 -168 -330 0
-121 -166 -331 0
-122 -167 -332 0
-123 -168 -333 0
-124 -166 -334 0
-125 -167 -335 0
-126 -168 -336 0
-127 -166 -337 0
-128 -167 -338 0
-129 -168 -339 0
-130 -166 -340 0
-131 -167 -341 0
-132 -168 -342 0
-133 -166 -343 0
-134 -167 -344 0
-135 -168 -345 0
-136 -166 -346 0
-137 -167 -347 0
-138 -168 -348 0
-139 -166 -349 0
-140 -167 -350 0
-141 -168 -351 0
-142 -166 -352 0
-143 -167 -353 0
-144 -168 -354 0
-145 -166 -355 0
-146 -167 -356 0
-147 -168 -357 0
-148 -166 -358 0
-149 -167 -359 0
-150 -168 -360 0
-151 -166 -361 0
-152 -167 -362 0
-153 -168 -363 0
-154 -166 -364 0
-155 -167 -365 0
-156 -168 -366 0
-157 -166 -367 0
-158 -167 -368 0
-159 -168 -369 0
-160 -166 -370 0
-161 -167 -371 0
-162 -168 -372 0
-163 -166 -373 0
-164 -167 -374 0
-165 -168 -375 0
-166 -376 0
-167 -377 0
-168 -378 0
-166 -169 -379 0
-167 -170 -380 0
-168 -171 -381 0
-166 -172 -382 0
-167 -173 -383 0
-168 -174 -384 0
-166 -175 -385 0
-167 -176 -386 0
-168 -177 -387 0
-166 -178 -388 0
-167 -179 -389 0
-168 -180 -390 0
-166 -181 -391 0
-167 -182 -392 0
-168 -183 -393 0
-166 -184 -394 0
-167 -185 -395 0
-168 -186 -396 0
-166 -187 -397 0
-167 -188 -398 0
-168 -189 -399 0
-166 -190 -400 0
-167 -191 -401 0
-168 -192 -402 0
-166 -193 -403 0
-167 -194 -404 0
-168 -195 -405 0
-166 -196 -406 0
-167 -197 -407 0
-168 -198 -408 0
-166 -199 -409 0
-167 -200 -410 0
-168 -201 -411 0
-166 -202 -412 0
-167 -203 -413 0
-168 -204 -414 0
-166 -205 -415 0
-167 -206 -416 0
-168 -207 -417 0
-166 -208 -418 0
-167 -209 -419 0
-168 -210 -420 0
-166 -211 -421 0
-167 -212 -422 0
-168 -213 -423 0
-166 -214 -424 0
-167 -215 -425 0
-168 -216 -426 0
-166 -217 -427 0
-167 -218 -428 0
-168 -219 -429 0
-166 -220 -430 0
-167 -221 -431 0
-168 -222 -432 0
-166 -223 -433 0
-167 -224 -434 0
-168 -225 -435 0
-166 -226 -436 0
-167 -227 -437 0
-168 -228 -438 0
-166 -229 -439 0
-167 -230 -440 0
-168 -231 -441 0
-166 -232 -442 0
-167 -233 -443 0
-168 -234 -444 0
-166 -235 -445 0
-167 -236 -446 0
-168 -237 -447 0
-166 -238 -448 0
-167 -239 -449 0
-168 -240 -450 0
-166 -241 -451 0
-167 -242 -452 0
-168 -243 -453 0
-166 -244 -454 0
-167 -245 -455 0
-168 -246 -456 0
-166 -247 -457 0
-167 -248 -458 0
-168 -249 -459 0
-166 -250 -460 0
-167 -251 -461 0
-168 -252 -462 0
-166 -253 -463 0
-167 -254 -464 0
-168 -255 -465 0
-166 -256 -466 0
-167 -257 -467 0
-168 -258 -468 0
-166 -259 -469 0
-167 -260 -470 0
-168 -261 -471 0
-166 -262 -472 0
-167 -263 -473 0
-168 -264 -474 0
-166 -265 -475 0
-167 -266 -476 0
-168 -267 -477 0
-166 -268 -478 0
-167 -269 -479 0
-168 -270 -480 0
-166 -271 -481 0
-167 -272 -482 0
-168 -273 -483 0
-166 -274 -484 0
-167 -275 -485 0
-168 -276 -486 0
-166 -277 -487 0
-167 -278 -488 0
-168 -279 -489 0
-166 -280 -490 0
-167 -281 -491 0
-168 -282 -492 0
-166 -283 -493 0
-167 -284 -494 0
-168 -285 -495 0
-166 -286 -496 0
-167 -287 -497 0
-168 -288 -498 0
-166 -289 -499 0
-167 -290 -500 0
-168 -291 -501 0
-166 -292 -502 0
-167 -293 -503 0
-168 -294 -504 0
-166 -295 -505 0
-167 -296 -506 0
-168 -297 -507 0
-166 -298 -508 0
-167 -299 -509 0
-168 -300 -510 0
-166 -301 -511 0
-167 -302 -512 0
-168 -303 -513 0
-166 -304 -514 0
-167 -305 -515 0
-168 -306 -516 0
-166 -307 -517 0
-167 -308 -518 0
-168 -309 -519 0
-166 -310 -520 0
-167 -311 -521 0
-168 -312 -522 0
-166 -313 -523 0
-167 -314 -524 0
-168 -315 -525 0
-166 -316 -526 0
-167 -317 -527 0
-168 -318 -528 0
-166 -319 -529 0
-167 -320 -530 0
-168 -321 -531 0
-166 -322 -532 0
-167 -323 -533 0
-168 -324 -534 0
-166 -325 -535 0
-167 -326 -536 0
-168 -327 -537 0
-166 -328 -538 0
-167 -329 -539 0
-168 -330 -540 0
-1 -178 -226 0
-2 -179 -227 0
-3 -180 -228 0
-4 -178 -229 0
-5 -179 -230 0
-6 -180 -231 0
-7 -178 -232 0
-8 -179 -233 0
-9 -180 -234 0
-10 -178 -235 0
-11 -179 -236 0
-12 -180 -237 0
-13 -178 -238 0
-14 -179 -239 0
-15 -180 -240 0
-16 -178 -241 0
-17 -179 -242 0
-18 -180 -243 0
-19 -178 -244 0
-20 -179 -245 0
-21 -180 -246 0
-22 -178 -247 0
-23 -179 -248 0
-24 -180 -249 0
-25 -178 -250 0
-26 -179 -251 0
-27 -180 -252 0
-28 -178 -253 0
-29 -179 -254 0
-30 -180 -255 0
-31 -178 -256 0
-32 -179 -257 0
-33 -180 -258 0
-34 -178 -259 0
-35 -179 -260 0
-36 -180 -261 0
-37 -178 -262 0
-38 -179 -263 0
-39 -180 -264 0
-40 -178 -265 0
-41 -179 -266 0
-42 -180 -267 0
-43 -178 -268 0
-44 -179 -269 0
-45 -180 -270 0
-46 -178 -271 0
-47 -179 -272 0
-48 -180 -273 0
-49 -178 -274 0
-50 -179 -275 0
-51 -180 -276 0
-52 -178 -277 0
-53 -179 -278 0
-54 -180 -279 0
-55 -178 -280 0
-56 -179 -281 0
-57 -180 -282 0
-58 -178 -283 0
-59 -179 -284 0
-60 -180 -285 0
-61 -178 -286 0
-62 -179 -287 0
-63 -180 -288 0
-64 -178 -289 0
-65 -179 -290 0
-66 -180 -291 0
-67 -178 -292 0
-68 -179 -293 0
-69 -180 -294 0
-70 -178 -295 0
-71 -179 -296 0
-72 -180 -297 0
-73 -178 -298 0
-74 -179 -299 0
-75 -180 -300 0
-76 -178 -301 0
-77 -179 -302 0
-78 -180 -303 0
-79 -178 -304 0
-80 -179 -305 0
-81 -180 -306 0
-82 -178 -307 0
-83 -179 -308 0
-84 -180 -309 0
-85 -178 -310 0
-86 -179 -311 0
-87 -180 -312 0
-88 -178 -313 0
-89 -179 -314 0
-90 -180 -315 0
-91 -178 -316 0
-92 -179 -317 0
-93 -180 -318 0
-94 -178 -319 0
-95 -179 -320 0
-96 -180 -321 0
-97 -178 -322 0
-98 -179 -323 0
-99 -180 -324 0
-100 -178 -325 0
-101 -179 -326 0
-102 -180 -327 0
-103 -178 -328 0
-104 -179 -329 0
-105 -180 -330 0
-106 -178 -331 0
-107 -179 -332 0
-108 -180 -333 0
-109 -178 -334 0
-110 -179 -335 0
-111 -180 -336 0
-112 -178 -337 0
-113 -179 -338 0
-114 -180 -339 0
-115 -178 -340 0
-116 -179 -341 0
-117 -180 -342 0
-118 -178 -343 0
-119 -179 -344 0
-120 -180 -345 0
-121 -178 -346 0
-122 -179 -347 0
-123 -180 -348 0
-124 -178 -349 0
-125 -179 -350 0
-126 -180 -351 0
-127 -178 -352 0
-128 -179 -353 0
-129 -180 -354 0
-130 -178 -355 0
-131 -179 -356 0
-132 -180 -357 0
-133 -178 -358 0
-134 -179 -359 0
-135 -180 -360 0
-136 -178 -361 0
-137 -179 -362 0
-138 -180 -363 0
-139 -178 -364 0
-140 -179 -365 0
-141 -180 -366 0
-142 -178 -367 0
-143 -179 -368 0
-144 -180 -369 0
-145 -178 -370 0
-146 -179 -371 0
-147 -180 -372 0
-148 -178 -373 0
-149 -179 -374 0
-150 -180 -375 0
-151 -178 -376 0
-152 -179 -377 0
-153 -180 -378 0
-154 -178 -379 0
-155 -179 -380 0
-156 -180 -381 0
-157 -178 -382 0
-158 -179 -383 0
-159 -180 -384 0
-160 -178 -385 0
-161 -179 -386 0
-162 -180 -387 0
-163 -178 -388 0
-164 -179 -389 0
-165 -180 -390 0
-166 -178 -391 0
-167 -179 -392 0
-168 -180 -393 0
-169 -178 -394 0
-170 -179 -395 0
-171 -180 -396 0
-172 -178 -397 0
-173 -179 -398 0
-174 -180 -399 0
-175 -178 -400 0
-176 -179 -401 0
-177 -180 -402 0
-178 -403 0
-179 -404 0
-180 -405 0
-178 -181 -406 0
-179 -182 -407 0
-180 -183 -408 0
-178 -184 -409 0
-179 -185 -410 0
-180 -186 -411 0
-178 -187 -412 0
-179 -188 -413 0
-180 -189 -414 0
-178 -190 -415 0
-179 -191 -416 0
-180 -192 -417 0
-178 -193 -418 0
-179 -194 -419 0
-180 -195 -420 0
-178 -196 -421 0
-179 -197 -422 0
-180 -198 -423 0
-178 -199 -424 0
-179 -200 -425 0
-180 -201 -426 0
-178 -202 -427 0
-179 -203 -428 0
-180 -204 -429 0
-178 -205 -430 0
-179 -206 -431 0
-180 -207 -432 0
-178 -208 -433 0
-179 -209 -434 0
-180 -210 -435 0
-178 -211 -436 0
-179 -212 -437 0
-180 -213 -438 0
-178 -214 -439 0
-179 -215 -440 0
-180 -216 -441 0
-178 -217 -442 0
-179 -218 -443 0
-180 -219 -444 0
-178 -220 -445 0
-179 -221 -446 0
-180 -222 -447 0
-178 -223 -448 0
-179 -224 -449 0
-180 -225 -450 0
-178 -226 -451 0
-179 -227 -452 0
-180 -228 -453 0
-178 -229 -454 0
-179 -230 -455 0
-180 -231 -456 0
-178 -232 -457 0
-179 -233 -458 0
-180 -234 -459 0
-178 -235 -460 0
-179 -236 -461 0
-180 -237 -462 0
-178 -238 -463 0
-179 -239 -464 0
-180 -240 -465 0
-178 -241 -466 0
-179 -242 -467 0
-180 -243 -468 0
-178 -244 -469 0
-179 -245 -470 0
-180 -246 -471 0
-178 -247 -472 0
-179 -248 -473 0
-180 -249 -474 0
-178 -250 -475 0
-179 -251 -476 0
-180 -252 -477 0
-178 -253 -478 0
-179 -254 -479 0
-180 -255 -480 0
-178 -256 -481 0
-179 -257 -482 0
-180 -258 -483 0
-178 -259 -484 0
-179 -260 -485 0
-180 -261 -486 0
-178 -262 -487 0
-179 -263 -488 0
-180 -264 -489 0
-178 -265 -490 0
-179 -266 -491 0
-180 -267 -492 0
-178 -268 -493 0
-179 -269 -494 0
-180 -270 -495 0
-178 -271 -496 0
-179 -272 -497 0
-180 -273 -498 0
-178 -274 -499 0
-179 -275 -500 0
-180 -276 -501 0
-178 -277 -502 0
-179 -278 -503 0
-180 -279 -504 0
-178 -280 -505 0
-179 -281 -506 0
-180 -282 -507 0
-178 -283 -508 0
-179 -284 -509 0
-180 -285 -510 0
-178 -286 -511 0
-179 -287 -512 0
-180 -288 -513 0
-178 -289 -514 0
-179 -290 -515 0
-180 -291 -516 0
-178 -292 -517 0
-179 -293 -518 0
-180 -294 -519 0
-178 -295 -520 0
-179 -296 -521 0
-180 -297 -522 0
-178 -298 -523 0
-179 -299 -524 0
-180 -300 -525 0
-178 -301 -526 0
-179 -302 -527 0
-180 -303 -528 0
-178 -304 -529 0
-179 -305 -530 0
-180 -306 -531 0
-178 -307 -532 0
-179 -308 -533 0
-180 -309 -534 0
-178 -310 -535 0
-179 -311 -536 0
-180 -312 -537 0
-178 -313 -538 0
-179 -314 -539 0
-180 -315 -540 0
-1 -190 -241 0
-2 -191 -242 0
-3 -192 -243 0
-4 -190 -244 0
-5 -191 -245 0
-6 -192 -246 0
-7 -190 -247 0
-8 -191 -248 0
-9 -192 -249 0
-10 -190 -250 0
-11 -191 -251 0
-12 -192 -252 0
-13 -190 -253 0
-14 -191 -254 0
-15 -192 -255 0
-16 -190 -256 0
-17 -191 -257 0
-18 -192 -258 0
-19 -190 -259 0
-20 -191 -260 0
-21 -192 -261 0
-22 -190 -262 0
-23 -191 -263 0
-24 -192 -264 0
-25 -190 -265 0
-26 -191 -266 0
-27 -192 -267 0
-28 -190 -268 0
-29 -191 -269 0
-30 -192 -270 0
-31 -190 -271 0
-32 -191 -272 0
-33 -192 -273 0
-34 -190 -274 0
-35 -191 -275 0
-36 -192 -276 0
-37 -190 -277 0
-38 -191 -278 0
-39 -192 -279 0
-40 -190 -280 0
-41 -191 -281 0
-42 -192 -282 0
-43 -190 -283 0
-44 -191 -284 0
-45 -192 -285 0
-46 -190 -286 0
-47 -191 -287 0
-48 -192 -288 0
-49 -190 -289 0
-50 -191 -290 0
-51 -192 -291 0
-52 -190 -292 0
-53 -191 -293 0
-54 -192 -294 0
-55 -190 -295 0
-56 -191 -296 0
-57 -192 -297 0
-58 -190 -298 0
-59 -191 -299 0
-60 -192 -300 0
-61 -190 -301 0
-62 -191 -302 0
-63 -192 -303 0
-64 -190 -304 0
-65 -191 -305 0
-66 -192 -306 0
-67 -190 -307 0
-68 -191 -308 0
-69 -192 -309 0
-70 -190 -310 0
-71 -191 -311 0
-72 -192 -312 0
-73 -190 -313 0
-74 -191 -314 0
-75 -192 -315 0
-76 -190 -316 0
-77 -191 -317 0
-78 -192 -318 0
-79 -190 -319 0
-80 -191 -320 0
-81 -192 -321 0
-82 -190 -322 0
-83 -191 -323 0
-84 -192 -324 0
-85 -190 -325 0
-86 -191 -326 0
-87 -192 -327 0
-88 -190 -328 0
-89 -191 -329 0
-90 -192 -330 0
-91 -190 -331 0
-92 -191 -332 0
-93 -192 -333 0
-94 -190 -334 0
-95 -191 -335 0
-96 -192 -336 0
-97 -190 -337 0
-98 -191 -338 0
-99 -192 -339 0
-100 -190 -340 0
-101 -191 -341 0
-102 -192 -342 0
-103 -190 -343 0
-104 -191 -344 0
-105 -192 -345 0
-106 -190 -346 0
-107 -191 -347 0
-108 -192 -348 0
-109 -190 -349 0
-110 -191 -350 0
-111 -192 -351 0
-112 -190 -352 0
-113 -191 -353 0
-114 -192 -354 0
-115 -190 -355 0
-116 -191 -356 0
-117 -192 -357 0
-118 -190 -358 0
-119 -191 -359 0
-120 -192 -360 0
-121 -190 -361 0
-122 -191 -362 0
-123 -192 -363 0
-124 -190 -364 0
-125 -191 -365 0
-126 -192 -366 0
-127 -190 -367 0
-128 -191 -368 0
-129 -192 -369 0
-130 -190 -370 0
-131 -191 -371 0
-132 -192 -372 0
-133 -190 -373 0
-134 -191 -374 0
-135 -192 -375 0
-136 -190 -376 0
-137 -191 -377 0
-138 -192 -378 0
-139 -190 -379 0
-140 -191 -380 0
-141 -192 -381 0
-142 -190 -382 0
-143 -191 -383 0
-144 -192 -384 0
-145 -190 -385 0
-146 -191 -386 0
-147 -192 -387 0
-148 -190 -388 0
-149 -191 -389 0
-150 -192 -390 0
-151 -190 -391 0
-152 -191 -392 0
-153 -192 -393 0
-154 -190 -394 0
-155 -191 -395 0
-156 -192 -396 0
-157 -190 -397 0
-158 -191 -398 0
-159 -192 -399 0
-160 -190 -400 0
-161 -191 -401 0
-162 -192 -402 0
-163 -190 -403 0
-164 -191 -404 0
-165 -192 -405 0
-166 -190 -406 0
-167 -191 -407 0
-168 -192 -408 0
-169 -190 -409 0
-170 -191 -410 0
-171 -192 -411 0
-172 -190 -412 0
-173 -191 -413 0
-174 -192 -414 0
-175 -190 -415 0
-176 -191 -416 0
-177 -192 -417 0
-178 -190 -418 0
-179 -191 -419 0
-180 -192 -420 0
-181 -190 -421 0
-182 -191 -422 0
-183 -192 -423 0
-184 -190 -424 0
-185 -191 -425 0
-186 -192 -426 0
-187 -190 -427 0
-188 -191 -428 0
-189 -192 -429 0
-190 -430 0
-191 -431 0
-192 -432 0
-190 -193 -433 0
-191 -194 -434 0
-192 -195 -435 0
-190 -196 -436 0
-191 -197 -437 0
-192 -198 -438 0
-190 -199 -439 0
-191 -200 -440 0
-192 -201 -441 0
-190 -202 -442 0
-191 -203 -443 0
-192 -204 -444 0
-190 -205 -445 0
-191 -206 -446 0
-192 -207 -447 0
-190 -208 -448 0
-191 -209 -449 0
-192 -210 -450 0
-190 -211 -451 0
-191 -212 -452 0
-192 -213 -453 0
-190 -214 -454 0
-191 -215 -455 0
-192 -216 -456 0
-190 -217 -457 0
-191 -218 -458 0
-192 -219 -459 0
-190 -220 -460 0
-191 -221 -461 0
-192 -222 -462 0
-190 -223 -463 0
-191 -224 -464 0
-192 -225 -465 0
-190 -226 -466 0
-191 -227 -467 0
-192 -228 -468 0
-190 -229 -469 0
-191 -230 -470 0
-192 -231 -471 0
-190 -232 -472 0
-191 -233 -473 0
-192 -234 -474 0
-190 -235 -475 0
-191 -236 -476 0
-192 -237 -477 0
-190 -238 -478 0
-191 -239 -479 0
-192 -240 -480 0
-190 -241 -481 0
-191 -242 -482 0
-192 -243 -483 0
-190 -244 -484 0
-191 -245 -485 0
-192 -246 -486 0
-190 -247 -487 0
-191 -248 -488 0
-192 -249 -489 0
-190 -250 -490 0
-191 -251 -491 0
-192 -252 -492 0
-190 -253 -493 0
-191 -254 -494 0
-192 -255 -495 0
-190 -256 -496 0
-191 -257 -497 0
-192 -258 -498 0
-190 -259 -499 0
-191 -260 -500 0
-192 -261 -501 0
-190 -262 -502 0
-191 -263 -503 0
-192 -264 -504 0
-190 -265 -505 0
-191 -266 -506 0
-192 -267 -507 0
-190 -268 -508 0
-191 -269 -509 0
-192 -270 -510 0
-190 -271 -511 0
-191 -272 -512 0
-192 -273 -513 0
-190 -274 -514 0
-191 -275 -515 0
-192 -276 -516 0
-190 -277 -517 0
-191 -278 -518 0
-192 -279 -519 0
-190 -280 -520 0
-191 -281 -521 0
-192 -282 -522 0
-190 -283 -523 0
-191 -284 -524 0
-192 -285 -525 0
-190 -286 -526 0
-191 -287 -527 0
-192 -288 -528 0
-190 -289 -529 0
-191 -290 -530 0
-192 -291 -531 0
-190 -292 -532 0
-191 -293 -533 0
-192 -294 -534 0
-190 -295 -535 0
-191 -296 -536 0
-192 -297 -537 0
-190 -298 -538 0
-191 -299 -539 0
-192 -300 -540 0
-1 -202 -256 0
-2 -203 -257 0
-3 -204 -258 0
-4 -202 -259 0
-5 -203 -260 0
-6 -204 -261 0
-7 -202 -262 0
-8 -203 -263 0
-9 -204 -264 0
-10 -202 -265 0
-11 -203 -266 0
-12 -204 -267 0
-13 -202 -268 0
-14 -203 -269 0
-15 -204 -270 0
-16 -202 -271 0
-17 -203 -272 0
-18 -204 -273 0
-19 -202 -274 0
-20 -203 -275 0
-21 -204 -276 0
-22 -202 -277 0
-23 -203 -278 0
-24 -204 -279 0
-25 -202 -280 0
-26 -203 -281 0
-27 -204 -282 0
-28 -202 -283 0
-29 -203 -284 0
-30 -204 -285 0
-31 -202 -286 0
-32 -203 -287 0
-33 -204 -288 0
-34 -202 -289 0
-35 -203 -290 0
-36 -204 -291 0
-37 -202 -292 0
-38 -203 -293 0
-39 -204 -294 0
-40 -202 -295 0
-41 -203 -296 0
-42 -204 -297 0
-43 -202 -298 0
-44 -203 -299 0
-45 -204 -300 0
-46 -202 -301 0
-47 -203 -302 0
-48 -204 -303 0
-49 -202 -304 0
-50 -203 -305 0
-51 -204 -306 0
-52 -202 -307 0
-53 -203 -308 0
-54 -204 -309 0
-55 -202 -310 0
-56 -203 -311 0
-57 -204 -312 0
-58 -202 -313 0
-59 -203 -314 0
-60 -204 -315 0
-61 -202 -316 0
-62 -203 -317 0
-63 -204 -318 0
-64 -202 -319 0
-65 -203 -320 0
-66 -204 -321 0
-67 -202 -322 0
-68 -203 -323 0
-69 -204 -324 0
-70 -202 -325 0
-71 -203 -326 0
-72 -204 -327 0
-73 -202 -328 0
-74 -203 -329 0
-75 -204 -330 0
-76 -202 -331 0
-77 -203 -332 0
-78 -204 -333 0
-79 -202 -334 0
-80 -203 -335 0
-81 -204 -336 0
-82 -202 -337 0
-83 -203 -338 0
-84 -204 -339 0
-85 -202 -340 0
-86 -203 -341 0
-87 -204 -342 0
-88 -202 -343 0
-89 -203 -344 0
-90 -204 -345 0
-91 -202 -346 0
-92 -203 -347 0
-93 -204 -348 0
-94 -202 -349 0
-95 -203 -350 0
-96 -204 -351 0
-97 -202 -352 0
-98 -203 -353 0
-99 -204 -354 0
-100 -202 -355 0
-101 -203 -356 0
-102 -204 -357 0
-103 -202 -358 0
-104 -203 -359 0
-105 -204 -360 0
-106 -202 -361 0
-107 -203 -362 0
-108 -204 -363 0
-109 -202 -364 0
-110 -203 -365 0
-111 -204 -366 0
-112 -202 -367 0
-113 -203 -368 0
-114 -204 -369 0
-115 -202 -370 0
-116 -203 -371 0
-117 -204 -372 0
-118 -202 -373 0
-119 -203 -374 0
-120 -204 -375 0
-121 -202 -376 0
-122 -203 -377 0
-123 -204 -378 0
-124 -202 -379 0
-125 -203 -380 0
-126 -204 -381 0
-127 -202 -382 0
-128 -203 -383 0
-129 -204 -384 0
-130 -202 -385 0
-131 -203 -386 0
-132 -204 -387 0
-133 -202 -388 0
-134 -203 -389 0
-135 -204 -390 0
-136 -202 -391 0
-137 -203 -392 0
-138 -204 -393 0
-139 -202 -394 0
-140 -203 -395 0
-141 -204 -396 0
-142 -202 -397 0
-143 -203 -398 0
-144 -204 -399 0
-145 -202 -400 0
-146 -203 -401 0
-147 -204 -402 0
-148 -202 -403 0
-149 -203 -404 0
-150 -204 -405 0
-151 -202 -406 0
-152 -203 -407 0
-153 -204 -408 0
-154 -202 -409 0
-155 -203 -410 0
-156 -204 -411 0
-157 -202 -412 0
-158 -203 -413 0
-159 -204 -414 0
-160 -202 -415 0
-161 -203 -416 0
-162 -204 -417 0
-163 -202 -418 0
-164 -203 -419 0
-165 -204 -420 0
-166 -202 -421 0
-167 -203 -422 0
-168 -204 -423 0
-169 -202 -424 0
-170 -203 -425 0
-171 -204 -426 0
-172 -202 -427 0
-173 -203 -428 0
-174 -204 -429 0
-175 -202 -430 0
-176 -203 -431 0
-177 -204 -432 0
-178 -202 -433 0
-179 -203 -434 0
-180 -204 -435 0
-181 -202 -436 0
-182 -203 -437 0
-183 -204 -438 0
-184 -202 -439 0
-185 -203 -440 0
-186 -204 -441 0
-187 -202 -442 0
-188 -203 -443 0
-189 -204 -444 0
-190 -202 -445 0
-191 -203 -446 0
-192 -204 -447 0
-193 -202 -448 0
-194 -203 -449 0
-195 -204 -450 0
-196 -202 -451 0
-197 -203 -452 0
-198 -204 -453 0
-199 -202 -454 0
-200 -203 -455 0
-201 -204 -456 0
-202 -457 0
-203 -458 0
-204 -459 0
-202 -205 -460 0
-203 -206 -461 0
-204 -207 -462 0
-202 -208 -463 0
-203 -209 -464 0
-204 -210 -465 0
-202 -211 -466 0
-203 -212 -467 0
-204 -213 -468 0
-202 -214 -469 0
-203 -215 -470 0
-204 -216 -471 0
-202 -217 -472 0
-203 -218 -473 0
-204 -219 -474 0
-202 -220 -475 0
-203 -221 -476 0
-204 -222 -477 0
-202 -223 -478 0
-203 -224 -479 0
-204 -225 -480 0
-202 -226 -481 0
-203 -227 -482 0
-204 -228 -483 0
-202 -229 -484 0
-203 -230 -485 0
-204 -231 -486 0
-202 -232 -487 0
-203 -233 -488 0
-204 -234 -489 0
-202 -235 -490 0
-203 -236 -491 0
-204 -237 -492 0
-202 -238 -493 0
-203 -239 -494 0
-204 -240 -495 0
-202 -241 -496 0
-203 -242 -497 0
-204 -243 -498 0
-202 -244 -499 0
-203 -245 -500 0
-204 -246 -501 0
-202 -247 -502 0
-203 -248 -503 0
-204 -249 -504 0
-202 -250 -505 0
-203 -251 -506 0
-204 -252 -507 0
-202 -253 -508 0
-203 -254 -509 0
-204 -255 -510 0
-202 -256 -511 0
-203 -257 -512 0
-204 -258 -513 0
-202 -259 -514 0
-203 -260 -515 0
-204 -261 -516 0
-202 -262 -517 0
-203 -263 -518 0
-204 -264 -519 0
-202 -265 -520 0
-203 -266 -521 0
-204 -267 -522 0
-202 -268 -523 0
-203 -269 -524 0
-204 -270 -525 0
-202 -271 -526 0
-203 -272 -527 0
-204 -273 -528 0
-202 -274 -529 0
-203 -275 -530 0
-204 -276 -531 0
-202 -277 -532 0
-203 -278 -533 0
-204 -279 -534 0
-202 -280 -535 0
-203 -281 -536 0
-204 -282 -537 0
-202 -283 -538 0
-203 -284 -539 0
-204 -285 -540 0
-1 -214 -271 0
-2 -215 -272 0
-3 -216 -273 0
-4 -214 -274 0
-5 -215 -275 0
-6 -216 -276 0
-7 -214 -277 0
-8 -215 -278 0
-9 -216 -279 0
-10 -214 -280 0
-11 -215 -281 0
-12 -216 -282 0
-13 -214 -283 0
-14 -215 -284 0
-15 -216 -285 0
-16 -214 -286 0
-17 -215 -287 0
-18 -216 -288 0
-19 -214 -289 0
-20 -215 -290 0
-21 -216 -291 0
-22 -214 -292 0
-23 -215 -293 0
-24 -216 -294 0
-25 -214 -295 0
-26 -215 -296 0
-27 -216 -297 0
-28 -214 -298 0
-29 -215 -299 0
-30 -216 -300 0
-31 -214 -301 0
-32 -215 -302 0
-33 -216 -303 0
-34 -214 -304 0
-35 -215 -305 0
-36 -216 -306 0
-37 -214 -307 0
-38 -215 -308 0
-39 -216 -309 0
-40 -214 -310 0
-41 -215 -311 0
-42 -216 -312 0
-43 -214 -313 0
-44 -215 -314 0
-45 -216 -315 0
-46 -214 -316 0
-47 -215 -317 0
-48 -216 -318 0
-49 -214 -319 0
-50 -215 -320 0
-51 -216 -321 0
-52 -214 -322 0
-53 -215 -323 0
-54 -216 -324 0
-55 -214 -325 0
-56 -215 -326 0
-57 -216 -327 0
-58 -214 -328 0
-59 -215 -329 0
-60 -216 -330 0
-61 -214 -331 0
-62 -215 -332 0
-63 -216 -333 0
-64 -214 -334 0
-65 -215 -335 0
-66 -216 -336 0
-67 -214 -337 0
-68 -215 -338 0
-69 -216 -339 0
-70 -214 -340 0
-71 -215 -341 0
-72 -216 -342 0
-73 -214 -343 0
-74 -215 -344 0
-75 -216 -345 0
-76 -214 -346 0
-77 -215 -347 0
-78 -216 -348 0
-79 -214 -349 0
-80 -215 -350 0
-81 -216 -351 0
-82 -214 -352 0
-83 -215 -353 0
-84 -216 -354 0
-85 -214 -355 0
-86 -215 -356 0
-87 -216 -357 0
-88 -214 -358 0
-89 -215 -359 0
-90 -216 -360 0
-91 -214 -361 0
-92 -215 -362 0
-93 -216 -363 0
-94 -214 -364 0
-95 -215 -365 0
-96 -216 -366 0
-97 -214 -367 0
-98 -215 -368 0
-99 -216 -369 0
-100 -214 -370 0
-101 -215 -371 0
-102 -216 -372 0
-103 -214 -373 0
-104 -215 -374 0
-105 -216 -375 0
-106 -214 -376 0
-107 -215 -377 0
-108 -216 -378 0
-109 -214 -379 0
-110 -215 -380 0
-111 -216 -381 0
-112 -214 -382 0
-113 -215 -383 0
-114 -216 -384 0
-115 -214 -385 0
-116 -215 -386 0
-117 -216 -387 0
-118 -214 -388 0
-119 -215 -389 0
-120 -216 -390 0
-121 -214 -391 0
-122 -215 -392 0
-123 -216 -393 0
-124 -214 -394 0
-125 -215 -395 0
-126 -216 -396 0
-127 -214 -397 0
-128 -215 -398 0
-129 -216 -399 0
-130 -214 -400 0
-131 -215 -401 0
-132 -216 -402 0
-133 -214 -403 0
-134 -215 -404 0
-135 -216 -405 0
-136 -214 -406 0
-137 -215 -407 0
-138 -216 -408 0
-139 -214 -409 0
-140 -215 -410 0
-141 -216 -411 0
-142 -214 -412 0
-143 -215 -413 0
-144 -216 -414 0
-145 -214 -415 0
-146 -215 -416 0
-147 -216 -417 0
-148 -214 -418 0
-149 -215 -419 0
-150 -216 -420 0
-151 -214 -421 0
-152 -215 -422 0
-153 -216 -423 0
-154 -214 -424 0
-155 -215 -425 0
-156 -216 -426 0
-157 -214 -427 0
-158 -215 -428 0
-159 -216 -429 0
-160 -214 -430 0
-161 -215 -431 0
-162 -216 -432 0
-163 -214 -433 0
-164 -215 -434 0
-165 -216 -435 0
-166 -214 -436 0
-167 -215 -437 0
-168 -216 -438 0
-169 -214 -439 0
-170 -215 -440 0
-171 -216 -441 0
-172 -214 -442 0
-173 -215 -443 0
-174 -216 -444 0
-175 -214 -445 0
-176 -215 -446 0
-177 -216 -447 0
-178 -214 -448 0
-179 -215 -449 0
-180 -216 -450 0
-181 -214 -451 0
-182 -215 -452 0
-183 -216 -453 0
-184 -214 -454 0
-185 -215 -455 0
-186 -216 -456 0
-187 -214 -457 0
-188 -215 -458 0
-189 -216 -459 0
-190 -214 -460 0
-191 -215 -461 0
-192 -216 -462 0
-193 -214 -463 0
-194 -215 -464 0
-195 -216 -465 0
-196 -214 -466 0
-197 -215 -467 0
-198 -216 -468 0
-199 -214 -469 0
-200 -215 -470 0
-201 -216 -471 0
-202 -214 -472 0
-203 -215 -473 0
-204 -216 -474 0
-205 -214 -475 0
-206 -215 -476 0
-207 -216 -477 0
-208 -214 -478 0
-209 -215 -479 0
-210 -216 -480 0
-211 -214 -481 0
-212 -215 -482 0
-213 -216 -483 0
-214 -484 0
-215 -485 0
-216 -486 0
-214 -217 -487 0
-215 -218 -488 0
-216 -219 -489 0
-214 -220 -490 0
-215 -221 -491 0
-216 -222 -492 0
-214 -223 -493 0
-215 -224 -494 0
-216 -225 -495 0
-214 -226 -496 0
-215 -227 -497 0
-216 -228 -498 0
-214 -229 -499 0
-215 -230 -500 0
-216 -231 -501 0
-214 -232 -502 0
-215 -233 -503 0
-216 -234 -504 0
-214 -235 -505 0
-215 -236 -506 0
-216 -237 -507 0
-214 -238 -508 0
-215 -239 -509 0
-216 -240 -510 0
-214 -241 -511 0
-215 -242 -512 0
-216 -243 -513 0
-214 -244 -514 0
-215 -245 -515 0
-216 -246 -516 0
-214 -247 -517 0
-215 -248 -518 0
-216 -249 -519 0
-214 -250 -520 0
-215 -251 -521 0
-216 -252 -522 0
-214 -253 -523 0
-215 -254 -524 0
-216 -255 -525 0
-214 -256 -526 0
-215 -257 -527 0
-216 -258 -528 0
-214 -259 -529 0
-215 -260 -530 0
-216 -261 -531 0
-214 -262 -532 0
-215 -263 -533 0
-216 -264 -534 0
-214 -265 -535 0
-215 -266 -536 0
-216 -267 -537 0
-214 -268 -538 0
-215 -269 -539 0
-216 -270 -540 0
-1 -226 -286 0
-2 -227 -287 0
-3 -228 -288 0
-4 -226 -289 0
-5 -227 -290 0
-6 -228 -291 0
-7 -226 -292 0
-8 -227 -293 0
-9 -228 -294 0
-10 -226 -295 0
-11 -227 -296 0
-12 -228 -297 0
-13 -226 -298 0
-14 -227 -299 0
-15 -228 -300 0
-16 -226 -301 0
-17 -227 -302 0
-18 -228 -303 0
-19 -226 -304 0
-20 -227 -305 0
-21 -228 -306 0
-22 -226 -307 0
-23 -227 -308 0
-24 -228 -309 0
-25 -226 -310 0
-26 -227 -311 0
-27 -228 -312 0
-28 -226 -313 0
-29 -227 -314 0
-30 -228 -315 0
-31 -226 -316 0
-32 -227 -317 0
-33 -228 -318 0
-34 -226 -319 0
-35 -227 -320 0
-36 -228 -321 0
-37 -226 -322 0
-38 -227 -323 0
-39 -228 -324 0
-40 -226 -325 0
-41 -227 -326 0
-42 -228 -327 0
-43 -226 -328 0
-44 -227 -329 0
-45 -228 -330 0
-46 -226 -331 0
-47 -227 -332 0
-48 -228 -333 0
-49 -226 -334 0
-50 -227 -335 0
-51 -228 -336 0
-52 -226 -337 0
-53 -227 -338 0
-54 -228 -339 0
-55 -226 -340 0
-56 -227 -341 0
-57 -228 -342 0
-58 -226 -343 0
-59 -227 -344 0
-60 -228 -345 0
-61 -226 -346 0
-62 -227 -347 0
-63 -228 -348 0
-64 -226 -349 0
-65 -227 -350 0
-66 -228 -351 0
-67 -226 -352 0
-68 -227 -353 0
-69 -228 -354 0
-70 -226 -355 0
-71 -227 -356 0
-72 -228 -357 0
-73 -226 -358 0
-74 -227 -359 0
-75 -228 -360 0
-76 -226 -361 0
-77 -227 -362 0
-78 -228 -363 0
-79 -226 -364 0
-80 -227 -365 0
-81 -228 -366 0
-82 -226 -367 0
-83 -227 -368 0
-84 -228 -369 0
-85 -226 -370 0
-86 -227 -371 0
-87 -228 -372 0
-88 -226 -373 0
-89 -227 -374 0
-90 -228 -375 0
-91 -226 -376 0
-92 -227 -377 0
-93 -228 -378 0
-94 -226 -379 0
-95 -227 -380 0
-96 -228 -381 0
-97 -226 -382 0
-98 -227 -383 0
-99 -228 -384 0
-100 -226 -385 0
-101 -227 -386 0
-102 -228 -387 0
-103 -226 -388 0
-104 -227 -389 0
-105 -228 -390 0
-106 -226 -391 0
-107 -227 -392 0
-108 -228 -393 0
-109 -226 -394 0
-110 -227 -395 0
-111 -228 -396 0
-112 -226 -397 0
-113 -227 -398 0
-114 -228 -399 0
-115 -226 -400 0
-116 -227 -401 0
-117 -228 -402 0
-118 -226 -403 0
-119 -227 -404 0
-120 -228 -405 0
-121 -226 -406 0
-122 -227 -407 0
-123 -228 -408 0
-124 -226 -409 0
-125 -227 -410 0
-126 -228 -411 0
-127 -226 -412 0
-128 -227 -413 0
-129 -228 -414 0
-130 -226 -415 0
-131 -227 -416 0
-132 -228 -417 0
-133 -226 -418 0
-134 -227 -419 0
-135 -228 -420 0
-136 -226 -421 0
-137 -227 -422 0
-138 -228 -423 0
-139 -226 -424 0
-140 -227 -425 0
-141 -228 -426 0
-142 -226 -427 0
-143 -227 -428 0
-144 -228 -429 0
-145 -226 -430 0
-146 -227 -431 0
-147 -228 -432 0
-148 -226 -433 0
-149 -227 -434 0
-150 -228 -435 0
-151 -226 -436 0
-152 -227 -437 0
-153 -228 -438 0
-154 -226 -439 0
-155 -227 -440 0
-156 -228 -441 0
-157 -226 -442 0
-158 -227 -443 0
-159 -228 -444 0
-160 -226 -445 0
-161 -227 -446 0
-162 -228 -447 0
-163 -226 -448 0
-164 -227 -449 0
-165 -228 -450 0
-166 -226 -451 0
-167 -227 -452 0
-168 -228 -453 0
-169 -226 -454 0
-170 -227 -455 0
-171 -228 -456 0
-172 -226 -457 0
-173 -227 -458 0
-174 -228 -459 0
-175 -226 -460 0
-176 -227 -461 0
-177 -228 -462 0
-178 -226 -463 0
-179 -227 -464 0
-180 -228 -465 0
-181 -226 -466 0
-182 -227 -467 0
-183 -228 -468 0
-184 -226 -469 0
-185 -227 -470 0
-186 -228 -471 0
-187 -226 -472 0
-188 -227 -473 0
-189 -228 -474 0
-190 -226 -475 0
-191 -227 -476 0
-192 -228 -477 0
-193 -226 -478 0
-194 -227 -479 0
-195 -228 -480 0
-196 -226 -481 0
-197 -227 -482 0
-198 -228 -483 0
-199 -226 -484 0
-200 -227 -485 0
-201 -228 -486 0
-202 -226 -487 0
-203 -227 -488 0
-204 -228 -489 0
-205 -226 -490 0
-206 -227 -491 0
-207 -228 -492 0
-208 -226 -493 0
-209 -227 -494 0
-210 -228 -495 0
-211 -226 -496 0
-212 -227 -497 0
-213 -228 -498 0
-214 -226 -499 0
-215 -227 -500 0
-216 -228 -501 0
-217 -226 -502 0
-218 -227 -503 0
-219 -228 -504 0
-220 -226 -505 0
-221 -227 -506 0
-222 -228 -507 0
-223 -226 -508 0
-224 -227 -509 0
-225 -228 -510 0
-226 -511 0
-227 -512 0
-228 -513 0
-226 -229 -514 0
-227 -230 -515 0
-228 -231 -516 0
-226 -232 -517 0
-227 -233 -518 0
-228 -234 -519 0
-226 -235 -520 0
-227 -236 -521 0
-228 -237 -522 0
-226 -238 -523 0
-227 -239 -524 0
-228 -240 -525 0
-226 -241 -526 0
-227 -242 -527 0
-228 -243 -528 0
-226 -244 -529 0
-227 -245 -530 0
-228 -246 -531 0
-226 -247 -532 0
-227 -248 -533 0
-228 -249 -534 0
-226 -250 -535 0
-227 -251 -536 0
-228 -252 -537 0
-226 -253 -538 0
-227 -254 -539 0
-228 -255 -540 0
-1 -238 -301 0
-2 -239 -302 0
-3 -240 -303 0
-4 -238 -304 0
-5 -239 -305 0
-6 -240 -306 0
-7 -238 -307 0
-8 -239 -308 0
-9 -240 -309 0
-10 -238 -310 0
-11 -239 -311 0
-12 -240 -312 0
-13 -238 -313 0
-14 -239 -314 0
-15 -240 -315 0
-16 -238 -316 0
-17 -239 -317 0
-18 -240 -318 0
-19 -238 -319 0
-20 -239 -320 0
-21 -240 -321 0
-22 -238 -322 0
-23 -239 -323 0
-24 -240 -324 0
-25 -238 -325 0
-26 -239 -326 0
-27 -240 -327 0
-28 -238 -328 0
-29 -239 -329 0
-30 -240 -330 0
-31 -238 -331 0
-32 -239 -332 0
-33 -240 -333 0
-34 -238 -334 0
-35 -239 -335 0
-36 -240 -336 0
-37 -238 -337 0
-38 -239 -338 0
-39 -240 -339 0
-40 -238 -340 0
-41 -239 -341 0
-42 -240 -342 0
-43 -238 -343 0
-44 -239 -344 0
-45 -240 -345 0
-46 -238 -346 0
-47 -239 -347 0
-48 -240 -348 0
-49 -238 -349 0
-50 -239 -350 0
-51 -240 -351 0
-52 -238 -352 0
-53 -239 -353 0
-54 -240 -354 0
-55 -238 -355 0
-56 -239 -356 0
-57 -240 -357 0
-58 -238 -358 0
-59 -239 -359 0
-60 -240 -360 0
-61 -238 -361 0
-62 -239 -362 0
-63 -240 -363 0
-64 -238 -364 0
-65 -239 -365 0
-66 -240 -366 0
-67 -238 -367 0
-68 -239 -368 0
-69 -240 -369 0
-70 -238 -370 0
-71 -239 -371 0
-72 -240 -372 0
-73 -238 -373 0
-74 -239 -374 0
-75 -240 -375 0
-76 -238 -376 0
-77 -239 -377 0
-78 -240 -378 0
-79 -238 -379 0
-80 -239 -380 0
-81 -240 -381 0
-82 -238 -382 0
-83 -239 -383 0
-84 -240 -384 0
-85 -238 -385 0
-86 -239 -386 0
-87 -240 -387 0
-88 -238 -388 0
-89 -239 -389 0
-90 -240 -390 0
-91 -238 -391 0
-92 -239 -392 0
-93 -240 -393 0
-94 -238 -394 0
-95 -239 -395 0
-96 -240 -396 0
-97 -238 -397 0
-98 -239 -398 0
-99 -240 -399 0
-100 -238 -400 0
-101 -239 -401 0
-102 -240 -402 0
-103 -238 -403 0
-104 -239 -404 0
-105 -240 -405 0
-106 -238 -406 0
-107 -239 -407 0
-108 -240 -408 0
-109 -238 -409 0
-110 -239 -410 0
-111 -240 -411 0
-112 -238 -412 0
-113 -239 -413 0
-114 -240 -414 0
-115 -238 -415 0
-116 -239 -416 0
-117 -240 -417 0
-118 -238 -418 0
-119 -239 -419 0
-120 -240 -420 0
-121 -238 -421 0
-122 -239 -422 0
-123 -240 -423 0
-124 -238 -424 0
-125 -239 -425 0
-126 -240 -426 0
-127 -238 -427 0
-128 -239 -428 0
-129 -240 -429 0
-130 -238 -430 0
-131 -239 -431 0
-132 -240 -432 0
-133 -238 -433 0
-134 -239 -434 0
-135 -240 -435 0
-136 -238 -436 0
-137 -239 -437 0
-138 -240 -438 0
-139 -238 -439 0
-140 -239 -440 0
-141 -240 -441 0
-142 -238 -442 0
-143 -239 -443 0
-144 -240 -444 0
-145 -238 -445 0
-146 -239 -446 0
-147 -240 -447 0
-148 -238 -448 0
-149 -239 -449 0
-150 -240 -450 0
-151 -238 -451 0
-152 -239 -452 0
-153 -240 -453 0
-154 -238 -454 0
-155 -239 -455 0
-156 -240 -456 0
-157 -238 -457 0
-158 -239 -458 0
-159 -240 -459 0
-160 -238 -460 0
-161 -239 -461 0
-162 -240 -462 0
-163 -238 -463 0
-164 -239 -464 0
-165 -240 -465 0
-166 -238 -466 0
-167 -239 -467 0
-168 -240 -468 0
-169 -238 -469 0
-170 -239 -470 0
-171 -240 -471 0
-172 -238 -472 0
-173 -239 -473 0
-174 -240 -474 0
-175 -238 -475 0
-176 -239 -476 0
-177 -240 -477 0
-178 -238 -478 0
-179 -239 -479 0
-180 -240 -480 0
-181 -238 -481 0
-182 -239 -482 0
-183 -240 -483 0
-184 -238 -484 0
-185 -239 -485 0
-186 -240 -486 0
-187 -238 -487 0
-188 -239 -488 0
-189 -240 -489 0
-190 -238 -490 0
-191 -239 -491 0
-192 -240 -492 0
-193 -238 -493 0
-194 -239 -494 0
-195 -240 -495 0
-196 -238 -496 0
-197 -239 -497 0
-198 -240 -498 0
-199 -238 -499 0
-200 -239 -500 0
-201 -240 -501 0
-202 -238 -502 0
-203 -239 -503 0
-204 -240 -504 0
-205 -238 -505 0
-206 -239 -506 0
-207 -240 -507 0
-208 -238 -508 0
-209 -239 -509 0
-210 -240 -510 0
-211 -238 -511 0
-212 -239 -512 0
-213 -240 -513 0
-214 -238 -514 0
-215 -239 -515 0
-216 -240 -516 0
-217 -238 -517 0
-218 -239 -518 0
-219 -240 -519 0
-220 -238 -520 0
-221 -239 -521 0
-222 -240 -522 0
-223 -238 -523 0
-224 -239 -524 0
-225 -240 -525 0
-226 -238 -526 0
-227 -239 -527 0
-228 -240 -528 0
-229 -238 -529 0
-230 -239 -530 0
-231 -240 -531 0
-232 -238 -532 0
-233 -239 -533 0
-234 -240 -534 0
-235 -238 -535 0
-236 -239 -536 0
-237 -240 -537 0
-238 -538 0
-239 -539 0
-240 -540 0
-1 -250 -316 0
-2 -251 -317 0
-3 -252 -318 0
-4 -250 -319 0
-5 -251 -320 0
-6 -252 -321 0
-7 -250 -322 0
-8 -251 -323 0
-9 -252 -324 0
-10 -250 -325 0
-11 -251 -326 0
-12 -252 -327 0
-13 -250 -328 0
-14 -251 -329 0
-15 -252 -330 0
-16 -250 -331 0
-17 -251 -332 0
-18 -252 -333 0
-19 -250 -334 0
-20 -251 -335 0
-21 -252 -336 0
-22 -250 -337 0
-23 -251 -338 0
-24 -252 -339 0
-25 -250 -340 0
-26 -251 -341 0
-27 -252 -342 0
-28 -250 -343 0
-29 -251 -344 0
-30 -252 -345 0
-31 -250 -346 0
-32 -251 -347 0
-33 -252 -348 0
-34 -250 -349 0
-35 -251 -350 0
-36 -252 -351 0
-37 -250 -352 0
-38 -251 -353 0
-39 -252 -354 0
-40 -250 -355 0
-41 -251 -356 0
-42 -252 -357 0
-43 -250 -358 0
-44 -251 -359 0
-45 -252 -360 0
-46 -250 -361 0
-47 -251 -362 0
-48 -252 -363 0
-49 -250 -364 0
-50 -251 -365 0
-51 -252 -366 0
-52 -250 -367 0
-53 -251 -368 0
-54 -252 -369 0
-55 -250 -370 0
-56 -251 -371 0
-57 -252 -372 0
-58 -250 -373 0
-59 -251 -374 0
-60 -252 -375 0
-61 -250 -376 0
-62 -251 -377 0
-63 -252 -378 0
-64 -250 -379 0
-65 -251 -380 0
-66 -252 -381 0
-67 -250 -382 0
-68 -251 -383 0
-69 -252 -384 0
-70 -250 -385 0
-71 -251 -386 0
-72 -252 -387 0
-73 -250 -388 0
-74 -251 -389 0
-75 -252 -390 0
-76 -250 -391 0
-77 -251 -392 0
-78 -252 -393 0
-79 -250 -394 0
-80 -251 -395 0
-81 -252 -396 0
-82 -250 -397 0
-83 -251 -398 0
-84 -252 -399 0
-85 -250 -400 0
-86 -251 -401 0
-87 -252 -402 0
-88 -250 -403 0
-89 -251 -404 0
-90 -252 -405 0
-91 -250 -406 0
-92 -251 -407 0
-93 -252 -408 0
-94 -250 -409 0
-95 -251 -410 0
-96 -252 -411 0
-97 -250 -412 0
-98 -251 -413 0
-99 -252 -414 0
-100 -250 -415 0
-101 -251 -416 0
-102 -252 -417 0
-103 -250 -418 0
-104 -251 -419 0
-105 -252 -420 0
-106 -250 -421 0
-107 -251 -422 0
-108 -252 -423 0
-109 -250 -424 0
-110 -251 -425 0
-111 -252 -426 0
-112 -250 -427 0
-113 -251 -428 0
-114 -252 -429 0
-115 -250 -430 0
-116 -251 -431 0
-117 -252 -432 0
-118 -250 -433 0
-119 -251 -434 0
-120 -252 -435 0
-121 -250 -436 0
-122 -251 -437 0
-123 -252 -438 0
-124 -250 -439 0
-125 -251 -440 0
-126 -252 -441 0
-127 -250 -442 0
-128 -251 -443 0
-129 -252 -444 0
-130 -250 -445 0
-131 -251 -446 0
-132 -252 -447 0
-133 -250 -448 0
-134 -251 -449 0
-135 -252 -450 0
-136 -250 -451 0
-137 -251 -452 0
-138 -252 -453 0
-139 -250 -454 0
-140 -251 -455 0
-141 -252 -456 0
-142 -250 -457 0
-143 -251 -458 0
-144 -252 -459 0
-145 -250 -460 0
-146 -251 -461 0
-147 -252 -462 0
-148 -250 -463 0
-149 -251 -464 0
-150 -252 -465 0
-151 -250 -466 0
-152 -251 -467 0
-153 -252 -468 0
-154 -250 -469 0
-155 -251 -470 0
-156 -252 -471 0
-157 -250 -472 0
-158 -251 -473 0
-159 -252 -474 0
-160 -250 -475 0
-161 -251 -476 0
-162 -252 -477 0
-163 -250 -478 0
-164 -251 -479 0
-165 -252 -480 0
-166 -250 -481 0
-167 -251 -482 0
-168 -252 -483 0
-169 -250 -484 0
-170 -251 -485 0
-171 -252 -486 0
-172 -250 -487 0
-173 -251 -488 0
-174 -252 -489 0
-175 -250 -490 0
-176 -251 -491 0
-177 -252 -492 0
-178 -250 -493 0
-179 -251 -494 0
-180 -252 -495 0
-181 -250 -496 0
-182 -251 -497 0
-183 -252 -498 0
-184 -250 -499 0
-185 -251 -500 0
-186 -252 -501 0
-187 -250 -502 0
-188 -251 -503 0
-189 -252 -504 0
-190 -250 -505 0
-191 -251 -506 0
-192 -252 -507 0
-193 -250 -508 0
-194 -251 -509 0
-195 -252 -510 0
-196 -250 -511 0
-197 -251 -512 0
-198 -252 -513 0
-199 -250 -514 0
-200 -251 -515 0
-201 -252 -516 0
-202 -250 -517 0
-203 -251 -518 0
-204 -252 -519 0
-205 -250 -520 0
-206 -251 -521 0
-207 -252 -522 0
-208 -250 -523 0
-209 -251 -524 0
-210 -252 -525 0
-211 -250 -526 0
-212 -251 -527 0
-213 -252 -528 0
-214 -250 -529 0
-215 -251 -530 0
-216 -252 -531 0
-217 -250 -532 0
-218 -251 -533 0
-219 -252 -534 0
-220 -250 -535 0
-221 -251 -536 0
-222 -252 -537 0
-223 -250 -538 0
-224 -251 -539 0
-225 -252 -540 0
-1 -262 -331 0
-2 -263 -332 0
-3 -264 -333 0
-4 -262 -334 0
-5 -263 -335 0
-6 -264 -336 0
-7 -262 -337 0
-8 -263 -338 0
-9 -264 -339 0
-10 -262 -340 0
-11 -263 -341 0
-12 -264 -342 0
-13 -262 -343 0
-14 -263 -344 0
-15 -264 -345 0
-16 -262 -346 0
-17 -263 -347 0
-18 -264 -348 0
-19 -262 -349 0
-20 -263 -350 0
-21 -264 -351 0
-22 -262 -352 0
-23 -263 -353 0
-24 -264 -354 0
-25 -262 -355 0
-26 -263 -356 0
-27 -264 -357 0
-28 -262 -358 0
-29 -263 -359 0
-30 -264 -360 0
-31 -262 -361 0
-32 -263 -362 0
-33 -264 -363 0
-34 -262 -364 0
-35 -263 -365 0
-36 -264 -366 0
-37 -262 -367 0
-38 -263 -368 0
-39 -264 -369 0
-40 -262 -370 0
-41 -263 -371 0
-42 -264 -372 0
-43 -262 -373 0
-44 -263 -374 0
-45 -264 -375 0
-46 -262 -376 0
-47 -263 -377 0
-48 -264 -378 0
-49 -262 -379 0
-50 -263 -380 0
-51 -264 -381 0
-52 -262 -382 0
-53 -263 -383 0
-54 -264 -384 0
-55 -262 -385 0
-56 -263 -386 0
-57 -264 -387 0
-58 -262 -388 0
-59 -263 -389 0
-60 -264 -390 0
-61 -262 -391 0
-62 -263 -392 0
-63 -264 -393 0
-64 -262 -394 0
-65 -263 -395 0
-66 -264 -396 0
-67 -262 -397 0
-68 -263 -398 0
-69 -264 -399 0
-70 -262 -400 0
-71 -263 -401 0
-72 -264 -402 0
-73 -262 -403 0
-74 -263 -404 0
-75 -264 -405 0
-76 -262 -406 0
-77 -263 -407 0
-78 -264 -408 0
-79 -262 -409 0
-80 -263 -410 0
-81 -264 -411 0
-82 -262 -412 0
-83 -263 -413 0
-84 -264 -414 0
-85 -262 -415 0
-86 -263 -416 0
-87 -264 -417 0
-88 -262 -418 0
-89 -263 -419 0
-90 -264 -420 0
-91 -262 -421 0
-92 -263 -422 0
-93 -264 -423 0
-94 -262 -424 0
-95 -263 -425 0
-96 -264 -426 0
-97 -262 -427 0
-98 -263 -428 0
-99 -264 -429 0
-100 -262 -430 0
-101 -263 -431 0
-102 -264 -432 0
-103 -262 -433 0
-104 -263 -434 0
-105 -264 -435 0
-106 -262 -436 0
-107 -263 -437 0
-108 -264 -438 0
-109 -262 -439 0
-110 -263 -440 0
-111 -264 -441 0
-112 -262 -442 0
-113 -263 -443 0
-114 -264 -444 0
-115 -262 -445 0
-116 -263 -446 0
-117 -264 -447 0
-118 -262 -448 0
-119 -263 -449 0
-120 -264 -450 0
-121 -262 -451 0
-122 -263 -452 0
-123 -264 -453 0
-124 -262 -454 0
-125 -263 -455 0
-126 -264 -456 0
-127 -262 -457 0
-128 -263 -458 0
-129 -264 -459 0
-130 -262 -460 0
-131 -263 -461 0
-132 -264 -462 0
-133 -262 -463 0
-134 -263 -464 0
-135 -264 -465 0
-136 -262 -466 0
-137 -263 -467 0
-138 -264 -468 0
-139 -262 -469 0
-140 -263 -470 0
-141 -264 -471 0
-142 -262 -472 0
-143 -263 -473 0
-144 -264 -474 0
-145 -262 -475 0
-146 -263 -476 0
-147 -264 -477 0
-148 -262 -478 0
-149 -263 -479 0
-150 -264 -480 0
-151 -262 -481 0
-152 -263 -482 0
-153 -264 -483 0
-154 -262 -484 0
-155 -263 -485 0
-156 -264 -486 0
-157 -262 -487 0
-158 -263 -488 0
-159 -264 -489 0
-160 -262 -490 0
-161 -263 -491 0
-162 -264 -492 0
-163 -262 -493 0
-164 -263 -494 0
-165 -264 -495 0
-166 -262 -496 0
-167 -263 -497 0
-168 -264 -498 0
-169 -262 -499 0
-170 -263 -500 0
-171 -264 -501 0
-172 -262 -502 0
-173 -263 -503 0
-174 -264 -504 0
-175 -262 -505 0
-176 -263 -506 0
-177 -264 -507 0
-178 -262 -508 0
-179 -263 -509 0
-180 -264 -510 0
-181 -262 -511 0
-182 -263 -512 0
-183 -264 -513 0
-184 -262 -514 0
-185 -263 -515 0
-186 -264 -516 0
-187 -262 -517 0
-188 -263 -518 0
-189 -264 -519 0
-190 -262 -520 0
-191 -263 -521 0
-192 -264 -522 0
-193 -262 -523 0
-194 -263 -524 0
-195 -264 -525 0
-196 -262 -526 0
-197 -263 -527 0
-198 -264 -528 0
-199 -262 -529 0
-200 -263 -530 0
-201 -264 -531 0
-202 -262 -532 0
-203 -263 -533 0
-204 -264 -534 0
-205 -262 -535 0
-206 -263 -536 0
-207 -264 -537 0
-208 -262 -538 0
-209 -263 -539 0
-210 -264 -540 0
-1 -274 -346 0
-2 -275 -347 0
-3 -276 -348 0
-4 -274 -349 0
-5 -275 -350 0
-6 -276 -351 0
-7 -274 -352 0
-8 -275 -353 0
-9 -276 -354 0
-10 -274 -355 0
-11 -275 -356 0
-12 -276 -357 0
-13 -274 -358 0
-14 -275 -359 0
-15 -276 -360 0
-16 -274 -361 0
-17 -275 -362 0
-18 -276 -363 0
-19 -274 -364 0
-20 -275 -365 0
-21 -276 -366 0
-22 -274 -367 0
-23 -275 -368 0
-24 -276 -369 0
-25 -274 -370 0
-26 -275 -371 0
-27 -276 -372 0
-28 -274 -373 0
-29 -275 -374 0
-30 -276 -375 0
-31 -274 -376 0
-32 -275 -377 0
-33 -276 -378 0
-34 -274 -379 0
-35 -275 -380 0
-36 -276 -381 0
-37 -274 -382 0
-38 -275 -383 0
-39 -276 -384 0
-40 -274 -385 0
-41 -275 -386 0
-42 -276 -387 0
-43 -274 -388 0
-44 -275 -389 0
-45 -276 -390 0
-46 -274 -391 0
-47 -275 -392 0
-48 -276 -393 0
-49 -274 -394 0
-50 -275 -395 0
-51 -276 -396 0
-52 -274 -397 0
-53 -275 -398 0
-54 -276 -399 0
-55 -274 -400 0
-56 -275 -401 0
-57 -276 -402 0
-58 -274 -403 0
-59 -275 -404 0
-60 -276 -405 0
-61 -274 -406 0
-62 -275 -407 0
-63 -276 -408 0
-64 -274 -409 0
-65 -275 -410 0
-66 -276 -411 0
-67 -274 -412 0
-68 -275 -413 0
-69 -276 -414 0
-70 -274 -415 0
-71 -275 -416 0
-72 -276 -417 0
-73 -274 -418 0
-74 -275 -419 0
-75 -276 -420 0
-76 -274 -421 0
-77 -275 -422 0
-78 -276 -423 0
-79 -274 -424 0
-80 -275 -425 0
-81 -276 -426 0
-82 -274 -427 0
-83 -275 -428 0
-84 -276 -429 0
-85 -274 -430 0
-86 -275 -431 0
-87 -276 -432 0
-88 -274 -433 0
-89 -275 -434 0
-90 -276 -435 0
-91 -274 -436 0
-92 -275 -437 0
-93 -276 -438 0
-94 -274 -439 0
-95 -275 -440 0
-96 -276 -441 0
-97 -274 -442 0
-98 -275 -443 0
-99 -276 -444 0
-100 -274 -445 0
-101 -275 -446 0
-102 -276 -447 0
-103 -274 -448 0
-104 -275 -449 0
-105 -276 -450 0
-106 -274 -451 0
-107 -275 -452 0
-108 -276 -453 0
-109 -274 -454 0
-110 -275 -455 0
-111 -276 -456 0
-112 -274 -457 0
-113 -275 -458 0
-114 -276 -459 0
-115 -274 -460 0
-116 -275 -461 0
-117 -276 -462 0
-118 -274 -463 0
-119 -275 -464 0
-120 -276 -465 0
-121 -274 -466 0
-122 -275 -467 0
-123 -276 -468 0
-124 -274 -469 0
-125 -275 -470 0
-126 -276 -471 0
-127 -274 -472 0
-128 -275 -473 0
-129 -276 -474 0
-130 -274 -475 0
-131 -275 -476 0
-132 -276 -477 0
-133 -274 -478 0
-134 -275 -479 0
-135 -276 -480 0
-136 -274 -481 0
-137 -275 -482 0
-138 -276 -483 0
-139 -274 -484 0
-140 -275 -485 0
-141 -276 -486 0
-142 -274 -487 0
-143 -275 -488 0
-144 -276 -489 0
-145 -274 -490 0
-146 -275 -491 0
-147 -276 -492 0
-148 -274 -493 0
-149 -275 -494 0
-150 -276 -495 0
-151 -274 -496 0
-152 -275 -497 0
-153 -276 -498 0
-154 -274 -499 0
-155 -275 -500 0
-156 -276 -501 0
-157 -274 -502 0
-158 -275 -503 0
-159 -276 -504 0
-160 -274 -505 0
-161 -275 -506 0
-162 -276 -507 0
-163 -274 -508 0
-164 -275 -509 0
-165 -276 -510 0
-166 -274 -511 0
-167 -275 -512 0
-168 -276 -513 0
-169 -274 -514 0
-170 -275 -515 0
-171 -276 -516 0
-172 -274 -517 0
-173 -275 -518 0
-174 -276 -519 0
-175 -274 -520 0
-176 -275 -521 0
-177 -276 -522 0
-178 -274 -523 0
-179 -275 -524 0
-180 -276 -525 0
-181 -274 -526 0
-182 -275 -527 0
-183 -276 -528 0
-184 -274 -529 0
-185 -275 -530 0
-186 -276 -531 0
-187 -274 -532 0
-188 -275 -533 0
-189 -276 -534 0
-190 -274 -535 0
-191 -275 -536 0
-192 -276 -537 0
-193 -274 -538 0
-194 -275 -539 0
-195 -276 -540 0
-1 -286 -361 0
-2 -287 -362 0
-3 -288 -363 0
-4 -286 -364 0
-5 -287 -365 0
-6 -288 -366 0
-7 -286 -367 0
-8 -287 -368 0
-9 -288 -369 0
-10 -286 -370 0
-11 -287 -371 0
-12 -288 -372 0
-13 -286 -373 0
-14 -287 -374 0
-15 -288 -375 0
-16 -286 -376 0
-17 -287 -377 0
-18 -288 -378 0
-19 -286 -379 0
-20 -287 -380 0
-21 -288 -381 0
-22 -286 -382 0
-23 -287 -383 0
-24 -288 -384 0
-25 -286 -385 0
-26 -287 -386 0
-27 -288 -387 0
-28 -286 -388 0
-29 -287 -389 0
-30 -288 -390 0
-31 -286 -391 0
-32 -287 -392 0
-33 -288 -393 0
-34 -286 -394 0
-35 -287 -395 0
-36 -288 -396 0
-37 -286 -397 0
-38 -287 -398 0
-39 -288 -399 0
-40 -286 -400 0
-41 -287 -401 0
-42 -288 -402 0
-43 -286 -403 0
-44 -287 -404 0
-45 -288 -405 0
-46 -286 -406 0
-47 -287 -407 0
-48 -288 -408 0
-49 -286 -409 0
-50 -287 -410 0
-51 -288 -411 0
-52 -286 -412 0
-53 -287 -413 0
-54 -288 -414 0
-55 -286 -415 0
-56 -287 -416 0
-57 -288 -417 0
-58 -286 -418 0
-59 -287 -419 0
-60 -288 -420 0
-61 -286 -421 0
-62 -287 -422 0
-63 -288 -423 0
-64 -286 -424 0
-65 -287 -425 0
-66 -288 -426 0
-67 -286 -427 0
-68 -287 -428 0
-69 -288 -429 0
-70 -286 -430 0
-71 -287 -431 0
-72 -288 -432 0
-73 -286 -433 0
-74 -287 -434 0
-75 -288 -435 0
-76 -286 -436 0
-77 -287 -437 0
-78 -288 -438 0
-79 -286 -439 0
-80 -287 -440 0
-81 -288 -441 0
-82 -286 -442 0
-83 -287 -443 0
-84 -288 -444 0
-85 -286 -445 0
-86 -287 -446 0
-87 -288 -447 0
-88 -286 -448 0
-89 -287 -449 0
-90 -288 -450 0
-91 -286 -451 0
-92 -287 -452 0
-93 -288 -453 0
-94 -286 -454 0
-95 -287 -455 0
-96 -288 -456 0
-97 -286 -457 0
-98 -287 -458 0
-99 -288 -459 0
-100 -286 -460 0
-101 -287 -461 0
-102 -288 -462 0
-103 -286 -463 0
-104 -287 -464 0
-105 -288 -465 0
-106 -286 -466 0
-107 -287 -467 0
-108 -288 -468 0
-109 -286 -469 0
-110 -287 -470 0
-111 -288 -471 0
-112 -286 -472 0
-113 -287 -473 0
-114 -288 -474 0
-115 -286 -475 0
-116 -287 -476 0
-117 -288 -477 0
-118 -286 -478 0
-119 -287 -479 0
-120 -288 -480 0
-121 -286 -481 0
-122 -287 -482 0
-123 -288 -483 0
-124 -286 -484 0
-125 -287 -485 0
-126 -288 -486 0
-127 -286 -487 0
-128 -287 -488 0
-129 -288 -489 0
-130 -286 -490 0
-131 -287 -491 0
-132 -288 -492 0
-133 -286 -493 0
-134 -287 -494 0
-135 -288 -495 0
-136 -286 -496 0
-137 -287 -497 0
-138 -288 -498 0
-139 -286 -499 0
-140 -287 -500 0
-141 -288 -501 0
-142 -286 -502 0
-143 -287 -503 0
-144 -288 -504 0
-145 -286 -505 0
-146 -287 -506 0
-147 -288 -507 0
-148 -286 -508 0
-149 -287 -509 0
-150 -288 -510 0
-151 -286 -511 0
-152 -287 -512 0
-153 -288 -513 0
-154 -286 -514 0
-155 -287 -515 0
-156 -288 -516 0
-157 -286 -517 0
-158 -287 -518 0
-159 -288 -519 0
-160 -286 -520 0
-161 -287 -521 0
-162 -288 -522 0
-163 -286 -523 0
-164 -287 -524 0
-165 -288 -525 0
-166 -286 -526 0
-167 -287 -527 0
-168 -288 -528 0
-169 -286 -529 0
-170 -287 -530 0
-171 -288 -531 0
-172 -286 -532 0
-173 -287 -533 0
-174 -288 -534 0
-175 -286 -535 0
-176 -287 -536 0
-177 -288 -537 0
-178 -286 -538 0
-179 -287 -539 0
-180 -288 -540 0
-1 -298 -376 0
-2 -299 -377 0
-3 -300 -378 0
-4 -298 -379 0
-5 -299 -380 0
-6 -300 -381 0
-7 -298 -382 0
-8 -299 -383 0
-9 -300 -384 0
-10 -298 -385 0
-11 -299 -386 0
-12 -300 -387 0
-13 -298 -388 0
-14 -299 -389 0
-15 -300 -390 0
-16 -298 -391 0
-17 -299 -392 0
-18 -300 -393 0
-19 -298 -394 0
-20 -299 -395 0
-21 -300 -396 0
-22 -298 -397 0
-23 -299 -398 0
-24 -300 -399 0
-25 -298 -400 0
-26 -299 -401 0
-27 -300 -402 0
-28 -298 -403 0
-29 -299 -404 0
-30 -300 -405 0
-31 -298 -406 0
-32 -299 -407 0
-33 -300 -408 0
-34 -298 -409 0
-35 -299 -410 0
-36 -300 -411 0
-37 -298 -412 0
-38 -299 -413 0
-39 -300 -414 0
-40 -298 -415 0
-41 -299 -416 0
-42 -300 -417 0
-43 -298 -418 0
-44 -299 -419 0
-45 -300 -420 0
-46 -298 -421 0
-47 -299 -422 0
-48 -300 -423 0
-49 -298 -424 0
-50 -299 -425 0
-51 -300 -426 0
-52 -298 -427 0
-53 -299 -428 0
-54 -300 -429 0
-55 -298 -430 0
-56 -299 -431 0
-57 -300 -432 0
-58 -298 -433 0
-59 -299 -434 0
-60 -300 -435 0
-61 -298 -436 0
-62 -299 -437 0
-63 -300 -438 0
-64 -298 -439 0
-65 -299 -440 0
-66 -300 -441 0
-67 -298 -442 0
-68 -299 -443 0
-69 -300 -444 0
-70 -298 -445 0
-71 -299 -446 0
-72 -300 -447 0
-73 -298 -448 0
-74 -299 -449 0
-75 -300 -450 0
-76 -298 -451 0
-77 -299 -452 0
-78 -300 -453 0
-79 -298 -454 0
-80 -299 -455 0
-81 -300 -456 0
-82 -298 -457 0
-83 -299 -458 0
-84 -300 -459 0
-85 -298 -460 0
-86 -299 -461 0
-87 -300 -462 0
-88 -298 -463 0
-89 -299 -464 0
-90 -300 -465 0
-91 -298 -466 0
-92 -299 -467 0
-93 -300 -468 0
-94 -298 -469 0
-95 -299 -470 0
-96 -300 -471 0
-97 -298 -472 0
-98 -299 -473 0
-99 -300 -474 0
-100 -298 -475 0
-101 -299 -476 0
-102 -300 -477 0
-103 -298 -478 0
-104 -299 -479 0
-105 -300 -480 0
-106 -298 -481 0
-107 -299 -482 0
-108 -300 -483 0
-109 -298 -484 0
-110 -299 -485 0
-111 -300 -486 0
-112 -298 -487 0
-113 -299 -488 0
-114 -300 -489 0
-115 -298 -490 0
-116 -299 -491 0
-117 -300 -492 0
-118 -298 -493 0
-119 -299 -494 0
-120 -300 -495 0
-121 -298 -496 0
-122 -299 -497 0
-123 -300 -498 0
-124 -298 -499 0
-125 -299 -500 0
-126 -300 -501 0
-127 -298 -502 0
-128 -299 -503 0
-129 -300 -504 0
-130 -298 -505 0
-131 -299 -506 0
-132 -300 -507 0
-133 -298 -508 0
-134 -299 -509 0
-135 -300 -510 0
-136 -298 -511 0
-137 -299 -512 0
-138 -300 -513 0
-139 -298 -514 0
-140 -299 -515 0
-141 -300 -516 0
-142 -298 -517 0
-143 -299 -518 0
-144 -300 -519 0
-145 -298 -520 0
-146 -299 -521 0
-147 -300 -522 0
-148 -298 -523 0
-149 -299 -524 0
-150 -300 -525 0
-151 -298 -526 0
-152 -299 -527 0
-153 -300 -528 0
-154 -298 -529 0
-155 -299 -530 0
-156 -300 -531 0
-157 -298 -532 0
-158 -299 -533 0
-159 -300 -534 0
-160 -298 -535 0
-161 -299 -536 0
-162 -300 -537 0
-163 -298 -538 0
-164 -299 -539 0
-165 -300 -540 0
-1 -310 -391 0
-2 -311 -392 0
-3 -312 -393 0
-4 -310 -394 0
-5 -311 -395 0
-6 -312 -396 0
-7 -310 -397 0
-8 -311 -398 0
-9 -312 -399 0
-10 -310 -400 0
-11 -311 -401 0
-12 -312 -402 0
-13 -310 -403 0
-14 -311 -404 0
-15 -312 -405 0
-16 -310 -406 0
-17 -311 -407 0
-18 -312 -408 0
-19 -310 -409 0
-20 -311 -410 0
-21 -312 -411 0
-22 -310 -412 0
-23 -311 -413 0
-24 -312 -414 0
-25 -310 -415 0
-26 -311 -416 0
-27 -312 -417 0
-28 -310 -418 0
-29 -311 -419 0
-30 -312 -420 0
-31 -310 -421 0
-32 -311 -422 0
-33 -312 -423 0
-34 -310 -424 0
-35 -311 -425 0
-36 -312 -426 0
-37 -310 -427 0
-38 -311 -428 0
-39 -312 -429 0
-40 -310 -430 0
-41 -311 -431 0
-42 -312 -432 0
-43 -310 -433 0
-44 -311 -434 0
-45 -312 -435 0
-46 -310 -436 0
-47 -311 -437 0
-48 -312 -438 0
-49 -310 -439 0
-50 -311 -440 0
-51 -312 -441 0
-52 -310 -442 0
-53 -311 -443 0
-54 -312 -444 0
-55 -310 -445 0
-56 -311 -446 0
-57 -312 -447 0
-58 -310 -448 0
-59 -311 -449 0
-60 -312 -450 0
-61 -310 -451 0
-62 -311 -452 0
-63 -312 -453 0
-64 -310 -454 0
-65 -311 -455 0
-66 -312 -456 0
-67 -310 -457 0
-68 -311 -458 0
-69 -312 -459 0
-70 -310 -460 0
-71 -311 -461 0
-72 -312 -462 0
-73 -310 -463 0
-74 -311 -464 0
-75 -312 -465 0
-76 -310 -466 0
-77 -311 -467 0
-78 -312 -468 0
-79 -310 -469 0
-80 -311 -470 0
-81 -312 -471 0
-82 -310 -472 0
-83 -311 -473 0
-84 -312 -474 0
-85 -310 -475 0
-86 -311 -476 0
-87 -312 -477 0
-88 -310 -478 0
-89 -311 -479 0
-90 -312 -480 0
-91 -310 -481 0
-92 -311 -482 0
-93 -312 -483 0
-94 -310 -484 0
-95 -311 -485 0
-96 -312 -486 0
-97 -310 -487 0
-98 -311 -488 0
-99 -312 -489 0
-100 -310 -490 0
-101 -311 -491 0
-102 -312 -492 0
-103 -310 -493 0
-104 -311 -494 0
-105 -312 -495 0
-106 -310 -496 0
-107 -311 -497 0
-108 -312 -498 0
-109 -310 -499 0
-110 -311 -500 0
-111 -312 -501 0
-112 -310 -502 0
-113 -311 -503 0
-114 -312 -504 0
-115 -310 -505 0
-116 -311 -506 0
-117 -312 -507 0
-118 -310 -508 0
-119 -311 -509 0
-120 -312 -510 0
-121 -310 -511 0
-122 -311 -512 0
-123 -312 -513 0
-124 -310 -514 0
-125 -311 -515 0
-126 -312 -516 0
-127 -310 -517 0
-128 -311 -518 0
-129 -312 -519 0
-130 -310 -520 0
-131 -311 -521 0
-132 -312 -522 0
-133 -310 -523 0
-134 -311 -524 0
-135 -312 -525 0
-136 -310 -526 0
-137 -311 -527 0
-138 -312 -528 0
-139 -310 -529 0
-140 -311 -530 0
-141 -312 -531 0
-142 -310 -532 0
-143 -311 -533 0
-144 -312 -534 0
-145 -310 -535 0
-146 -311 -536 0
-147 -312 -537 0
-148 -310 -538 0
-149 -311 -539 0
-150 -312 -540 0
-1 -322 -406 0
-2 -323 -407 0
-3 -324 -408 0
-4 -322 -409 0
-5 -323 -410 0
-6 -324 -411 0
-7 -322 -412 0
-8 -323 -413 0
-9 -324 -414 0
-10 -322 -415 0
-11 -323 -416 0
-12 -324 -417 0
-13 -322 -418 0
-14 -323 -419 0
-15 -324 -420 0
-16 -322 -421 0
-17 -323 -422 0
-18 -324 -423 0
-19 -322 -424 0
-20 -323 -425 0
-21 -324 -426 0
-22 -322 -427 0
-23 -323 -428 0
-24 -324 -429 0
-25 -322 -430 0
-26 -323 -431 0
-27 -324 -432 0
-28 -322 -433 0
-29 -323 -434 0
-30 -324 -435 0
-31 -322 -436 0
-32 -323 -437 0
-33 -324 -438 0
-34 -322 -439 0
-35 -323 -440 0
-36 -324 -441 0
-37 -322 -442 0
-38 -323 -443 0
-39 -324 -444 0
-40 -322 -445 0
-41 -323 -446 0
-42 -324 -447 0
-43 -322 -448 0
-44 -323 -449 0
-45 -324 -450 0
-46 -322 -451 0
-47 -323 -452 0
-48 -324 -453 0
-49 -322 -454 0
-50 -323 -455 0
-51 -324 -456 0
-52 -322 -457 0
-53 -323 -458 0
-54 -324 -459 0
-55 -322 -460 0
-56 -323 -461 0
-57 -324 -462 0
-58 -322 -463 0
-59 -323 -464 0
-60 -324 -465 0
-61 -322 -466 0
-62 -323 -467 0
-63 -324 -468 0
-64 -322 -469 0
-65 -323 -470 0
-66 -324 -471 0
-67 -322 -472 0
-68 -323 -473 0
-69 -324 -474 0
-70 -322 -475 0
-71 -323 -476 0
-72 -324 -477 0
-73 -322 -478 0
-74 -323 -479 0
-75 -324 -480 0
-76 -322 -481 0
-77 -323 -482 0
-78 -324 -483 0
-79 -322 -484 0
-80 -323 -485 0
-81 -324 -486 0
-82 -322 -487 0
-83 -323 -488 0
-84 -324 -489 0
-85 -322 -490 0
-86 -323 -491 0
-87 -324 -492 0
-88 -322 -493 0
-89 -323 -494 0
-90 -324 -495 0
-91 -322 -496 0
-92 -323 -497 0
-93 -324 -498 0
-94 -322 -499 0
-95 -323 -500 0
-96 -324 -501 0
-97 -322 -502 0
-98 -323 -503 0
-99 -324 -504 0
-100 -322 -505 0
-101 -323 -506 0
-102 -324 -507 0
-103 -322 -508 0
-104 -323 -509 0
-105 -324 -510 0
-106 -322 -511 0
-107 -323 -512 0
-108 -324 -513 0
-109 -322 -514 0
-110 -323 -515 0
-111 -324 -516 0
-112 -322 -517 0
-113 -323 -518 0
-114 -324 -519 0
-115 -322 -520 0
-116 -323 -521 0
-117 -324 -522 0
-118 -322 -523 0
-119 -323 -524 0
-120 -324 -525 0
-121 -322 -526 0
-122 -323 -527 0
-123 -324 -528 0
-124 -322 -529 0
-125 -323 -530 0
-126 -324 -531 0
-127 -322 -532 0
-128 -323 -533 0
-129 -324 -534 0
-130 -322 -535 0
-131 -323 -536 0
-132 -324 -537 0
-133 -322 -538 0
-134 -323 -539 0
-135 -324 -540 0
-1 -334 -421 0
-2 -335 -422 0
-3 -336 -423 0
-4 -334 -424 0
-5 -335 -425 0
-6 -336 -426 0
-7 -334 -427 0
-8 -335 -428 0
-9 -336 -429 0
-10 -334 -430 0
-11 -335 -431 0
-12 -336 -432 0
-13 -334 -433 0
-14 -335 -434 0
-15 -336 -435 0
-16 -334 -436 0
-17 -335 -437 0
-18 -336 -438 0
-19 -334 -439 0
-20 -335 -440 0
-21 -336 -441 0
-22 -334 -442 0
-23 -335 -443 0
-24 -336 -444 0
-25 -334 -445 0
-26 -335 -446 0
-27 -336 -447 0
-28 -334 -448 0
-29 -335 -449 0
-30 -336 -450 0
-31 -334 -451 0
-32 -335 -452 0
-33 -336 -453 0
-34 -334 -454 0
-35 -335 -455 0
-36 -336 -456 0
-37 -334 -457 0
-38 -335 -458 0
-39 -336 -459 0
-40 -334 -460 0
-41 -335 -461 0
-42 -336 -462 0
-43 -334 -463 0
-44 -335 -464 0
-45 -336 -465 0
-46 -334 -466 0
-47 -335 -467 0
-48 -336 -468 0
-49 -334 -469 0
-50 -335 -470 0
-51 -336 -471 0
-52 -334 -472 0
-53 -335 -473 0
-54 -336 -474 0
-55 -334 -475 0
-56 -335 -476 0
-57 -336 -477 0
-58 -334 -478 0
-59 -335 -479 0
-60 -336 -480 0
-61 -334 -481 0
-62 -335 -482 0
-63 -336 -483 0
-64 -334 -484 0
-65 -335 -485 0
-66 -336 -486 0
-67 -334 -487 0
-68 -335 -488 0
-69 -336 -489 0
-70 -334 -490 0
-71 -335 -491 0
-72 -336 -492 0
-73 -334 -493 0
-74 -335 -494 0
-75 -336 -495 0
-76 -334 -496 0
-77 -335 -497 0
-78 -336 -498 0
-79 -334 -499 0
-80 -335 -500 0
-81 -336 -501 0
-82 -334 -502 0
-83 -335 -503 0
-84 -336 -504 0
-85 -334 -505 0
-86 -335 -506 0
-87 -336 -507 0
-88 -334 -508 0
-89 -335 -509 0
-90 -336 -510 0
-91 -334 -511 0
-92 -335 -512 0
-93 -336 -513 0
-94 -334 -514 0
-95 -335 -515 0
-96 -336 -516 0
-97 -334 -517 0
-98 -335 -518 0
-99 -336 -519 0
-100 -334 -520 0
-101 -335 -521 0
-102 -336 -522 0
-103 -334 -523 0
-104 -335 -524 0
-105 -336 -525 0
-106 -334 -526 0
-107 -335 -527 0
-108 -336 -528 0
-109 -334 -529 0
-110 -335 -530 0
-111 -336 -531 0
-112 -334 -532 0
-113 -335 -533 0
-114 -336 -534 0
-115 -334 -535 0
-116 -335 -536 0
-117 -336 -537 0
-118 -334 -538 0
-119 -335 -539 0
-120 -336 -540 0
-1 -346 -436 0
-2 -347 -437 0
-3 -348 -438 0
-4 -346 -439 0
-5 -347 -440 0
-6 -348 -441 0
-7 -346 -442 0
-8 -347 -443 0
-9 -348 -444 0
-10 -346 -445 0
-11 -347 -446 0
-12 -348 -447 0
-13 -346 -448 0
-14 -347 -449 0
-15 -348 -450 0
-16 -346 -451 0
-17 -347 -452 0
-18 -348 -453 0
-19 -346 -454 0
-20 -347 -455 0
-21 -348 -456 0
-22 -346 -457 0
-23 -347 -458 0
-24 -348 -459 0
-25 -346 -460 0
-26 -347 -461 0
-27 -348 -462 0
-28 -346 -463 0
-29 -347 -464 0
-30 -348 -465 0
-31 -346 -466 0
-32 -347 -467 0
-33 -348 -468 0
-34 -346 -469 0
-35 -347 -470 0
-36 -348 -471 0
-37 -346 -472 0
-38 -347 -473 0
-39 -348 -474 0
-40 -346 -475 0
-41 -347 -476 0
-42 -348 -477 0
-43 -346 -478 0
-44 -347 -479 0
-45 -348 -480 0
-46 -346 -481 0
-47 -347 -482 0
-48 -348 -483 0
-49 -346 -484 0
-50 -347 -485 0
-51 -348 -486 0
-52 -346 -487 0
-53 -347 -488 0
-54 -348 -489 0
-55 -346 -490 0
-56 -347 -491 0
-57 -348 -492 0
-58 -346 -493 0
-59 -347 -494 0
-60 -348 -495 0
-61 -346 -496 0
-62 -347 -497 0
-63 -348 -498 0
-64 -346 -499 0
-65 -347 -500 0
-66 -348 -501 0
-67 -346 -502 0
-68 -347 -503 0
-69 -348 -504 0
-70 -346 -505 0
-71 -347 -506 0
-72 -348 -507 0
-73 -346 -508 0
-74 -347 -509 0
-75 -348 -510 0
-76 -346 -511 0
-77 -347 -512 0
-78 -348 -513 0
-79 -346 -514 0
-80 -347 -515 0
-81 -348 -516 0
-82 -346 -517 0
-83 -347 -518 0
-84 -348 -519 0
-85 -346 -520 0
-86 -347 -521 0
-87 -348 -522 0
-88 -346 -523 0
-89 -347 -524 0
-90 -348 -525 0
-91 -346 -526 0
-92 -347 -527 0
-93 -348 -528 0
-94 -346 -529 0
-95 -347 -530 0
-96 -348 -531 0
-97 -346 -532 0
-98 -347 -533 0
-99 -348 -534 0
-100 -346 -535 0
-101 -347 -536 0
-102 -348 -537 0
-103 -346 -538 0
-104 -347 -539 0
-105 -348 -540 0
-1 -358 -451 0
-2 -359 -452 0
-3 -360 -453 0
-4 -358 -454 0
-5 -359 -455 0
-6 -360 -456 0
-7 -358 -457 0
-8 -359 -458 0
-9 -360 -459 0
-10 -358 -460 0
-11 -359 -461 0
-12 -360 -462 0
-13 -358 -463 0
-14 -359 -464 0
-15 -360 -465 0
-16 -358 -466 0
-17 -359 -467 0
-18 -360 -468 0
-19 -358 -469 0
-20 -359 -470 0
-21 -360 -471 0
-22 -358 -472 0
-23 -359 -473 0
-24 -360 -474 0
-25 -358 -475 0
-26 -359 -476 0
-27 -360 -477 0
-28 -358 -478 0
-29 -359 -479 0
-30 -360 -480 0
-31 -358 -481 0
-32 -359 -482 0
-33 -360 -483 0
-34 -358 -484 0
-35 -359 -485 0
-36 -360 -486 0
-37 -358 -487 0
-38 -359 -488 0
-39 -360 -489 0
-40 -358 -490 0
-41 -359 -491 0
-42 -360 -492 0
-43 -358 -493 0
-44 -359 -494 0
-45 -360 -495 0
-46 -358 -496 0
-47 -359 -497 0
-48 -360 -498 0
-49 -358 -499 0
-50 -359 -500 0
-51 -360 -501 0
-52 -358 -502 0
-53 -359 -503 0
-54 -360 -504 0
-55 -358 -505 0
-56 -359 -506 0
-57 -360 -507 0
-58 -358 -508 0
-59 -359 -509 0
-60 -360 -510 0
-61 -358 -511 0
-62 -359 -512 0
-63 -360 -513 0
-64 -358 -514 0
-65 -359 -515 0
-66 -360 -516 0
-67 -358 -517 0
-68 -359 -518 0
-69 -360 -519 0
-70 -358 -520 0
-71 -359 -521 0
-72 -360 -522 0
-73 -358 -523 0
-74 -359 -524 0
-75 -360 -525 0
-76 -358 -526 0
-77 -359 -527 0
-78 -360 -528 0
-79 -358 -529 0
-80 -359 -530 0
-81 -360 -531 0
-82 -358 -532 0
-83 -359 -533 0
-84 -360 -534 0
-85 -358 -535 0
-86 -359 -536 0
-87 -360 -537 0
-88 -358 -538 0
-89 -359 -539 0
-90 -360 -540 0
-1 -370 -466 0
-2 -371 -467 0
-3 -372 -468 0
-4 -370 -469 0
-5 -371 -470 0
-6 -372 -471 0
-7 -370 -472 0
-8 -371 -473 0
-9 -372 -474 0
-10 -370 -475 0
-11 -371 -476 0
-12 -372 -477 0
-13 -370 -478 0
-14 -371 -479 0
-15 -372 -480 0
-16 -370 -481 0
-17 -371 -482 0
-18 -372 -483 0
-19 -370 -484 0
-20 -371 -485 0
-21 -372 -486 0
-22 -370 -487 0
-23 -371 -488 0
-24 -372 -489 0
-25 -370 -490 0
-26 -371 -491 0
-27 -372 -492 0
-28 -370 -493 0
-29 -371 -494 0
-30 -372 -495 0
-31 -370 -496 0
-32 -371 -497 0
-33 -372 -498 0
-34 -370 -499 0
-35 -371 -500 0
-36 -372 -501 0
-37 -370 -502 0
-38 -371 -503 0
-39 -372 -504 0
-40 -370 -505 0
-41 -371 -506 0
-42 -372 -507 0
-43 -370 -508 0
-44 -371 -509 0
-45 -372 -510 0
-46 -370 -511 0
-47 -371 -512 0
-48 -372 -513 0
-49 -370 -514 0
-50 -371 -515 0
-51 -372 -516 0
-52 -370 -517 0
-53 -371 -518 0
-54 -372 -519 0
-55 -370 -520 0
-56 -371 -521 0
-57 -372 -522 0
-58 -370 -523 0
-59 -371 -524 0
-60 -372 -525 0
-61 -370 -526 0
-62 -371 -527 0
-63 -372 -528 0
-64 -370 -529 0
-65 -371 -530 0
-66 -372 -531 0
-67 -370 -532 0
-68 -371 -533 0
-69 -372 -534 0
-70 -370 -535 0
-71 -371 -536 0
-72 -372 -537 0
-73 -370 -538 0
-74 -371 -539 0
-75 -372 -540 0
-1 -382 -481 0
-2 -383 -482 0
-3 -384 -483 0
-4 -382 -484 0
-5 -383 -485 0
-6 -384 -486 0
-7 -382 -487 0
-8 -383 -488 0
-9 -384 -489 0
-10 -382 -490 0
-11 -383 -491 0
-12 -384 -492 0
-13 -382 -493 0
-14 -383 -494 0
-15 -384 -495 0
-16 -382 -496 0
-17 -383 -497 0
-18 -384 -498 0
-19 -382 -499 0
-20 -383 -500 0
-21 -384 -501 0
-22 -382 -502 0
-23 -383 -503 0
-24 -384 -504 0
-25 -382 -505 0
-26 -383 -506 0
-27 -384 -507 0
-28 -382 -508 0
-29 -383 -509 0
-30 -384 -510 0
-31 -382 -511 0
-32 -383 -512 0
-33 -384 -513 0
-34 -382 -514 0
-35 -383 -515 0
-36 -384 -516 0
-37 -382 -517 0
-38 -383 -518 0
-39 -384 -519 0
-40 -382 -520 0
-41 -383 -521 0
-42 -384 -522 0
-43 -382 -523 0
-44 -383 -524 0
-45 -384 -525 0
-46 -382 -526 0
-47 -383 -527 0
-48 -384 -528 0
-49 -382 -529 0
-50 -383 -530 0
-51 -384 -531 0
-52 -382 -532 0
-53 -383 -533 0
-54 -384 -534 0
-55 -382 -535 0
-56 -383 -536 0
-57 -384 -537 0
-58 -382 -538 0
-59 -383 -539 0
-60 -384 -540 0
-1 -394 -496 0
-2 -395 -497 0
-3 -396 -498 0
-4 -394 -499 0
-5 -395 -500 0
-6 -396 -501 0
-7 -394 -502 0
-8 -395 -503 0
-9 -396 -504 0
-10 -394 -505 0
-11 -395 -506 0
-12 -396 -507 0
-13 -394 -508 0
-14 -395 -509 0
-15 -396 -510 0
-16 -394 -511 0
-17 -395 -512 0
-18 -396 -513 0
-19 -394 -514 0
-20 -395 -515 0
-21 -396 -516 0
-22 -394 -517 0
-23 -395 -518 0
-24 -396 -519 0
-25 -394 -520 0
-26 -395 -521 0
-27 -396 -522 0
-28 -394 -523 0
-29 -395 -524 0
-30 -396 -525 0
-31 -394 -526 0
-32 -395 -527 0
-33 -396 -528 0
-34 -394 -529 0
-35 -395 -530 0
-36 -396 -531 0
-37 -394 -532 0
-38 -395 -533 0
-39 -396 -534 0
-40 -394 -535 0
-41 -395 -536 0
-42 -396 -537 0
-43 -394 -538 0
-44 -395 -539 0
-45 -396 -540 0
-1 -406 -511 0
-2 -407 -512 0
-3 -408 -513 0
-4 -406 -514 0
-5 -407 -515 0
-6 -408 -516 0
-7 -406 -517 0
-8 -407 -518 0
-9 -408 -519 0
-10 -406 -520 0
-11 -407 -521 0
-12 -408 -522 0
-13 -406 -523 0
-14 -407 -524 0
-15 -408 -525 0
-16 -406 -526 0
-17 -407 -527 0
-18 -408 -528 0
-19 -406 -529 0
-20 -407 -530 0
-21 -408 -531 0
-22 -406 -532 0
-23 -407 -533 0
-24 -408 -534 0
-25 -406 -535 0
-26 -407 -536 0
-27 -408 -537 0
-28 -406 -538 0
-29 -407 -539 0
-30 -408 -540 0
-1 -418 -526 0
-2 -419 -527 0
-3 -420 -528 0
-4 -418 -529 0
-5 -419 -530 0
-6 -420 -531 0
-7 -418 -532 0
-8 -419 -533 0
-9 -420 -534 0
-10 -418 -535 0
-11 -419 -536 0
-12 -420 -537 0
-13 -418 -538 0
-14 -419 -539 0
-15 -420 -540 0
-1 -2 0
-1 -3 0
-2 -3 0
-4 -5 0
-4 -6 0
-5 -6 0
-7 -8 0
-7 -9 0
-8 -9 0
-10 -11 0
-10 -12 0
-11 -12 0
-13 -14 0
-13 -15 0
-14 -15 0
-16 -17 0
-16 -18 0
-17 -18 0
-19 -20 0
-19 -21 0
-20 -21 0
-22 -23 0
-22 -24 0
-23 -24 0
-25 -26 0
-25 -27 0
-26 -27 0
-28 -29 0
-28 -30 0
-29 -30 0
-31 -32 0
-31 -33 0
-32 -33 0
-34 -35 0
-34 -36 0
-35 -36 0
-37 -38 0
-37 -39 0
-38 -39 0
-40 -41 0
-40 -42 0
-41 -42 0
-43 -44 0
-43 -45 0
-44 -45 0
-46 -47 0
-46 -48 0
-47 -48 0
-49 -50 0
-49 -51 0
-50 -51 0
-52 -53 0
-52 -54 0
-53 -54 0
-55 -56 0
-55 -57 0
-56 -57 0
-58 -59 0
-58 -60 0
-59 -60 0
-61 -62 0
-61 -63 0
-62 -63 0
-64 -65 0
-64 -66 0
-65 -66 0
-67 -68 0
-67 -69 0
-68 -69 0
-70 -71 0
-70 -72 0
-71 -72 0
-73 -74 0
-73 -75 0
-74 -75 0
-76 -77 0
-76 -78 0
-77 -78 0
-79 -80 0
-79 -81 0
-80 -81 0
-82 -83 0
-82 -84 0
-83 -84 0
-85 -86 0
-85 -87 0
-86 -87 0
-88 -89 0
-88 -90 0
-89 -90 0
-91 -92 0
-91 -93 0
-92 -93 0
-94 -95 0
-94 -96 0
-95 -96 0
-97 -98 0
-97 -99 0
-98 -99 0
-100 -101 0
-100 -102 0
-101 -102 0
-103 -104 0
-103 -105 0
-104 -105 0
-106 -107 0
-106 -108 0
-107 -108 0
-109 -110 0
-109 -111 0
-110 -111 0
-112 -113 0
-112 -114 0
-113 -114 0
-115 -116 0
-115 -117 0
-116 -117 0
-118 -119 0
-118 -120 0
-119 -120 0
-121 -122 0
-121 -123 0
-122 -123 0
-124 -125 0
-124 -126 0
-125 -126 0
-127 -128 0
-127 -129 0
-128 -129 0
-130 -131 0
-130 -132 0
-131 -132 0
-133 -134 0
-133 -135 0
-134 -135 0
-136 -137 0
-136 -138 0
-137 -138 0
-139 -140 0
-139 -141 0
-140 -141 0
-142 -143 0
-142 -144 0
-143 -144 0
-145 -146 0
-145 -147 0
-146 -147 0
-148 -149 0
-148 -150 0
-149 -150 0
-151 -152 0
-151 -153 0
-152 -153 0
-154 -155 0
-154 -156 0
-155 -156 0
-157 -158 0
-157 -159 0
-158 -159 0
-160 -161 0
-160 -162 0
-161 -162 0
-163 -164 0
-163 -165 0
-164 -165 0
-166 -167 0
-166 -168 0
-167 -168 0
-169 -170 0
-169 -171 0
-170 -171 0
-172 -173 0
-172 -174 0
-173 -174 0
-175 -176 0
-175 -177 0
-176 -177 0
-178 -179 0
-178 -180 0
-179 -180 0
-181 -182 0
-181 -183 0
-182 -183 0
-184 -185 0
-184 -186 0
-185 -186 0
-187 -188 0
-187 -189 0
-188 -189 0
-190 -191 0
-190 -192 0
-191 -192 0
-193 -194 0
-193 -195 0
-194 -195 0
-196 -197 0
-196 -198 0
-197 -198 0
-199 -200 0
-199 -201 0
-200 -201 0
-202 -203 0
-202 -204 0
-203 -204 0
-205 -206 0
-205 -207 0
-206 -207 0
-208 -209 0
-208 -210 0
-209 -210 0
-211 -212 0
-211 -213 0
-212 -213 0
-214 -215 0
-214 -216 0
-215 -216 0
-217 -218 0
-217 -219 0
-218 -219 0
-220 -221 0
-220 -222 0
-221 -222 0
-223 -224 0
-223 -225 0
-224 -225 0
-226 -227 0
-226 -228 0
-227 -228 0
-229 -230 0
-229 -231 0
-230 -231 0
-232 -233 0
-232 -234 0
-233 -234 0
-235 -236 0
-235 -237 0
-236 -237 0
-238 -239 0
-238 -240 0
-239 -240 0
-241 -242 0
-241 -243 0
-242 -243 0
-244 -245 0
-244 -246 0
-245 -246 0
-247 -248 0
-247 -249 0
-248 -249 0
-250 -251 0
-250 -252 0
-251 -252 0
-253 -254 0
-253 -255 0
-254 -255 0
-256 -257 0
-256 -258 0
-257 -258 0
-259 -260 0
-259 -261 0
-260 -261 0
-262 -263 0
-262 -264 0
-263 -264 0
-265 -266 0
-265 -267 0
-266 -267 0
-268 -269 0
-268 -270 0
-269 -270 0
-271 -272 0
-271 -273 0
-272 -273 0
-274 -275 0
-274 -276 0
-275 -276 0
-277 -278 0
-277 -279 0
-278 -279 0
-280 -281 0
-280 -282 0
-281 -282 0
-283 -284 0
-283 -285 0
-284 -285 0
-286 -287 0
-286 -288 0
-287 -288 0
-289 -290 0
-289 -291 0
-290 -291 0
-292 -293 0
-292 -294 0
-293 -294 0
-295 -296 0
-295 -297 0
-296 -297 0
-298 -299 0
-298 -300 0
-299 -300 0
-301 -302 0
-301 -303 0
-302 -303 0
-304 -305 0
-304 -306 0
-305 -306 0
-307 -308 0
-307 -309 0
-308 -309 0
-310 -311 0
-310 -312 0
-311 -312 0
-313 -314 0
-313 -315 0
-314 -315 0
-316 -317 0
-316 -318 0
-317 -318 0
-319 -320 0
-319 -321 0
-320 -321 0
-322 -323 0
-322 -324 0
-323 -324 0
-325 -326 0
-325 -327 0
-326 -327 0
-328 -329 0
-328 -330 0
-329 -330 0
-331 -332 0
-331 -333 0
-332 -333 0
-334 -335 0
-334 -336 0
-335 -336 0
-337 -338 0
-337 -339 0
-338 -339 0
-340 -341 0
-340 -342 0
-341 -342 0
-343 -344 0
-343 -345 0
-344 -345 0
-346 -347 0
-346 -348 0
-347 -348 0
-349 -350 0
-349 -351 0
-350 -351 0
-352 -353 0
-352 -354 0
-353 -354 0
-355 -356 0
-355 -357 0
-356 -357 0
-358 -359 0
-358 -360 0
-359 -360 0
-361 -362 0
-361 -363 0
-362 -363 0
-364 -365 0
-364 -366 0
-365 -366 0
-367 -368 0
-367 -369 0
-368 -369 0
-370 -371 0
-370 -372 0
-371 -372 0
-373 -374 0
-373 -375 0
-374 -375 0
-376 -377 0
-376 -378 0
-377 -378 0
-379 -380 0
-379 -381 0
-380 -381 0
-382 -383 0
-382 -384 0
-383 -384 0
-385 -386 0
-385 -387 0
-386 -387 0
-388 -389 0
-388 -390 0
-389 -390 0
-391 -392 0
-391 -393 0
-392 -393 0
-394 -395 0
-394 -396 0
-395 -396 0
-397 -398 0
-397 -399 0
-398 -399 0
-400 -401 0
-400 -402 0
-401 -402 0
-403 -404 0
-403 -405 0
-404 -405 0
-406 -407 0
-406 -408 0
-407 -408 0
-409 -410 0
-409 -411 0
-410 -411 0
-412 -413 0
-412 -414 0
-413 -414 0
-415 -416 0
-415 -417 0
-416 -417 0
-418 -419 0
-418 -420 0
-419 -420 0
-421 -422 0
-421 -423 0
-422 -423 0
-424 -425 0
-424 -426 0
-425 -426 0
-427 -428 0
-427 -429 0
-428 -429 0
-430 -431 0
-430 -432 0
-431 -432 0
-433 -434 0
-433 -435 0
-434 -435 0
-436 -437 0
-436 -438 0
-437 -438 0
-439 -440 0
-439 -441 0
-440 -441 0
-442 -443 0
-442 -444 0
-443 -444 0
-445 -446 0
-445 -447 0
-446 -447 0
-448 -449 0
-448 -450 0
-449 -450 0
-451 -452 0
-451 -453 0
-452 -453 0
-454 -455 0
-454 -456 0
-455 -456 0
-457 -458 0
-457 -459 0
-458 -459 0
-460 -461 0
-460 -462 0
-461 -462 0
-463 -464 0
-463 -465 0
-464 -465 0
-466 -467 0
-466 -468 0
-467 -468 0
-469 -470 0
-469 -471 0
-470 -471 0
-472 -473 0
-472 -474 0
-473 -474 0
-475 -476 0
-475 -477 0
-476 -477 0
-478 -479 0
-478 -480 0
-479 -480 0
-481 -482 0
-481 -483 0
-482 -483 0
-484 -485 0
-484 -486 0
-485 -486 0
-487 -488 0
-487 -489 0
-488 -489 0
-490 -491 0
-490 -492 0
-491 -492 0
-493 -494 0
-493 -495 0
-494 -495 0
-496 -497 0
-496 -498 0
-497 -498 0
-499 -500 0
-499 -501 0
-500 -501 0
-502 -503 0
-502 -504 0
-503 -504 0
-505 -506 0
-505 -507 0
-506 -507 0
-508 -509 0
-508 -510 0
-509 -510 0
-511 -512 0
-511 -513 0
-512 -513 0
-514 -515 0
-514 -516 0
-515 -516 0
-517 -518 0
-517 -519 0
-518 -519 0
-520 -521 0
-520 -522 0
-521 -522 0
-523 -524 0
-523 -525 0
-524 -525 0
-526 -527 0
-526 -528 0
-527 -528 0
-529 -530 0
-529 -531 0
-530 -531 0
-532 -533 0
-532 -534 0
-533 -534 0
-535 -536 0
-535 -537 0
-536 -537 0
-538 -539 0
-538 -540 0
-539 -540 0
1 0
-5 1 0
-6 0
-8 1 4 0
-9 2 5 0
-11 1 4 7 0
-12 2 5 8 0
-14 1 4 7 10 0
-15 2 5 8 11 0
-17 1 4 7 10 13 0
-18 2 5 8 11 14 0
-20 1 4 7 10 13 16 0
-21 2 5 8 11 14 17 0
-23 1 4 7 10 13 16 19 0
-24 2 5 8 11 14 17 20 0
-26 1 4 7 10 13 16 19 22 0
-27 2 5 8 11 14 17 20 23 0
-29 1 4 7 10 13 16 19 22 25 0
-30 2 5 8 11 14 17 20 23 26 0
-32 1 4 7 10 13 16 19 22 25 28 0
-33 2 5 8 11 14 17 20 23 26 29 0
-35 1 4 7 10 13 16 19 22 25 28 31 0
-36 2 5 8 11 14 17 20 23 26 29 32 0
-38 1 4 7 10 13 16 19 22 25 28 31 34 0
-39 2 5 8 11 14 17 20 23 26 29 32 35 0
-41 1 4 7 10 13 16 19 22 25 28 31 34 37 0
-42 2 5 8 11 14 17 20 23 26 29 32 35 38 0
-44 1 4 7 10 13 16 19 22 25 28 31 34 37 40 0
-45 2 5 8 11 14 17 20 23 26 29 32 35 38 41 0
-47 1 4 7 10 13 16 19 22 25 28 31 34 37 40 43 0
-48 2 5 8 11 14 17 20 23 26 29 32 35 38 41 44 0
-50 1 4 7 10 13 16 19 22 25 28 31 34 37 40 43 46 0
-51 2 5 8 11 14 17 20 23 26 29 32 35 38 41 44 47 0
-53 1 4 7 10 13 16 19 22 25 28 31 34 37 40 43 46 49 0
-54 2 5 8 11 14 17 20 23 26 29 32 35 38 41 44 47 50 0
-56 1 4 7 10 13 16 19 22 25 28 31 34 37 40 43 46 49 52 0
-57 2 5 8 11 14 17 20 23 26 29 32 35 38 41 44 47 50 53 0
-59 1 4 7 10 13 16 19 22 25 28 31 34 37 40 43 46 49 52 55 0
-60 2 5 8 11 14 17 20 23 26 29 32 35 38 41 44 47 50 53 56 0
-62 1 4 7 10 13 16 19 22 25 28 31 34 37 40 43 46 49 52 55 58 0
-63 2 5 8 11 14 17 20 23 26 29 32 35 38 41 44 47 50 53 56 59 0
-65 1 4 7 10 13 16 19 22 25 28 31 34 37 40 43 46 49 52 55 58 61 0
-66 2 5 8 11 14 17 20 23 26 29 32 35 38 41 44 47 50 53 56 59 62 0
-68 1 4 7 10 13 16 19 22 25 28 31 34 37 40 43 46 49 52 55 58 61 64 0
-69 2 5 8 11 14 17 20 23 26 29 32 35 38 41 44 47 50 53 56 59 62 65 0
-71 1 4 7 10 13 16 19 22 25 28 31 34 37 40 43 46 49 52 55 58 61 64 67 0
-72 2 5 8 11 14 17 20 23 26 29 32 35 38 41 44 47 50 53 56 59 62 65 68 0
-74 1 4 7 10 13 16 19 22 25 28 31 34 37 40 43 46 49 52 55 58 61 64 67 70 0
-75 2 5 8 11 14 17 20 23 26 29 32 35 38 41 44 47 50 53 56 59 62 65 68 71 0
-77 1 4 7 10 13 16 19 22 25 28 31 34 37 40 43 46 49 52 55 58 61 64 67 70 73 0
-78 2 5 8 11 14 17 20 23 26 29 32 35 38 41 44 47 50 53 56 59 62 65 68 71 74 0
-80 1 4 7 10 13 16 19 22 25 28 31 34 37 40 43 46 49 52 55 58 61 64 67 70 73 76 0
-81 2 5 8 11 14 17 20 23 26 29 32 35 38 41 44 47 50 53 56 59 62 65 68 71 74 77 0
-83 1 4 7 10 13 16 19 22 25 28 31 34 37 40 43 46 49 52 55 58 61 64 67 70 73 76 79 0
-84 2 5 8 11 14 17 20 23 26 29 32 35 38 41 44 47 50 53 56 59 62 65 68 71 74 77 80 0
-86 1 4 7 10 13 16 19 22 25 28 31 34 37 40 43 46 49 52 55 58 61 64 67 70 73 76 79 82 0
-87 2 5 8 11 14 17 20 23 26 29 32 35 38 41 44 47 50 53 56 59 62 65 68 71 74 77 80 83 0
-89 1 4 7 10 13 16 19 22 25 28 31 34 37 40 43 46 49 52 55 58 61 64 67 70 73 76 79 82 85 0
-90 2 5 8 11 14 17 20 23 26 29 32 35 38 41 44 47 50 53 56 59 62 65 68 71 74 77 80 83 86 0
-92 1 4 7 10 13 16 19 22 25 28 31 34 37 40 43 46 49 52 55 58 61 64 67 70 73 76 79 82 85 88 0
-93 2 5 8 11 14 17 20 23 26 29 32 35 38 41 44 47 50 53 56 59 62 65 68 71 74 77 80 83 86 89 0
-95 1 4 7 10 13 16 19 22 25 28 31 34 37 40 43 46 49 52 55 58 61 64 67 70 73 76 79 82 85 88 91 0
-96 2 5 8 11 14 17 20 23 26 29 32 35 38 41 44 47 50 53 56 59 62 65 68 71 74 77 80 83 86 89 92 0
-98 1 4 7 10 13 16 19 22 25 28 31 34 37 40 43 46 49 52 55 58 61 64 67 70 73 76 79 82 85 88 91 94 0
-99 2 5 8 11 14 17 20 23 26 29 32 35 38 41 44 47 50 53 56 59 62 65 68 71 74 77 80 83 86 89 92 95 0
-101 1 4 7 10 13 16 19 22 25 28 31 34 37 40 43 46 49 52 55 58 61 64 67 70 73 76 79 82 85 88 91 94 97 0
-102 2 5 8 11 14 17 20 23 26 29 32 35 38 41 44 47 50 53 56 59 62 65 68 71 74 77 80 83 86 89 92 95 98 0
-104 1 4 7 10 13 16 19 22 25 28 31 34 37 40 43 46 49 52 55 58 61 64 67 70 73 76 79 82 85 88 91 94 97 100 0
-105 2 5 8 11 14 17 20 23 26 29 32 35 38 41 44 47 50 53 56 59 62 65 68 71 74 77 80 83 86 89 92 95 98 101 0
-107 1 4 7 10 13 16 19 22 25 28 31 34 37 40 43 46 49 52 55 58 61 64 67 70 73 76 79 82 85 88 91 94 97 100 103 0
-108 2 5 8 11 14 17 20 23 26 29 32 35 38 41 44 47 50 53 56 59 62 65 68 71 74 77 80 83 86 89 92 95 98 101 104 0
-110 1 4 7 10 13 16 19 22 25 28 31 34 37 40 43 46 49 52 55 58 61 64 67 70 73 76 79 82 85 88 91 94 97 100 103 106 0
-111 2 5 8 11 14 17 20 23 26 29 32 35 38 41 44 47 50 53 56 59 62 65 68 71 74 77 80 83 86 89 92 95 98 101 104 107 0
-113 1 4 7 10 13 16 19 22 25 28 31 34 37 40 43 46 49 52 55 58 61 64 67 70 73 76 79 82 85 88 91 94 97 100 103 106 109 0
-114 2 5 8 11 14 17 20 23 26 29 32 35 38 41 44 47 50 53 56 59 62 65 68 71 74 77 80 83 86 89 92 95 98 101 104 107 110 0
-116 1 4 7 10 13 16 19 22 25 28 31 34 37 40 43 46 49 52 55 58 61 64 67 70 73 76 79 82 85 88 91 94 97 100 103 106 109 112 0
-117 2 5 8 11 14 17 20 23 26 29 32 35 38 41 44 47 50 53 56 59 62 65 68 71 74 77 80 83 86 89 92 95 98 101 104 107 110 113 0
-119 1 4 7 10 13 16 19 22 25 28 31 34 37 40 43 46 49 52 55 58 61 64 67 70 73 76 79 82 85 88 91 94 97 100 103 106 109 112 115 0
-120 2 5 8 11 14 17 20 23 26 29 32 35 38 41 44 47 50 53 56 59 62 65 68 71 74 77 80 83 86 89 92 95 98 101 104 107 110 113 116 0
-122 1 4 7 10 13 16 19 22 25 28 31 34 37 40 43 46 49 52 55 58 61 64 67 70 73 76 79 82 85 88 91 94 97 100 103 106 109 112 115 118 0
-123 2 5 8 11 14 17 20 23 26 29 32 35 38 41 44 47 50 53 56 59 62 65 68 71 74 77 80 83 86 89 92 95 98 101 104 107 110 113 116 119 0
-125 1 4 7 10 13 16 19 22 25 28 31 34 37 40 43 46 49 52 55 58 61 64 67 70 73 76 79 82 85 88 91 94 97 100 103 106 109 112 115 118 121 0
-126 2 5 8 11 14 17 20 23 26 29 32 35 38 41 44 47 50 53 56 59 62 65 68 71 74 77 80 83 86 89 92 95 98 101 104 107 110 113 116 119 122 0
-128 1 4 7 10 13 16 19 22 25 28 31 34 37 40 43 46 49 52 55 58 61 64 67 70 73 76 79 82 85 88 91 94 97 100 103 106 109 112 115 118 121 124 0
-129 2 5 8 11 14 17 20 23 26 29 32 35 38 41 44 47 50 53 56 59 62 65 68 71 74 77 80 83 86 89 92 95 98 101 104 107 110 113 116 119 122 125 0
-131 1 4 7 10 13 16 19 22 25 28 31 34 37 40 43 46 49 52 55 58 61 64 67 70 73 76 79 82 85 88 91 94 97 100 103 106 109 112 115 118 121 124 127 0
-132 2 5 8 11 14 17 20 23 26 29 32 35 38 41 44 47 50 53 56 59 62 65 68 71 74 77 80 83 86 89 92 95 98 101 104 107 110 113 116 119 122 125 128 0
-134 1 4 7 10 13 16 19 22 25 28 31 34 37 40 43 46 49 52 55 58 61 64 67 70 73 76 79 82 85 88 91 94 97 100 103 106 109 112 115 118 121 124 127 130 0
-135 2 5 8 11 14 17 20 23 26 29 32 35 38 41 44 47 50 53 56 59 62 65 68 71 74 77 80 83 86 89 92 95 98 101 104 107 110 113 116 119 122 125 128 131 0
-137 1 4 7 10 13 16 19 22 25 28 31 34 37 40 43 46 49 52 55 58 61 64 67 70 73 76 79 82 85 88 91 94 97 100 103 106 109 112 115 118 121 124 127 130 133 0
-138 2 5 8 11 14 17 20 23 26 29 32 35 38 41 44 47 50 53 56 59 62 65 68 71 74 77 80 83 86 89 92 95 98 101 104 107 110 113 116 119 122 125 128 131 134 0
-140 1 4 7 10 13 16 19 22 25 28 31 34 37 40 43 46 49 52 55 58 61 64 67 70 73 76 79 82 85 88 91 94 97 100 103 106 109 112 115 118 121 124 127 130 133 136 0
-141 2 5 8 11 14 17 20 23 26 29 32 35 38 41 44 47 50 53 56 59 62 65 68 71 74 77 80 83 86 89 92 95 98 101 104 107 110 113 116 119 122 125 128 131 134 137 0
-143 1 4 7 10 13 16 19 22 25 28 31 34 37 40 43 46 49 52 55 58 61 64 67 70 73 76 79 82 85 88 91 94 97 100 103 106 109 112 115 118 121 124 127 130 133 136 139 0
-144 2 5 8 11 14 17 20 23 26 29 32 35 38 41 44 47 50 53 56 59 62 65 68 71 74 77 80 83 86 89 92 95 98 101 104 107 110 113 116 119 122 125 128 131 134 137 140 0
-146 1 4 7 10 13 16 19 22 25 28 31 34 37 40 43 46 49 52 55 58 61 64 67 70 73 76 79 82 85 88 91 94 97 100 103 106 109 112 115 118 121 124 127 130 133 136 139 142 0
-147 2 5 8 11 14 17 20 23 26 29 32 35 38 41 44 47 50 53 56 59 62 65 68 71 74 77 80 83 86 89 92 95 98 101 104 107 110 113 116 119 122 125 128 131 134 137 140 143 0
-149 1 4 7 10 13 16 19 22 25 28 31 34 37 40 43 46 49 52 55 58 61 64 67 70 73 76 79 82 85 88 91 94 97 100 103 106 109 112 115 118 121 124 127 130 133 136 139 142 145 0
-150 2 5 8 11 14 17 20 23 26 29 32 35 38 41 44 47 50 53 56 59 62 65 68 71 74 77 80 83 86 89 92 95 98 101 104 107 110 113 116 119 122 125 128 131 134 137 140 143 146 0
-152 1 4 7 10 13 16 19 22 25 28 31 34 37 40 43 46 49 52 55 58 61 64 67 70 73 76 79 82 85 88 91 94 97 100 103 106 109 112 115 118 121 124 127 130 133 136 139 142 145 148 0
-153 2 5 8 11 14 17 20 23 26 29 32 35 38 41 44 47 50 53 56 59 62 65 68 71 74 77 80 83 86 89 92 95 98 101 104 107 110 113 116 119 122 125 128 131 134 137 140 143 146 149 0
-155 1 4 7 10 13 16 19 22 25 28 31 34 37 40 43 46 49 52 55 58 61 64 67 70 73 76 79 82 85 88 91 94 97 100 103 106 109 112 115 118 121 124 127 130 133 136 139 142 145 148 151 0
-156 2 5 8 11 14 17 20 23 26 29 32 35 38 41 44 47 50 53 56 59 62 65 68 71 74 77 80 83 86 89 92 95 98 101 104 107 110 113 116 119 122 125 128 131 134 137 140 143 146 149 152 0
-158 1 4 7 10 13 16 19 22 25 28 31 34 37 40 43 46 49 52 55 58 61 64 67 70 73 76 79 82 85 88 91 94 97 100 103 106 109 112 115 118 121 124 127 130 133 136 139 142 145 148 151 154 0
-159 2 5 8 11 14 17 20 23 26 29 32 35 38 41 44 47 50 53 56 59 62 65 68 71 74 77 80 83 86 89 92 95 98 101 104 107 110 113 116 119 122 125 128 131 134 137 140 143 146 149 152 155 0
-161 1 4 7 10 13 16 19 22 25 28 31 34 37 40 43 46 49 52 55 58 61 64 67 70 73 76 79 82 85 88 91 94 97 100 103 106 109 112 115 118 121 124 127 130 133 136 139 142 145 148 151 154 157 0
-162 2 5 8 11 14 17 20 23 26 29 32 35 38 41 44 47 50 53 56 59 62 65 68 71 74 77 80 83 86 89 92 95 98 101 104 107 110 113 116 119 122 125 128 131 134 137 140 143 146 149 152 155 158 0
-164 1 4 7 10 13 16 19 22 25 28 31 34 37 40 43 46 49 52 55 58 61 64 67 70 73 76 79 82 85 88 91 94 97 100 103 106 109 112 115 118 121 124 127 130 133 136 139 142 145 148 151 154 157 160 0
-165 2 5 8 11 14 17 20 23 26 29 32 35 38 41 44 47 50 53 56 59 62 65 68 71 74 77 80 83 86 89 92 95 98 101 104 107 110 113 116 119 122 125 128 131 134 137 140 143 146 149 152 155 158 161 0
-167 1 4 7 10 13 16 19 22 25 28 31 34 37 40 43 46 49 52 55 58 61 64 67 70 73 76 79 82 85 88 91 94 97 100 103 106 109 112 115 118 121 124 127 130 133 136 139 142 145 148 151 154 157 160 163 0
-168 2 5 8 11 14 17 20 23 26 29 32 35 38 41 44 47 50 53 56 59 62 65 68 71 74 77 80 83 86 89 92 95 98 101 104 107 110 113 116 119 122 125 128 131 134 137 140 143 146 149 152 155 158 161 164 0
-170 1 4 7 10 13 16 19 22 25 28 31 34 37 40 43 46 49 52 55 58 61 64 67 70 73 76 79 82 85 88 91 94 97 100 103 106 109 112 115 118 121 124 127 130 133 136 139 142 145 148 151 154 157 160 163 166 0
-171 2 5 8 11 14 17 20 23 26 29 32 35 38 41 44 47 50 53 56 59 62 65 68 71 74 77 80 83 86 89 92 95 98 101 104 107 110 113 116 119 122 125 128 131 134 137 140 143 146 149 152 155 158 161 164 167 0
-173 1 4 7 10 13 16 19 22 25 28 31 34 37 40 43 46 49 52 55 58 61 64 67 70 73 76 79 82 85 88 91 94 97 100 103 106 109 112 115 118 121 124 127 130 133 136 139 142 145 148 151 154 157 160 163 166 169 0
-174 2 5 8 11 14 17 20 23 26 29 32 35 38 41 44 47 50 53 56 59 62 65 68 71 74 77 80 83 86 89 92 95 98 101 104 107 110 113 116 119 122 125 128 131 134 137 140 143 146 149 152 155 158 161 164 167 170 0
-176 1 4 7 10 13 16 19 22 25 28 31 34 37 40 43 46 49 52 55 58 61 64 67 70 73 76 79 82 85 88 91 94 97 100 103 106 109 112 115 118 121 124 127 130 133 136 139 142 145 148 151 154 157 160 163 166 169 172 0
-177 2 5 8 11 14 17 20 23 26 29 32 35 38 41 44 47 50 53 56 59 62 65 68 71 74 77 80 83 86 89 92 95 98 101 104 107 110 113 116 119 122 125 128 131 134 137 140 143 146 149 152 155 158 161 164 167 170 173 0
-179 1 4 7 10 13 16 19 22 25 28 31 34 37 40 43 46 49 52 55 58 61 64 67 70 73 76 79 82 85 88 91 94 97 100 103 106 109 112 115 118 121 124 127 130 133 136 139 142 145 148 151 154 157 160 163 166 169 172 175 0
-180 2 5 8 11 14 17 20 23 26 29 32 35 38 41 44 47 50 53 56 59 62 65 68 71 74 77 80 83 86 89 92 95 98 101 104 107 110 113 116 119 122 125 128 131 134 137 140 143 146 149 152 155 158 161 164 167 170 173 176 0
-182 1 4 7 10 13 16 19 22 25 28 31 34 37 40 43 46 49 52 55 58 61 64 67 70 73 76 79 82 85 88 91 94 97 100 103 106 109 112 115 118 121 124 127 130 133 136 139 142 145 148 151 154 157 160 163 166 169 172 175 178 0
-183 2 5 8 11 14 17 20 23 26 29 32 35 38 41 44 47 50 53 56 59 62 65 68 71 74 77 80 83 86 89 92 95 98 101 104 107 110 113 116 119 122 125 128 131 134 137 140 143 146 149 152 155 158 161 164 167 170 173 176 179 0
-185 1 4 7 10 13 16 19 22 25 28 31 34 37 40 43 46 49 52 55 58 61 64 67 70 73 76 79 82 85 88 91 94 97 100 103 106 109 112 115 118 121 124 127 130 133 136 139 142 145 148 151 154 157 160 163 166 169 172 175 178 181 0
-186 2 5 8 11 14 17 20 23 26 29 32 35 38 41 44 47 50 53 56 59 62 65 68 71 74 77 80 83 86 89 92 95 98 101 104 107 110 113 116 119 122 125 128 131 134 137 140 143 146 149 152 155 158 161 164 167 170 173 176 179 182 0
-188 1 4 7 10 13 16 19 22 25 28 31 34 37 40 43 46 49 52 55 58 61 64 67 70 73 76 79 82 85 88 91 94 97 100 103 106 109 112 115 118 121 124 127 130 133 136 139 142 145 148 151 154 157 160 163 166 169 172 175 178 181 184 0
-189 2 5 8 11 14 17 20 23 26 29 32 35 38 41 44 47 50 53 56 59 62 65 68 71 74 77 80 83 86 89 92 95 98 101 104 107 110 113 116 119 122 125 128 131 134 137 140 143 146 149 152 155 158 161 164 167 170 173 176 179 182 185 0
-191 1 4 7 10 13 16 19 22 25 28 31 34 37 40 43 46 49 52 55 58 61 64 67 70 73 76 79 82 85 88 91 94 97 100 103 106 109 112 115 118 121 124 127 130 133 136 139 142 145 148 151 154 157 160 163 166 169 172 175 178 181 184 187 0
-192 2 5 8 11 14 17 20 23 26 29 32 35 38 41 44 47 50 53 56 59 62 65 68 71 74 77 80 83 86 89 92 95 98 101 104 107 110 113 116 119 122 125 128 131 134 137 140 143 146 149 152 155 158 161 164 167 170 173 176 179 182 185 188 0
-194 1 4 7 10 13 16 19 22 25 28 31 34 37 40 43 46 49 52 55 58 61 64 67 70 73 76 79 82 85 88 91 94 97 100 103 106 109 112 115 118 121 124 127 130 133 136 139 142 145 148 151 154 157 160 163 166 169 172 175 178 181 184 187 190 0
-195 2 5 8 11 14 17 20 23 26 29 32 35 38 41 44 47 50 53 56 59 62 65 68 71 74 77 80 83 86 89 92 95 98 101 104 107 110 113 116 119 122 125 128 131 134 137 140 143 146 149 152 155 158 161 164 167 170 173 176 179 182 185 188 191 0
-197 1 4 7 10 13 16 19 22 25 28 31 34 37 40 43 46 49 52 55 58 61 64 67 70 73 76 79 82 85 88 91 94 97 100 103 106 109 112 115 118 121 124 127 130 133 136 139 142 145 148 151 154 157 160 163 166 169 172 175 178 181 184 187 190 193 0
-198 2 5 8 11 14 17 20 23 26 29 32 35 38 41 44 47 50 53 56 59 62 65 68 71 74 77 80 83 86 89 92 95 98 101 104 107 110 113 116 119 122 125 128 131 134 137 140 143 146 149 152 155 158 161 164 167 170 173 176 179 182 185 188 191 194 0
-200 1 4 7 10 13 16 19 22 25 28 31 34 37 40 43 46 49 52 55 58 61 64 67 70 73 76 79 82 85 88 91 94 97 100 103 106 109 112 115 118 121 124 127 130 133 136 139 142 145 148 151 154 157 160 163 166 169 172 175 178 181 184 187 190 193 196 0
-201 2 5 8 11 14 17 20 23 26 29 32 35 38 41 44 47 50 53 56 59 62 65 68 71 74 77 80 83 86 89 92 95 98 101 104 107 110 113 116 119 122 125 128 131 134 137 140 143 146 149 152 155 158 161 164 167 170 173 176 179 182 185 188 191 194 197 0
-203 1 4 7 10 13 16 19 22 25 28 31 34 37 40 43 46 49 52 55 58 61 64 67 70 73 76 79 82 85 88 91 94 97 100 103 106 109 112 115 118 121 124 127 130 133 136 139 142 145 148 151 154 157 160 163 166 169 172 175 178 181 184 187 190 193 196 199 0
-204 2 5 8 11 14 17 20 23 26 29 32 35 38 41 44 47 50 53 56 59 62 65 68 71 74 77 80 83 86 89 92 95 98 101 104 107 110 113 116 119 122 125 128 131 134 137 140 143 146 149 152 155 158 161 164 167 170 173 176 179 182 185 188 191 194 197 200 0
-206 1 4 7 10 13 16 19 22 25 28 31 34 37 40 43 46 49 52 55 58 61 64 67 70 73 76 79 82 85 88 91 94 97 100 103 106 109 112 115 118 121 124 127 130 133 136 139 142 145 148 151 154 157 160 163 166 169 172 175 178 181 184 187 190 193 196 199 202 0
-207 2 5 8 11 14 17 20 23 26 29 32 35 38 41 44 47 50 53 56 59 62 65 68 71 74 77 80 83 86 89 92 95 98 101 104 107 110 113 116 119 122 125 128 131 134 137 140 143 146 149 152 155 158 161 164 167 170 173 176 179 182 185 188 191 194 197 200 203 0
-209 1 4 7 10 13 16 19 22 25 28 31 34 37 40 43 46 49 52 55 58 61 64 67 70 73 76 79 82 85 88 91 94 97 100 103 106 109 112 115 118 121 124 127 130 133 136 139 142 145 148 151 154 157 160 163 166 169 172 175 178 181 184 187 190 193 196 199 202 205 0
-210 2 5 8 11 14 17 20 23 26 29 32 35 38 41 44 47 50 53 56 59 62 65 68 71 74 77 80 83 86 89 92 95 98 101 104 107 110 113 116 119 122 125 128 131 134 137 140 143 146 149 152 155 158 161 164 167 170 173 176 179 182 185 188 191 194 197 200 203 206 0
-212 1 4 7 10 13 16 19 22 25 28 31 34 37 40 43 46 49 52 55 58 61 64 67 70 73 76 79 82 85 88 91 94 97 100 103 106 109 112 115 118 121 124 127 130 133 136 139 142 145 148 151 154 157 160 163 166 169 172 175 178 181 184 187 190 193 196 199 202 205 208 0
-213 2 5 8 11 14 17 20 23 26 29 32 35 38 41 44 47 50 53 56 59 62 65 68 71 74 77 80 83 86 89 92 95 98 101 104 107 110 113 116 119 122 125 128 131 134 137 140 143 146 149 152 155 158 161 164 167 170 173 176 179 182 185 188 191 194 197 200 203 206 209 0
-215 1 4 7 10 13 16 19 22 25 28 31 34 37 40 43 46 49 52 55 58 61 64 67 70 73 76 79 82 85 88 91 94 97 100 103 106 109 112 115 118 121 124 127 130 133 136 139 142 145 148 151 154 157 160 163 166 169 172 175 178 181 184 187 190 193 196 199 202 205 208 211 0
-216 2 5 8 11 14 17 20 23 26 29 32 35 38 41 44 47 50 53 56 59 62 65 68 71 74 77 80 83 86 89 92 95 98 101 104 107 110 113 116 119 122 125 128 131 134 137 140 143 146 149 152 155 158 161 164 167 170 173 176 179 182 185 188 191 194 197 200 203 206 209 212 0
-218 1 4 7 10 13 16 19 22 25 28 31 34 37 40 43 46 49 52 55 58 61 64 67 70 73 76 79 82 85 88 91 94 97 100 103 106 109 112 115 118 121 124 127 130 133 136 139 142 145 148 151 154 157 160 163 166 169 172 175 178 181 184 187 190 193 196 199 202 205 208 211 214 0
-219 2 5 8 11 14 17 20 23 26 29 32 35 38 41 44 47 50 53 56 59 62 65 68 71 74 77 80 83 86 89 92 95 98 101 104 107 110 113 116 119 122 125 128 131 134 137 140 143 146 149 152 155 158 161 164 167 170 173 176 179 182 185 188 191 194 197 200 203 206 209 212 215 0
-221 1 4 7 10 13 16 19 22 25 28 31 34 37 40 43 46 49 52 55 58 61 64 67 70 73 76 79 82 85 88 91 94 97 100 103 106 109 112 115 118 121 124 127 130 133 136 139 142 145 148 151 154 157 160 163 166 169 172 175 178 181 184 187 190 193 196 199 202 205 208 211 214 217 0
-222 2 5 8 11 14 17 20 23 26 29 32 35 38 41 44 47 50 53 56 59 62 65 68 71 74 77 80 83 86 89 92 95 98 101 104 107 110 113 116 119 122 125 128 131 134 137 140 143 146 149 152 155 158 161 164 167 170 173 176 179 182 185 188 191 194 197 200 203 206 209 212 215 218 0
-224 1 4 7 10 13 16 19 22 25 28 31 34 37 40 43 46 49 52 55 58 61 64 67 70 73 76 79 82 85 88 91 94 97 100 103 106 109 112 115 118 121 124 127 130 133 136 139 142 145 148 151 154 157 160 163 166 169 172 175 178 181 184 187 190 193 196 199 202 205 208 211 214 217 220 0
-225 2 5 8 11 14 17 20 23 26 29 32 35 38 41 44 47 50 53 56 59 62 65 68 71 74 77 80 83 86 89 92 95 98 101 104 107 110 113 116 119 122 125 128 131 134 137 140 143 146 149 152 155 158 161 164 167 170 173 176 179 182 185 188 191 194 197 200 203 206 209 212 215 218 221 0
-227 1 4 7 10 13 16 19 22 25 28 31 34 37 40 43 46 49 52 55 58 61 64 67 70 73 76 79 82 85 88 91 94 97 100 103 106 109 112 115 118 121 124 127 130 133 136 139 142 145 148 151 154 157 160 163 166 169 172 175 178 181 184 187 190 193 196 199 202 205 208 211 214 217 220 223 0
-228 2 5 8 11 14 17 20 23 26 29 32 35 38 41 44 47 50 53 56 59 62 65 68 71 74 77 80 83 86 89 92 95 98 101 104 107 110 113 116 119 122 125 128 131 134 137 140 143 146 149 152 155 158 161 164 167 170 173 176 179 182 185 188 191 194 197 200 203 206 209 212 215 218 221 224 0
-230 1 4 7 10 13 16 19 22 25 28 31 34 37 40 43 46 49 52 55 58 61 64 67 70 73 76 79 82 85 88 91 94 97 100 103 106 109 112 115 118 121 124 127 130 133 136 139 142 145 148 151 154 157 160 163 166 169 172 175 178 181 184 187 190 193 196 199 202 205 208 211 214 217 220 223 226 0
-231 2 5 8 11 14 17 20 23 26 29 32 35 38 41 44 47 50 53 56 59 62 65 68 71 74 77 80 83 86 89 92 95 98 101 104 107 110 113 116 119 122 125 128 131 134 137 140 143 146 149 152 155 158 161 164 167 170 173 176 179 182 185 188 191 194 197 200 203 206 209 212 215 218 221 224 227 0
-233 1 4 7 10 13 16 19 22 25 28 31 34 37 40 43 46 49 52 55 58 61 64 67 70 73 76 79 82 85 88 91 94 97 100 103 106 109 112 115 118 121 124 127 130 133 136 139 142 145 148 151 154 157 160 163 166 169 172 175 178 181 184 187 190 193 196 199 202 205 208 211 214 217 220 223 226 229 0
-234 2 5 8 11 14 17 20 23 26 29 32 35 38 41 44 47 50 53 56 59 62 65 68 71 74 77 80 83 86 89 92 95 98 101 104 107 110 113 116 119 122 125 128 131 134 137 140 143 146 149 152 155 158 161 164 167 170 173 176 179 182 185 188 191 194 197 200 203 206 209 212 215 218 221 224 227 230 0
-236 1 4 7 10 13 16 19 22 25 28 31 34 37 40 43 46 49 52 55 58 61 64 67 70 73 76 79 82 85 88 91 94 97 100 103 106 109 112 115 118 121 124 127 130 133 136 139 142 145 148 151 154 157 160 163 166 169 172 175 178 181 184 187 190 193 196 199 202 205 208 211 214 217 220 223 226 229 232 0
-237 2 5 8 11 14 17 20 23 26 29 32 35 38 41 44 47 50 53 56 59 62 65 68 71 74 77 80 83 86 89 92 95 98 101 104 107 110 113 116 119 122 125 128 131 134 137 140 143 146 149 152 155 158 161 164 167 170 173 176 179 182 185 188 191 194 197 200 203 206 209 212 215 218 221 224 227 230 233 0
-239 1 4 7 10 13 16 19 22 25 28 31 34 37 40 43 46 49 52 55 58 61 64 67 70 73 76 79 82 85 88 91 94 97 100 103 106 109 112 115 118 121 124 127 130 133 136 139 142 145 148 151 154 157 160 163 166 169 172 175 178 181 184 187 190 193 196 199 202 205 208 211 214 217 220 223 226 229 232 235 0
-240 2 5 8 11 14 17 20 23 26 29 32 35 38 41 44 47 50 53 56 59 62 65 68 71 74 77 80 83 86 89 92 95 98 101 104 107 110 113 116 119 122 125 128 131 134 137 140 143 146 149 152 155 158 161 164 167 170 173 176 179 182 185 188 191 194 197 200 203 206 209 212 215 218 221 224 227 230 233 236 0
-242 1 4 7 10 13 16 19 22 25 28 31 34 37 40 43 46 49 52 55 58 61 64 67 70 73 76 79 82 85 88 91 94 97 100 103 106 109 112 115 118 121 124 127 130 133 136 139 142 145 148 151 154 157 160 163 166 169 172 175 178 181 184 187 190 193 196 199 202 205 208 211 214 217 220 223 226 229 232 235 238 0
-243 2 5 8 11 14 17 20 23 26 29 32 35 38 41 44 47 50 53 56 59 62 65 68 71 74 77 80 83 86 89 92 95 98 101 104 107 110 113 116 119 122 125 128 131 134 137 140 143 146 149 152 155 158 161 164 167 170 173 176 179 182 185 188 191 194 197 200 203 206 209 212 215 218 221 224 227 230 233 236 239 0
-245 1 4 7 10 13 16 19 22 25 28 31 34 37 40 43 46 49 52 55 58 61 64 67 70 73 76 79 82 85 88 91 94 97 100 103 106 109 112 115 118 121 124 127 130 133 136 139 142 145 148 151 154 157 160 163 166 169 172 175 178 181 184 187 190 193 196 199 202 205 208 211 214 217 220 223 226 229 232 235 238 241 0
-246 2 5 8 11 14 17 20 23 26 29 32 35 38 41 44 47 50 53 56 59 62 65 68 71 74 77 80 83 86 89 92 95 98 101 104 107 110 113 116 119 122 125 128 131 134 137 140 143 146 149 152 155 158 161 164 167 170 173 176 179 182 185 188 191 194 197 200 203 206 209 212 215 218 221 224 227 230 233 236 239 242 0
-248 1 4 7 10 13 16 19 22 25 28 31 34 37 40 43 46 49 52 55 58 61 64 67 70 73 76 79 82 85 88 91 94 97 100 103 106 109 112 115 118 121 124 127 130 133 136 139 142 145 148 151 154 157 160 163 166 169 172 175 178 181 184 187 190 193 196 199 202 205 208 211 214 217 220 223 226 229 232 235 238 241 244 0
-249 2 5 8 11 14 17 20 23 26 29 32 35 38 41 44 47 50 53 56 59 62 65 68 71 74 77 80 83 86 89 92 95 98 101 104 107 110 113 116 119 122 125 128 131 134 137 140 143 146 149 152 155 158 161 164 167 170 173 176 179 182 185 188 191 194 197 200 203 206 209 212 215 218 221 224 227 230 233 236 239 242 245 0
-251 1 4 7 10 13 16 19 22 25 28 31 34 37 40 43 46 49 52 55 58 61 64 67 70 73 76 79 82 85 88 91 94 97 100 103 106 109 112 115 118 121 124 127 130 133 136 139 142 145 148 151 154 157 160 163 166 169 172 175 178 181 184 187 190 193 196 199 202 205 208 211 214 217 220 223 226 229 232 235 238 241 244 247 0
-252 2 5 8 11 14 17 20 23 26 29 32 35 38 41 44 47 50 53 56 59 62 65 68 71 74 77 80 83 86 89 92 95 98 101 104 107 110 113 116 119 122 125 128 131 134 137 140 143 146 149 152 155 158 161 164 167 170 173 176 179 182 185 188 191 194 197 200 203 206 209 212 215 218 221 224 227 230 233 236 239 242 245 248 0
-254 1 4 7 10 13 16 19 22 25 28 31 34 37 40 43 46 49 52 55 58 61 64 67 70 73 76 79 82 85 88 91 94 97 100 103 106 109 112 115 118 121 124 127 130 133 136 139 142 145 148 151 154 157 160 163 166 169 172 175 178 181 184 187 190 193 196 199 202 205 208 211 214 217 220 223 226 229 232 235 238 241 244 247 250 0
-255 2 5 8 11 14 17 20 23 26 29 32 35 38 41 44 47 50 53 56 59 62 65 68 71 74 77 80 83 86 89 92 95 98 101 104 107 110 113 116 119 122 125 128 131 134 137 140 143 146 149 152 155 158 161 164 167 170 173 176 179 182 185 188 191 194 197 200 203 206 209 212 215 218 221 224 227 230 233 236 239 242 245 248 251 0
-257 1 4 7 10 13 16 19 22 25 28 31 34 37 40 43 46 49 52 55 58 61 64 67 70 73 76 79 82 85 88 91 94 97 100 103 106 109 112 115 118 121 124 127 130 133 136 139 142 145 148 151 154 157 160 163 166 169 172 175 178 181 184 187 190 193 196 199 202 205 208 211 214 217 220 223 226 229 232 235 238 241 244 247 250 253 0
-258 2 5 8 11 14 17 20 23 26 29 32 35 38 41 44 47 50 53 56 59 62 65 68 71 74 77 80 83 86 89 92 95 98 101 104 107 110 113 116 119 122 125 128 131 134 137 140 143 146 149 152 155 158 161 164 167 170 173 176 179 182 185 188 191 194 197 200 203 206 209 212 215 218 221 224 227 230 233 236 239 242 245 248 251 254 0
-260 1 4 7 10 13 16 19 22 25 28 31 34 37 40 43 46 49 52 55 58 61 64 67 70 73 76 79 82 85 88 91 94 97 100 103 106 109 112 115 118 121 124 127 130 133 136 139 142 145 148 151 154 157 160 163 166 169 172 175 178 181 184 187 190 193 196 199 202 205 208 211 214 217 220 223 226 229 232 235 238 241 244 247 250 253 256 0
-261 2 5 8 11 14 17 20 23 26 29 32 35 38 41 44 47 50 53 56 59 62 65 68 71 74 77 80 83 86 89 92 95 98 101 104 107 110 113 116 119 122 125 128 131 134 137 140 143 146 149 152 155 158 161 164 167 170 173 176 179 182 185 188 191 194 197 200 203 206 209 212 215 218 221 224 227 230 233 236 239 242 245 248 251 254 257 0
-263 1 4 7 10 13 16 19 22 25 28 31 34 37 40 43 46 49 52 55 58 61 64 67 70 73 76 79 82 85 88 91 94 97 100 103 106 109 112 115 118 121 124 127 130 133 136 139 142 145 148 151 154 157 160 163 166 169 172 175 178 181 184 187 190 193 196 199 202 205 208 211 214 217 220 223 226 229 232 235 238 241 244 247 250 253 256 259 0
-264 2 5 8 11 14 17 20 23 26 29 32 35 38 41 44 47 50 53 56 59 62 65 68 71 74 77 80 83 86 89 92 95 98 101 104 107 110 113 116 119 122 125 128 131 134 137 140 143 146 149 152 155 158 161 164 167 170 173 176 179 182 185 188 191 194 197 200 203 206 209 212 215 218 221 224 227 230 233 236 239 242 245 248 251 254 257 260 0
-266 1 4 7 10 13 16 19 22 25 28 31 34 37 40 43 46 49 52 55 58 61 64 67 70 73 76 79 82 85 88 91 94 97 100 103 106 109 112 115 118 121 124 127 130 133 136 139 142 145 148 151 154 157 160 163 166 169 172 175 178 181 184 187 190 193 196 199 202 205 208 211 214 217 220 223 226 229 232 235 238 241 244 247 250 253 256 259 262 0
-267 2 5 8 11 14 17 20 23 26 29 32 35 38 41 44 47 50 53 56 59 62 65 68 71 74 77 80 83 86 89 92 95 98 101 104 107 110 113 116 119 122 125 128 131 134 137 140 143 146 149 152 155 158 161 164 167 170 173 176 179 182 185 188 191 194 197 200 203 206 209 212 215 218 221 224 227 230 233 236 239 242 245 248 251 254 257 260 263 0
-269 1 4 7 10 13 16 19 22 25 28 31 34 37 40 43 46 49 52 55 58 61 64 67 70 73 76 79 82 85 88 91 94 97 100 103 106 109 112 115 118 121 124 127 130 133 136 139 142 145 148 151 154 157 160 163 166 169 172 175 178 181 184 187 190 193 196 199 202 205 208 211 214 217 220 223 226 229 232 235 238 241 244 247 250 253 256 259 262 265 0
-270 2 5 8 11 14 17 20 23 26 29 32 35 38 41 44 47 50 53 56 59 62 65 68 71 74 77 80 83 86 89 92 95 98 101 104 107 110 113 116 119 122 125 128 131 134 137 140 143 146 149 152 155 158 161 164 167 170 173 176 179 182 185 188 191 194 197 200 203 206 209 212 215 218 221 224 227 230 233 236 239 242 245 248 251 254 257 260 263 266 0
-272 1 4 7 10 13 16 19 22 25 28 31 34 37 40 43 46 49 52 55 58 61 64 67 70 73 76 79 82 85 88 91 94 97 100 103 106 109 112 115 118 121 124 127 130 133 136 139 142 145 148 151 154 157 160 163 166 169 172 175 178 181 184 187 190 193 196 199 202 205 208 211 214 217 220 223 226 229 232 235 238 241 244 247 250 253 256 259 262 265 268 0
-273 2 5 8 11 14 17 20 23 26 29 32 35 38 41 44 47 50 53 56 59 62 65 68 71 74 77 80 83 86 89 92 95 98 101 104 107 110 113 116 119 122 125 128 131 134 137 140 143 146 149 152 155 158 161 164 167 170 173 176 179 182 185 188 191 194 197 200 203 206 209 212 215 218 221 224 227 230 233 236 239 242 245 248 251 254 257 260 263 266 269 0
-275 1 4 7 10 13 16 19 22 25 28 31 34 37 40 43 46 49 52 55 58 61 64 67 70 73 76 79 82 85 88 91 94 97 100 103 106 109 112 115 118 121 124 127 130 133 136 139 142 145 148 151 154 157 160 163 166 169 172 175 178 181 184 187 190 193 196 199 202 205 208 211 214 217 220 223 226 229 232 235 238 241 244 247 250 253 256 259 262 265 268 271 0
-276 2 5 8 11 14 17 20 23 26 29 32 35 38 41 44 47 50 53 56 59 62 65 68 71 74 77 80 83 86 89 92 95 98 101 104 107 110 113 116 119 122 125 128 131 134 137 140 143 146 149 152 155 158 161 164 167 170 173 176 179 182 185 188 191 194 197 200 203 206 209 212 215 218 221 224 227 230 233 236 239 242 245 248 251 254 257 260 263 266 269 272 0
-278 1 4 7 10 13 16 19 22 25 28 31 34 37 40 43 46 49 52 55 58 61 64 67 70 73 76 79 82 85 88 91 94 97 100 103 106 109 112 115 118 121 124 127 130 133 136 139 142 145 148 151 154 157 160 163 166 169 172 175 178 181 184 187 190 193 196 199 202 205 208 211 214 217 220 223 226 229 232 235 238 241 244 247 250 253 256 259 262 265 268 271 274 0
-279 2 5 8 11 14 17 20 23 26 29 32 35 38 41 44 47 50 53 56 59 62 65 68 71 74 77 80 83 86 89 92 95 98 101 104 107 110 113 116 119 122 125 128 131 134 137 140 143 146 149 152 155 158 161 164 167 170 173 176 179 182 185 188 191 194 197 200 203 206 209 212 215 218 221 224 227 230 233 236 239 242 245 248 251 254 257 260 263 266 269 272 275 0
-281 1 4 7 10 13 16 19 22 25 28 31 34 37 40 43 46 49 52 55 58 61 64 67 70 73 76 79 82 85 88 91 94 97 100 103 106 109 112 115 118 121 124 127 130 133 136 139 142 145 148 151 154 157 160 163 166 169 172 175 178 181 184 187 190 193 196 199 202 205 208 211 214 217 220 223 226 229 232 235 238 241 244 247 250 253 256 259 262 265 268 271 274 277 0
-282 2 5 8 11 14 17 20 23 26 29 32 35 38 41 44 47 50 53 56 59 62 65 68 71 74 77 80 83 86 89 92 95 98 101 104 107 110 113 116 119 122 125 128 131 134 137 140 143 146 149 152 155 158 161 164 167 170 173 176 179 182 185 188 191 194 197 200 203 206 209 212 215 218 221 224 227 230 233 236 239 242 245 248 251 254 257 260 263 266 269 272 275 278 0
-284 1 4 7 10 13 16 19 22 25 28 31 34 37 40 43 46 49 52 55 58 61 64 67 70 73 76 79 82 85 88 91 94 97 100 103 106 109 112 115 118 121 124 127 130 133 136 139 142 145 148 151 154 157 160 163 166 169 172 175 178 181 184 187 190 193 196 199 202 205 208 211 214 217 220 223 226 229 232 235 238 241 244 247 250 253 256 259 262 265 268 271 274 277 280 0
-285 2 5 8 11 14 17 20 23 26 29 32 35 38 41 44 47 50 53 56 59 62 65 68 71 74 77 80 83 86 89 92 95 98 101 104 107 110 113 116 119 122 125 128 131 134 137 140 143 146 149 152 155 158 161 164 167 170 173 176 179 182 185 188 191 194 197 200 203 206 209 212 215 218 221 224 227 230 233 236 239 242 245 248 251 254 257 260 263 266 269 272 275 278 281 0
-287 1 4 7 10 13 16 19 22 25 28 31 34 37 40 43 46 49 52 55 58 61 64 67 70 73 76 79 82 85 88 91 94 97 100 103 106 109 112 115 118 121 124 127 130 133 136 139 142 145 148 151 154 157 160 163 166 169 172 175 178 181 184 187 190 193 196 199 202 205 208 211 214 217 220 223 226 229 232 235 238 241 244 247 250 253 256 259 262 265 268 271 274 277 280 283 0
-288 2 5 8 11 14 17 20 23 26 29 32 35 38 41 44 47 50 53 56 59 62 65 68 71 74 77 80 83 86 89 92 95 98 101 104 107 110 113 116 119 122 125 128 131 134 137 140 143 146 149 152 155 158 161 164 167 170 173 176 179 182 185 188 191 194 197 200 203 206 209 212 215 218 221 224 227 230 233 236 239 242 245 248 251 254 257 260 263 266 269 272 275 278 281 284 0
-290 1 4 7 10 13 16 19 22 25 28 31 34 37 40 43 46 49 52 55 58 61 64 67 70 73 76 79 82 85 88 91 94 97 100 103 106 109 112 115 118 121 124 127 130 133 136 139 142 145 148 151 154 157 160 163 166 169 172 175 178 181 184 187 190 193 196 199 202 205 208 211 214 217 220 223 226 229 232 235 238 241 244 247 250 253 256 259 262 265 268 271 274 277 280 283 286 0
-291 2 5 8 11 14 17 20 23 26 29 32 35 38 41 44 47 50 53 56 59 62 65 68 71 74 77 80 83 86 89 92 95 98 101 104 107 110 113 116 119 122 125 128 131 134 137 140 143 146 149 152 155 158 161 164 167 170 173 176 179 182 185 188 191 194 197 200 203 206 209 212 215 218 221 224 227 230 233 236 239 242 245 248 251 254 257 260 263 266 269 272 275 278 281 284 287 0
-293 1 4 7 10 13 16 19 22 25 28 31 34 37 40 43 46 49 52 55 58 61 64 67 70 73 76 79 82 85 88 91 94 97 100 103 106 109 112 115 118 121 124 127 130 133 136 139 142 145 148 151 154 157 160 163 166 169 172 175 178 181 184 187 190 193 196 199 202 205 208 211 214 217 220 223 226 229 232 235 238 241 244 247 250 253 256 259 262 265 268 271 274 277 280 283 286 289 0
-294 2 5 8 11 14 17 20 23 26 29 32 35 38 41 44 47 50 53 56 59 62 65 68 71 74 77 80 83 86 89 92 95 98 101 104 107 110 113 116 119 122 125 128 131 134 137 140 143 146 149 152 155 158 161 164 167 170 173 176 179 182 185 188 191 194 197 200 203 206 209 212 215 218 221 224 227 230 233 236 239 242 245 248 251 254 257 260 263 266 269 272 275 278 281 284 287 290 0
-296 1 4 7 10 13 16 19 22 25 28 31 34 37 40 43 46 49 52 55 58 61 64 67 70 73 76 79 82 85 88 91 94 97 100 103 106 109 112 115 118 121 124 127 130 133 136 139 142 145 148 151 154 157 160 163 166 169 172 175 178 181 184 187 190 193 196 199 202 205 208 211 214 217 220 223 226 229 232 235 238 241 244 247 250 253 256 259 262 265 268 271 274 277 280 283 286 289 292 0
-297 2 5 8 11 14 17 20 23 26 29 32 35 38 41 44 47 50 53 56 59 62 65 68 71 74 77 80 83 86 89 92 95 98 101 104 107 110 113 116 119 122 125 128 131 134 137 140 143 146 149 152 155 158 161 164 167 170 173 176 179 182 185 188 191 194 197 200 203 206 209 212 215 218 221 224 227 230 233 236 239 242 245 248 251 254 257 260 263 266 269 272 275 278 281 284 287 290 293 0
-299 1 4 7 10 13 16 19 22 25 28 31 34 37 40 43 46 49 52 55 58 61 64 67 70 73 76 79 82 85 88 91 94 97 100 103 106 109 112 115 118 121 124 127 130 133 136 139 142 145 148 151 154 157 160 163 166 169 172 175 178 181 184 187 190 193 196 199 202 205 208 211 214 217 220 223 226 229 232 235 238 241 244 247 250 253 256 259 262 265 268 271 274 277 280 283 286 289 292 295 0
-300 2 5 8 11 14 17 20 23 26 29 32 35 38 41 44 47 50 53 56 59 62 65 68 71 74 77 80 83 86 89 92 95 98 101 104 107 110 113 116 119 122 125 128 131 134 137 140 143 146 149 152 155 158 161 164 167 170 173 176 179 182 185 188 191 194 197 200 203 206 209 212 215 218 221 224 227 230 233 236 239 242 245 248 251 254 257 260 263 266 269 272 275 278 281 284 287 290 293 296 0
-302 1 4 7 10 13 16 19 22 25 28 31 34 37 40 43 46 49 52 55 58 61 64 67 70 73 76 79 82 85 88 91 94 97 100 103 106 109 112 115 118 121 124 127 130 133 136 139 142 145 148 151 154 157 160 163 166 169 172 175 178 181 184 187 190 193 196 199 202 205 208 211 214 217 220 223 226 229 232 235 238 241 244 247 250 253 256 259 262 265 268 271 274 277 280 283 286 289 292 295 298 0
-303 2 5 8 11 14 17 20 23 26 29 32 35 38 41 44 47 50 53 56 59 62 65 68 71 74 77 80 83 86 89 92 95 98 101 104 107 110 113 116 119 122 125 128 131 134 137 140 143 146 149 152 155 158 161 164 167 170 173 176 179 182 185 188 191 194 197 200 203 206 209 212 215 218 221 224 227 230 233 236 239 242 245 248 251 254 257 260 263 266 269 272 275 278 281 284 287 290 293 296 299 0
-305 1 4 7 10 13 16 19 22 25 28 31 34 37 40 43 46 49 52 55 58 61 64 67 70 73 76 79 82 85 88 91 94 97 100 103 106 109 112 115 118 121 124 127 130 133 136 139 142 145 148 151 154 157 160 163 166 169 172 175 178 181 184 187 190 193 196 199 202 205 208 211 214 217 220 223 226 229 232 235 238 241 244 247 250 253 256 259 262 265 268 271 274 277 280 283 286 289 292 295 298 301 0
-306 2 5 8 11 14 17 20 23 26 29 32 35 38 41 44 47 50 53 56 59 62 65 68 71 74 77 80 83 86 89 92 95 98 101 104 107 110 113 116 119 122 125 128 131 134 137 140 143 146 149 152 155 158 161 164 167 170 173 176 179 182 185 188 191 194 197 200 203 206 209 212 215 218 221 224 227 230 233 236 239 242 245 248 251 254 257 260 263 266 269 272 275 278 281 284 287 290 293 296 299 302 0
-308 1 4 7 10 13 16 19 22 25 28 31 34 37 40 43 46 49 52 55 58 61 64 67 70 73 76 79 82 85 88 91 94 97 100 103 106 109 112 115 118 121 124 127 130 133 136 139 142 145 148 151 154 157 160 163 166 169 172 175 178 181 184 187 190 193 196 199 202 205 208 211 214 217 220 223 226 229 232 235 238 241 244 247 250 253 256 259 262 265 268 271 274 277 280 283 286 289 292 295 298 301 304 0
-309 2 5 8 11 14 17 20 23 26 29 32 35 38 41 44 47 50 53 56 59 62 65 68 71 74 77 80 83 86 89 92 95 98 101 104 107 110 113 116 119 122 125 128 131 134 137 140 143 146 149 152 155 158 161 164 167 170 173 176 179 182 185 188 191 194 197 200 203 206 209 212 215 218 221 224 227 230 233 236 239 242 245 248 251 254 257 260 263 266 269 272 275 278 281 284 287 290 293 296 299 302 305 0
-311 1 4 7 10 13 16 19 22 25 28 31 34 37 40 43 46 49 52 55 58 61 64 67 70 73 76 79 82 85 88 91 94 97 100 103 106 109 112 115 118 121 124 127 130 133 136 139 142 145 148 151 154 157 160 163 166 169 172 175 178 181 184 187 190 193 196 199 202 205 208 211 214 217 220 223 226 229 232 235 238 241 244 247 250 253 256 259 262 265 268 271 274 277 280 283 286 289 292 295 298 301 304 307 0
-312 2 5 8 11 14 17 20 23 26 29 32 35 38 41 44 47 50 53 56 59 62 65 68 71 74 77 80 83 86 89 92 95 98 101 104 107 110 113 116 119 122 125 128 131 134 137 140 143 146 149 152 155 158 161 164 167 170 173 176 179 182 185 188 191 194 197 200 203 206 209 212 215 218 221 224 227 230 233 236 239 242 245 248 251 254 257 260 263 266 269 272 275 278 281 284 287 290 293 296 299 302 305 308 0
-314 1 4 7 10 13 16 19 22 25 28 31 34 37 40 43 46 49 52 55 58 61 64 67 70 73 76 79 82 85 88 91 94 97 100 103 106 109 112 115 118 121 124 127 130 133 136 139 142 145 148 151 154 157 160 163 166 169 172 175 178 181 184 187 190 193 196 199 202 205 208 211 214 217 220 223 226 229 232 235 238 241 244 247 250 253 256 259 262 265 268 271 274 277 280 283 286 289 292 295 298 301 304 307 310 0
-315 2 5 8 11 14 17 20 23 26 29 32 35 38 41 44 47 50 53 56 59 62 65 68 71 74 77 80 83 86 89 92 95 98 101 104 107 110 113 116 119 122 125 128 131 134 137 140 143 146 149 152 155 158 161 164 167 170 173 176 179 182 185 188 191 194 197 200 203 206 209 212 215 218 221 224 227 230 233 236 239 242 245 248 251 254 257 260 263 266 269 272 275 278 281 284 287 290 293 296 299 302 305 308 311 0
-317 1 4 7 10 13 16 19 22 25 28 31 34 37 40 43 46 49 52 55 58 61 64 67 70 73 76 79 82 85 88 91 94 97 100 103 106 109 112 115 118 121 124 127 130 133 136 139 142 145 148 151 154 157 160 163 166 169 172 175 178 181 184 187 190 193 196 199 202 205 208 211 214 217 220 223 226 229 232 235 238 241 244 247 250 253 256 259 262 265 268 271 274 277 280 283 286 289 292 295 298 301 304 307 310 313 0
-318 2 5 8 11 14 17 20 23 26 29 32 35 38 41 44 47 50 53 56 59 62 65 68 71 74 77 80 83 86 89 92 95 98 101 104 107 110 113 116 119 122 125 128 131 134 137 140 143 146 149 152 155 158 161 164 167 170 173 176 179 182 185 188 191 194 197 200 203 206 209 212 215 218 221 224 227 230 233 236 239 242 245 248 251 254 257 260 263 266 269 272 275 278 281 284 287 290 293 296 299 302 305 308 311 314 0
-320 1 4 7 10 13 16 19 22 25 28 31 34 37 40 43 46 49 52 55 58 61 64 67 70 73 76 79 82 85 88 91 94 97 100 103 106 109 112 115 118 121 124 127 130 133 136 139 142 145 148 151 154 157 160 163 166 169 172 175 178 181 184 187 190 193 196 199 202 205 208 211 214 217 220 223 226 229 232 235 238 241 244 247 250 253 256 259 262 265 268 271 274 277 280 283 286 289 292 295 298 301 304 307 310 313 316 0
-321 2 5 8 11 14 17 20 23 26 29 32 35 38 41 44 47 50 53 56 59 62 65 68 71 74 77 80 83 86 89 92 95 98 101 104 107 110 113 116 119 122 125 128 131 134 137 140 143 146 149 152 155 158 161 164 167 170 173 176 179 182 185 188 191 194 197 200 203 206 209 212 215 218 221 224 227 230 233 236 239 242 245 248 251 254 257 260 263 266 269 272 275 278 281 284 287 290 293 296 299 302 305 308 311 314 317 0
-323 1 4 7 10 13 16 19 22 25 28 31 34 37 40 43 46 49 52 55 58 61 64 67 70 73 76 79 82 85 88 91 94 97 100 103 106 109 112 115 118 121 124 127 130 133 136 139 142 145 148 151 154 157 160 163 166 169 172 175 178 181 184 187 190 193 196 199 202 205 208 211 214 217 220 223 226 229 232 235 238 241 244 247 250 253 256 259 262 265 268 271 274 277 280 283 286 289 292 295 298 301 304 307 310 313 316 319 0
-324 2 5 8 11 14 17 20 23 26 29 32 35 38 41 44 47 50 53 56 59 62 65 68 71 74 77 80 83 86 89 92 95 98 101 104 107 110 113 116 119 122 125 128 131 134 137 140 143 146 149 152 155 158 161 164 167 170 173 176 179 182 185 188 191 194 197 200 203 206 209 212 215 218 221 224 227 230 233 236 239 242 245 248 251 254 257 260 263 266 269 272 275 278 281 284 287 290 293 296 299 302 305 308 311 314 317 320 0
-326 1 4 7 10 13 16 19 22 25 28 31 34 37 40 43 46 49 52 55 58 61 64 67 70 73 76 79 82 85 88 91 94 97 100 103 106 109 112 115 118 121 124 127 130 133 136 139 142 145 148 151 154 157 160 163 166 169 172 175 178 181 184 187 190 193 196 199 202 205 208 211 214 217 220 223 226 229 232 235 238 241 244 247 250 253 256 259 262 265 268 271 274 277 280 283 286 289 292 295 298 301 304 307 310 313 316 319 322 0
-327 2 5 8 11 14 17 20 23 26 29 32 35 38 41 44 47 50 53 56 59 62 65 68 71 74 77 80 83 86 89 92 95 98 101 104 107 110 113 116 119 122 125 128 131 134 137 140 143 146 149 152 155 158 161 164 167 170 173 176 179 182 185 188 191 194 197 200 203 206 209 212 215 218 221 224 227 230 233 236 239 242 245 248 251 254 257 260 263 266 269 272 275 278 281 284 287 290 293 296 299 302 305 308 311 314 317 320 323 0
-329 1 4 7 10 13 16 19 22 25 28 31 34 37 40 43 46 49 52 55 58 61 64 67 70 73 76 79 82 85 88 91 94 97 100 103 106 109 112 115 118 121 124 127 130 133 136 139 142 145 148 151 154 157 160 163 166 169 172 175 178 181 184 187 190 193 196 199 202 205 208 211 214 217 220 223 226 229 232 235 238 241 244 247 250 253 256 259 262 265 268 271 274 277 280 283 286 289 292 295 298 301 304 307 310 313 316 319 322 325 0
-330 2 5 8 11 14 17 20 23 26 29 32 35 38 41 44 47 50 53 56 59 62 65 68 71 74 77 80 83 86 89 92 95 98 101 104 107 110 113 116 119 122 125 128 131 134 137 140 143 146 149 152 155 158 161 164 167 170 173 176 179 182 185 188 191 194 197 200 203 206 209 212 215 218 221 224 227 230 233 236 239 242 245 248 251 254 257 260 263 266 269 272 275 278 281 284 287 290 293 296 299 302 305 308 311 314 317 320 323 326 0
-332 1 4 7 10 13 16 19 22 25 28 31 34 37 40 43 46 49 52 55 58 61 64 67 70 73 76 79 82 85 88 91 94 97 100 103 106 109 112 115 118 121 124 127 130 133 136 139 142 145 148 151 154 157 160 163 166 169 172 175 178 181 184 187 190 193 196 199 202 205 208 211 214 217 220 223 226 229 232 235 238 241 244 247 250 253 256 259 262 265 268 271 274 277 280 283 286 289 292 295 298 301 304 307 310 313 316 319 322 325 328 0
-333 2 5 8 11 14 17 20 23 26 29 32 35 38 41 44 47 50 53 56 59 62 65 68 71 74 77 80 83 86 89 92 95 98 101 104 107 110 113 116 119 122 125 128 131 134 137 140 143 146 149 152 155 158 161 164 167 170 173 176 179 182 185 188 191 194 197 200 203 206 209 212 215 218 221 224 227 230 233 236 239 242 245 248 251 254 257 260 263 266 269 272 275 278 281 284 287 290 293 296 299 302 305 308 311 314 317 320 323 326 329 0
-335 1 4 7 10 13 16 19 22 25 28 31 34 37 40 43 46 49 52 55 58 61 64 67 70 73 76 79 82 85 88 91 94 97 100 103 106 109 112 115 118 121 124 127 130 133 136 139 142 145 148 151 154 157 160 163 166 169 172 175 178 181 184 187 190 193 196 199 202 205 208 211 214 217 220 223 226 229 232 235 238 241 244 247 250 253 256 259 262 265 268 271 274 277 280 283 286 289 292 295 298 301 304 307 310 313 316 319 322 325 328 331 0
-336 2 5 8 11 14 17 20 23 26 29 32 35 38 41 44 47 50 53 56 59 62 65 68 71 74 77 80 83 86 89 92 95 98 101 104 107 110 113 116 119 122 125 128 131 134 137 140 143 146 149 152 155 158 161 164 167 170 173 176 179 182 185 188 191 194 197 200 203 206 209 212 215 218 221 224 227 230 233 236 239 242 245 248 251 254 257 260 263 266 269 272 275 278 281 284 287 290 293 296 299 302 305 308 311 314 317 320 323 326 329 332 0
-338 1 4 7 10 13 16 19 22 25 28 31 34 37 40 43 46 49 52 55 58 61 64 67 70 73 76 79 82 85 88 91 94 97 100 103 106 109 112 115 118 121 124 127 130 133 136 139 142 145 148 151 154 157 160 163 166 169 172 175 178 181 184 187 190 193 196 199 202 205 208 211 214 217 220 223 226 229 232 235 238 241 244 247 250 253 256 259 262 265 268 271 274 277 280 283 286 289 292 295 298 301 304 307 310 313 316 319 322 325 328 331 334 0
-339 2 5 8 11 14 17 20 23 26 29 32 35 38 41 44 47 50 53 56 59 62 65 68 71 74 77 80 83 86 89 92 95 98 101 104 107 110 113 116 119 122 125 128 131 134 137 140 143 146 149 152 155 158 161 164 167 170 173 176 179 182 185 188 191 194 197 200 203 206 209 212 215 218 221 224 227 230 233 236 239 242 245 248 251 254 257 260 263 266 269 272 275 278 281 284 287 290 293 296 299 302 305 308 311 314 317 320 323 326 329 332 335 0
-341 1 4 7 10 13 16 19 22 25 28 31 34 37 40 43 46 49 52 55 58 61 64 67 70 73 76 79 82 85 88 91 94 97 100 103 106 109 112 115 118 121 124 127 130 133 136 139 142 145 148 151 154 157 160 163 166 169 172 175 178 181 184 187 190 193 196 199 202 205 208 211 214 217 220 223 226 229 232 235 238 241 244 247 250 253 256 259 262 265 268 271 274 277 280 283 286 289 292 295 298 301 304 307 310 313 316 319 322 325 328 331 334 337 0
-342 2 5 8 11 14 17 20 23 26 29 32 35 38 41 44 47 50 53 56 59 62 65 68 71 74 77 80 83 86 89 92 95 98 101 104 107 110 113 116 119 122 125 128 131 134 137 140 143 146 149 152 155 158 161 164 167 170 173 176 179 182 185 188 191 194 197 200 203 206 209 212 215 218 221 224 227 230 233 236 239 242 245 248 251 254 257 260 263 266 269 272 275 278 281 284 287 290 293 296 299 302 305 308 311 314 317 320 323 326 329 332 335 338 0
-344 1 4 7 10 13 16 19 22 25 28 31 34 37 40 43 46 49 52 55 58 61 64 67 70 73 76 79 82 85 88 91 94 97 100 103 106 109 112 115 118 121 124 127 130 133 136 139 142 145 148 151 154 157 160 163 166 169 172 175 178 181 184 187 190 193 196 199 202 205 208 211 214 217 220 223 226 229 232 235 238 241 244 247 250 253 256 259 262 265 268 271 274 277 280 283 286 289 292 295 298 301 304 307 310 313 316 319 322 325 328 331 334 337 340 0
-345 2 5 8 11 14 17 20 23 26 29 32 35 38 41 44 47 50 53 56 59 62 65 68 71 74 77 80 83 86 89 92 95 98 101 104 107 110 113 116 119 122 125 128 131 134 137 140 143 146 149 152 155 158 161 164 167 170 173 176 179 182 185 188 191 194 197 200 203 206 209 212 215 218 221 224 227 230 233 236 239 242 245 248 251 254 257 260 263 266 269 272 275 278 281 284 287 290 293 296 299 302 305 308 311 314 317 320 323 326 329 332 335 338 341 0
-347 1 4 7 10 13 16 19 22 25 28 31 34 37 40 43 46 49 52 55 58 61 64 67 70 73 76 79 82 85 88 91 94 97 100 103 106 109 112 115 118 121 124 127 130 133 136 139 142 145 148 151 154 157 160 163 166 169 172 175 178 181 184 187 190 193 196 199 202 205 208 211 214 217 220 223 226 229 232 235 238 241 244 247 250 253 256 259 262 265 268 271 274 277 280 283 286 289 292 295 298 301 304 307 310 313 316 319 322 325 328 331 334 337 340 343 0
-348 2 5 8 11 14 17 20 23 26 29 32 35 38 41 44 47 50 53 56 59 62 65 68 71 74 77 80 83 86 89 92 95 98 101 104 107 110 113 116 119 122 125 128 131 134 137 140 143 146 149 152 155 158 161 164 167 170 173 176 179 182 185 188 191 194 197 200 203 206 209 212 215 218 221 224 227 230 233 236 239 242 245 248 251 254 257 260 263 266 269 272 275 278 281 284 287 290 293 296 299 302 305 308 311 314 317 320 323 326 329 332 335 338 341 344 0
-350 1 4 7 10 13 16 19 22 25 28 31 34 37 40 43 46 49 52 55 58 61 64 67 70 73 76 79 82 85 88 91 94 97 100 103 106 109 112 115 118 121 124 127 130 133 136 139 142 145 148 151 154 157 160 163 166 169 172 175 178 181 184 187 190 193 196 199 202 205 208 211 214 217 220 223 226 229 232 235 238 241 244 247 250 253 256 259 262 265 268 271 274 277 280 283 286 289 292 295 298 301 304 307 310 313 316 319 322 325 328 331 334 337 340 343 346 0
-351 2 5 8 11 14 17 20 23 26 29 32 35 38 41 44 47 50 53 56 59 62 65 68 71 74 77 80 83 86 89 92 95 98 101 104 107 110 113 116 119 122 125 128 131 134 137 140 143 146 149 152 155 158 161 164 167 170 173 176 179 182 185 188 191 194 197 200 203 206 209 212 215 218 221 224 227 230 233 236 239 242 245 248 251 254 257 260 263 266 269 272 275 278 281 284 287 290 293 296 299 302 305 308 311 314 317 320 323 326 329 332 335 338 341 344 347 0
-353 1 4 7 10 13 16 19 22 25 28 31 34 37 40 43 46 49 52 55 58 61 64 67 70 73 76 79 82 85 88 91 94 97 100 103 106 109 112 115 118 121 124 127 130 133 136 139 142 145 148 151 154 157 160 163 166 169 172 175 178 181 184 187 190 193 196 199 202 205 208 211 214 217 220 223 226 229 232 235 238 241 244 247 250 253 256 259 262 265 268 271 274 277 280 283 286 289 292 295 298 301 304 307 310 313 316 319 322 325 328 331 334 337 340 343 346 349 0
-354 2 5 8 11 14 17 20 23 26 29 32 35 38 41 44 47 50 53 56 59 62 65 68 71 74 77 80 83 86 89 92 95 98 101 104 107 110 113 116 119 122 125 128 131 134 137 140 143 146 149 152 155 158 161 164 167 170 173 176 179 182 185 188 191 194 197 200 203 206 209 212 215 218 221 224 227 230 233 236 239 242 245 248 251 254 257 260 263 266 269 272 275 278 281 284 287 290 293 296 299 302 305 308 311 314 317 320 323 326 329 332 335 338 341 344 347 350 0
-356 1 4 7 10 13 16 19 22 25 28 31 34 37 40 43 46 49 52 55 58 61 64 67 70 73 76 79 82 85 88 91 94 97 100 103 106 109 112 115 118 121 124 127 130 133 136 139 142 145 148 151 154 157 160 163 166 169 172 175 178 181 184 187 190 193 196 199 202 205 208 211 214 217 220 223 226 229 232 235 238 241 244 247 250 253 256 259 262 265 268 271 274 277 280 283 286 289 292 295 298 301 304 307 310 313 316 319 322 325 328 331 334 337 340 343 346 349 352 0
-357 2 5 8 11 14 17 20 23 26 29 32 35 38 41 44 47 50 53 56 59 62 65 68 71 74 77 80 83 86 89 92 95 98 101 104 107 110 113 116 119 122 125 128 131 134 137 140 143 146 149 152 155 158 161 164 167 170 173 176 179 182 185 188 191 194 197 200 203 206 209 212 215 218 221 224 227 230 233 236 239 242 245 248 251 254 257 260 263 266 269 272 275 278 281 284 287 290 293 296 299 302 305 308 311 314 317 320 323 326 329 332 335 338 341 344 347 350 353 0
-359 1 4 7 10 13 16 19 22 25 28 31 34 37 40 43 46 49 52 55 58 61 64 67 70 73 76 79 82 85 88 91 94 97 100 103 106 109 112 115 118 121 124 127 130 133 136 139 142 145 148 151 154 157 160 163 166 169 172 175 178 181 184 187 190 193 196 199 202 205 208 211 214 217 220 223 226 229 232 235 238 241 244 247 250 253 256 259 262 265 268 271 274 277 280 283 286 289 292 295 298 301 304 307 310 313 316 319 322 325 328 331 334 337 340 343 346 349 352 355 0
-360 2 5 8 11 14 17 20 23 26 29 32 35 38 41 44 47 50 53 56 59 62 65 68 71 74 77 80 83 86 89 92 95 98 101 104 107 110 113 116 119 122 125 128 131 134 137 140 143 146 149 152 155 158 161 164 167 170 173 176 179 182 185 188 191 194 197 200 203 206 209 212 215 218 221 224 227 230 233 236 239 242 245 248 251 254 257 260 263 266 269 272 275 278 281 284 287 290 293 296 299 302 305 308 311 314 317 320 323 326 329 332 335 338 341 344 347 350 353 356 0
-362 1 4 7 10 13 16 19 22 25 28 31 34 37 40 43 46 49 52 55 58 61 64 67 70 73 76 79 82 85 88 91 94 97 100 103 106 109 112 115 118 121 124 127 130 133 136 139 142 145 148 151 154 157 160 163 166 169 172 175 178 181 184 187 190 193 196 199 202 205 208 211 214 217 220 223 226 229 232 235 238 241 244 247 250 253 256 259 262 265 268 271 274 277 280 283 286 289 292 295 298 301 304 307 310 313 316 319 322 325 328 331 334 337 340 343 346 349 352 355 358 0
-363 2 5 8 11 14 17 20 23 26 29 32 35 38 41 44 47 50 53 56 59 62 65 68 71 74 77 80 83 86 89 92 95 98 101 104 107 110 113 116 119 122 125 128 131 134 137 140 143 146 149 152 155 158 161 164 167 170 173 176 179 182 185 188 191 194 197 200 203 206 209 212 215 218 221 224 227 230 233 236 239 242 245 248 251 254 257 260 263 266 269 272 275 278 281 284 287 290 293 296 299 302 305 308 311 314 317 320 323 326 329 332 335 338 341 344 347 350 353 356 359 0
-365 1 4 7 10 13 16 19 22 25 28 31 34 37 40 43 46 49 52 55 58 61 64 67 70 73 76 79 82 85 88 91 94 97 100 103 106 109 112 115 118 121 124 127 130 133 136 139 142 145 148 151 154 157 160 163 166 169 172 175 178 181 184 187 190 193 196 199 202 205 208 211 214 217 220 223 226 229 232 235 238 241 244 247 250 253 256 259 262 265 268 271 274 277 280 283 286 289 292 295 298 301 304 307 310 313 316 319 322 325 328 331 334 337 340 343 346 349 352 355 358 361 0
-366 2 5 8 11 14 17 20 23 26 29 32 35 38 41 44 47 50 53 56 59 62 65 68 71 74 77 80 83 86 89 92 95 98 101 104 107 110 113 116 119 122 125 128 131 134 137 140 143 146 149 152 155 158 161 164 167 170 173 176 179 182 185 188 191 194 197 200 203 206 209 212 215 218 221 224 227 230 233 236 239 242 245 248 251 254 257 260 263 266 269 272 275 278 281 284 287 290 293 296 299 302 305 308 311 314 317 320 323 326 329 332 335 338 341 344 347 350 353 356 359 362 0
-368 1 4 7 10 13 16 19 22 25 28 31 34 37 40 43 46 49 52 55 58 61 64 67 70 73 76 79 82 85 88 91 94 97 100 103 106 109 112 115 118 121 124 127 130 133 136 139 142 145 148 151 154 157 160 163 166 169 172 175 178 181 184 187 190 193 196 199 202 205 208 211 214 217 220 223 226 229 232 235 238 241 244 247 250 253 256 259 262 265 268 271 274 277 280 283 286 289 292 295 298 301 304 307 310 313 316 319 322 325 328 331 334 337 340 343 346 349 352 355 358 361 364 0
-369 2 5 8 11 14 17 20 23 26 29 32 35 38 41 44 47 50 53 56 59 62 65 68 71 74 77 80 83 86 89 92 95 98 101 104 107 110 113 116 119 122 125 128 131 134 137 140 143 146 149 152 155 158 161 164 167 170 173 176 179 182 185 188 191 194 197 200 203 206 209 212 215 218 221 224 227 230 233 236 239 242 245 248 251 254 257 260 263 266 269 272 275 278 281 284 287 290 293 296 299 302 305 308 311 314 317 320 323 326 329 332 335 338 341 344 347 350 353 356 359 362 365 0
-371 1 4 7 10 13 16 19 22 25 28 31 34 37 40 43 46 49 52 55 58 61 64 67 70 73 76 79 82 85 88 91 94 97 100 103 106 109 112 115 118 121 124 127 130 133 136 139 142 145 148 151 154 157 160 163 166 169 172 175 178 181 184 187 190 193 196 199 202 205 208 211 214 217 220 223 226 229 232 235 238 241 244 247 250 253 256 259 262 265 268 271 274 277 280 283 286 289 292 295 298 301 304 307 310 313 316 319 322 325 328 331 334 337 340 343 346 349 352 355 358 361 364 367 0
-372 2 5 8 11 14 17 20 23 26 29 32 35 38 41 44 47 50 53 56 59 62 65 68 71 74 77 80 83 86 89 92 95 98 101 104 107 110 113 116 119 122 125 128 131 134 137 140 143 146 149 152 155 158 161 164 167 170 173 176 179 182 185 188 191 194 197 200 203 206 209 212 215 218 221 224 227 230 233 236 239 242 245 248 251 254 257 260 263 266 269 272 275 278 281 284 287 290 293 296 299 302 305 308 311 314 317 320 323 326 329 332 335 338 341 344 347 350 353 356 359 362 365 368 0
-374 1 4 7 10 13 16 19 22 25 28 31 34 37 40 43 46 49 52 55 58 61 64 67 70 73 76 79 82 85 88 91 94 97 100 103 106 109 112 115 118 121 124 127 130 133 136 139 142 145 148 151 154 157 160 163 166 169 172 175 178 181 184 187 190 193 196 199 202 205 208 211 214 217 220 223 226 229 232 235 238 241 244 247 250 253 256 259 262 265 268 271 274 277 280 283 286 289 292 295 298 301 304 307 310 313 316 319 322 325 328 331 334 337 340 343 346 349 352 355 358 361 364 367 370 0
-375 2 5 8 11 14 17 20 23 26 29 32 35 38 41 44 47 50 53 56 59 62 65 68 71 74 77 80 83 86 89 92 95 98 101 104 107 110 113 116 119 122 125 128 131 134 137 140 143 146 149 152 155 158 161 164 167 170 173 176 179 182 185 188 191 194 197 200 203 206 209 212 215 218 221 224 227 230 233 236 239 242 245 248 251 254 257 260 263 266 269 272 275 278 281 284 287 290 293 296 299 302 305 308 311 314 317 320 323 326 329 332 335 338 341 344 347 350 353 356 359 362 365 368 371 0
-377 1 4 7 10 13 16 19 22 25 28 31 34 37 40 43 46 49 52 55 58 61 64 67 70 73 76 79 82 85 88 91 94 97 100 103 106 109 112 115 118 121 124 127 130 133 136 139 142 145 148 151 154 157 160 163 166 169 172 175 178 181 184 187 190 193 196 199 202 205 208 211 214 217 220 223 226 229 232 235 238 241 244 247 250 253 256 259 262 265 268 271 274 277 280 283 286 289 292 295 298 301 304 307 310 313 316 319 322 325 328 331 334 337 340 343 346 349 352 355 358 361 364 367 370 373 0
-378 2 5 8 11 14 17 20 23 26 29 32 35 38 41 44 47 50 53 56 59 62 65 68 71 74 77 80 83 86 89 92 95 98 101 104 107 110 113 116 119 122 125 128 131 134 137 140 143 146 149 152 155 158 161 164 167 170 173 176 179 182 185 188 191 194 197 200 203 206 209 212 215 218 221 224 227 230 233 236 239 242 245 248 251 254 257 260 263 266 269 272 275 278 281 284 287 290 293 296 299 302 305 308 311 314 317 320 323 326 329 332 335 338 341 344 347 350 353 356 359 362 365 368 371 374 0
-380 1 4 7 10 13 16 19 22 25 28 31 34 37 40 43 46 49 52 55 58 61 64 67 70 73 76 79 82 85 88 91 94 97 100 103 106 109 112 115 118 121 124 127 130 133 136 139 142 145 148 151 154 157 160 163 166 169 172 175 178 181 184 187 190 193 196 199 202 205 208 211 214 217 220 223 226 229 232 235 238 241 244 247 250 253 256 259 262 265 268 271 274 277 280 283 286 289 292 295 298 301 304 307 310 313 316 319 322 325 328 331 334 337 340 343 346 349 352 355 358 361 364 367 370 373 376 0
-381 2 5 8 11 14 17 20 23 26 29 32 35 38 41 44 47 50 53 56 59 62 65 68 71 74 77 80 83 86 89 92 95 98 101 104 107 110 113 116 119 122 125 128 131 134 137 140 143 146 149 152 155 158 161 164 167 170 173 176 179 182 185 188 191 194 197 200 203 206 209 212 215 218 221 224 227 230 233 236 239 242 245 248 251 254 257 260 263 266 269 272 275 278 281 284 287 290 293 296 299 302 305 308 311 314 317 320 323 326 329 332 335 338 341 344 347 350 353 356 359 362 365 368 371 374 377 0
-383 1 4 7 10 13 16 19 22 25 28 31 34 37 40 43 46 49 52 55 58 61 64 67 70 73 76 79 82 85 88 91 94 97 100 103 106 109 112 115 118 121 124 127 130 133 136 139 142 145 148 151 154 157 160 163 166 169 172 175 178 181 184 187 190 193 196 199 202 205 208 211 214 217 220 223 226 229 232 235 238 241 244 247 250 253 256 259 262 265 268 271 274 277 280 283 286 289 292 295 298 301 304 307 310 313 316 319 322 325 328 331 334 337 340 343 346 349 352 355 358 361 364 367 370 373 376 379 0
-384 2 5 8 11 14 17 20 23 26 29 32 35 38 41 44 47 50 53 56 59 62 65 68 71 74 77 80 83 86 89 92 95 98 101 104 107 110 113 116 119 122 125 128 131 134 137 140 143 146 149 152 155 158 161 164 167 170 173 176 179 182 185 188 191 194 197 200 203 206 209 212 215 218 221 224 227 230 233 236 239 242 245 248 251 254 257 260 263 266 269 272 275 278 281 284 287 290 293 296 299 302 305 308 311 314 317 320 323 326 329 332 335 338 341 344 347 350 353 356 359 362 365 368 371 374 377 380 0
-386 1 4 7 10 13 16 19 22 25 28 31 34 37 40 43 46 49 52 55 58 61 64 67 70 73 76 79 82 85 88 91 94 97 100 103 106 109 112 115 118 121 124 127 130 133 136 139 142 145 148 151 154 157 160 163 166 169 172 175 178 181 184 187 190 193 196 199 202 205 208 211 214 217 220 223 226 229 232 235 238 241 244 247 250 253 256 259 262 265 268 271 274 277 280 283 286 289 292 295 298 301 304 307 310 313 316 319 322 325 328 331 334 337 340 343 346 349 352 355 358 361 364 367 370 373 376 379 382 0
-387 2 5 8 11 14 17 20 23 26 29 32 35 38 41 44 47 50 53 56 59 62 65 68 71 74 77 80 83 86 89 92 95 98 101 104 107 110 113 116 119 122 125 128 131 134 137 140 143 146 149 152 155 158 161 164 167 170 173 176 179 182 185 188 191 194 197 200 203 206 209 212 215 218 221 224 227 230 233 236 239 242 245 248 251 254 257 260 263 266 269 272 275 278 281 284 287 290 293 296 299 302 305 308 311 314 317 320 323 326 329 332 335 338 341 344 347 350 353 356 359 362 365 368 371 374 377 380 383 0
-389 1 4 7 10 13 16 19 22 25 28 31 34 37 40 43 46 49 52 55 58 61 64 67 70 73 76 79 82 85 88 91 94 97 100 103 106 109 112 115 118 121 124 127 130 133 136 139 142 145 148 151 154 157 160 163 166 169 172 175 178 181 184 187 190 193 196 199 202 205 208 211 214 217 220 223 226 229 232 235 238 241 244 247 250 253 256 259 262 265 268 271 274 277 280 283 286 289 292 295 298 301 304 307 310 313 316 319 322 325 328 331 334 337 340 343 346 349 352 355 358 361 364 367 370 373 376 379 382 385 0
-390 2 5 8 11 14 17 20 23 26 29 32 35 38 41 44 47 50 53 56 59 62 65 68 71 74 77 80 83 86 89 92 95 98 101 104 107 110 113 116 119 122 125 128 131 134 137 140 143 146 149 152 155 158 161 164 167 170 173 176 179 182 185 188 191 194 197 200 203 206 209 212 215 218 221 224 227 230 233 236 239 242 245 248 251 254 257 260 263 266 269 272 275 278 281 284 287 290 293 296 299 302 305 308 311 314 317 320 323 326 329 332 335 338 341 344 347 350 353 356 359 362 365 368 371 374 377 380 383 386 0
-392 1 4 7 10 13 16 19 22 25 28 31 34 37 40 43 46 49 52 55 58 61 64 67 70 73 76 79 82 85 88 91 94 97 100 103 106 109 112 115 118 121 124 127 130 133 136 139 142 145 148 151 154 157 160 163 166 169 172 175 178 181 184 187 190 193 196 199 202 205 208 211 214 217 220 223 226 229 232 235 238 241 244 247 250 253 256 259 262 265 268 271 274 277 280 283 286 289 292 295 298 301 304 307 310 313 316 319 322 325 328 331 334 337 340 343 346 349 352 355 358 361 364 367 370 373 376 379 382 385 388 0
-393 2 5 8 11 14 17 20 23 26 29 32 35 38 41 44 47 50 53 56 59 62 65 68 71 74 77 80 83 86 89 92 95 98 101 104 107 110 113 116 119 122 125 128 131 134 137 140 143 146 149 152 155 158 161 164 167 170 173 176 179 182 185 188 191 194 197 200 203 206 209 212 215 218 221 224 227 230 233 236 239 242 245 248 251 254 257 260 263 266 269 272 275 278 281 284 287 290 293 296 299 302 305 308 311 314 317 320 323 326 329 332 335 338 341 344 347 350 353 356 359 362 365 368 371 374 377 380 383 386 389 0
-395 1 4 7 10 13 16 19 22 25 28 31 34 37 40 43 46 49 52 55 58 61 64 67 70 73 76 79 82 85 88 91 94 97 100 103 106 109 112 115 118 121 124 127 130 133 136 139 142 145 148 151 154 157 160 163 166 169 172 175 178 181 184 187 190 193 196 199 202 205 208 211 214 217 220 223 226 229 232 235 238 241 244 247 250 253 256 259 262 265 268 271 274 277 280 283 286 289 292 295 298 301 304 307 310 313 316 319 322 325 328 331 334 337 340 343 346 349 352 355 358 361 364 367 370 373 376 379 382 385 388 391 0
-396 2 5 8 11 14 17 20 23 26 29 32 35 38 41 44 47 50 53 56 59 62 65 68 71 74 77 80 83 86 89 92 95 98 101 104 107 110 113 116 119 122 125 128 131 134 137 140 143 146 149 152 155 158 161 164 167 170 173 176 179 182 185 188 191 194 197 200 203 206 209 212 215 218 221 224 227 230 233 236 239 242 245 248 251 254 257 260 263 266 269 272 275 278 281 284 287 290 293 296 299 302 305 308 311 314 317 320 323 326 329 332 335 338 341 344 347 350 353 356 359 362 365 368 371 374 377 380 383 386 389 392 0
-398 1 4 7 10 13 16 19 22 25 28 31 34 37 40 43 46 49 52 55 58 61 64 67 70 73 76 79 82 85 88 91 94 97 100 103 106 109 112 115 118 121 124 127 130 133 136 139 142 145 148 151 154 157 160 163 166 169 172 175 178 181 184 187 190 193 196 199 202 205 208 211 214 217 220 223 226 229 232 235 238 241 244 247 250 253 256 259 262 265 268 271 274 277 280 283 286 289 292 295 298 301 304 307 310 313 316 319 322 325 328 331 334 337 340 343 346 349 352 355 358 361 364 367 370 373 376 379 382 385 388 391 394 0
-399 2 5 8 11 14 17 20 23 26 29 32 35 38 41 44 47 50 53 56 59 62 65 68 71 74 77 80 83 86 89 92 95 98 101 104 107 110 113 116 119 122 125 128 131 134 137 140 143 146 149 152 155 158 161 164 167 170 173 176 179 182 185 188 191 194 197 200 203 206 209 212 215 218 221 224 227 230 233 236 239 242 245 248 251 254 257 260 263 266 269 272 275 278 281 284 287 290 293 296 299 302 305 308 311 314 317 320 323 326 329 332 335 338 341 344 347 350 353 356 359 362 365 368 371 374 377 380 383 386 389 392 395 0
-401 1 4 7 10 13 16 19 22 25 28 31 34 37 40 43 46 49 52 55 58 61 64 67 70 73 76 79 82 85 88 91 94 97 100 103 106 109 112 115 118 121 124 127 130 133 136 139 142 145 148 151 154 157 160 163 166 169 172 175 178 181 184 187 190 193 196 199 202 205 208 211 214 217 220 223 226 229 232 235 238 241 244 247 250 253 256 259 262 265 268 271 274 277 280 283 286 289 292 295 298 301 304 307 310 313 316 319 322 325 328 331 334 337 340 343 346 349 352 355 358 361 364 367 370 373 376 379 382 385 388 391 394 397 0
-402 2 5 8 11 14 17 20 23 26 29 32 35 38 41 44 47 50 53 56 59 62 65 68 71 74 77 80 83 86 89 92 95 98 101 104 107 110 113 116 119 122 125 128 131 134 137 140 143 146 149 152 155 158 161 164 167 170 173 176 179 182 185 188 191 194 197 200 203 206 209 212 215 218 221 224 227 230 233 236 239 242 245 248 251 254 257 260 263 266 269 272 275 278 281 284 287 290 293 296 299 302 305 308 311 314 317 320 323 326 329 332 335 338 341 344 347 350 353 356 359 362 365 368 371 374 377 380 383 386 389 392 395 398 0
-404 1 4 7 10 13 16 19 22 25 28 31 34 37 40 43 46 49 52 55 58 61 64 67 70 73 76 79 82 85 88 91 94 97 100 103 106 109 112 115 118 121 124 127 130 133 136 139 142 145 148 151 154 157 160 163 166 169 172 175 178 181 184 187 190 193 196 199 202 205 208 211 214 217 220 223 226 229 232 235 238 241 244 247 250 253 256 259 262 265 268 271 274 277 280 283 286 289 292 295 298 301 304 307 310 313 316 319 322 325 328 331 334 337 340 343 346 349 352 355 358 361 364 367 370 373 376 379 382 385 388 391 394 397 400 0
-405 2 5 8 11 14 17 20 23 26 29 32 35 38 41 44 47 50 53 56 59 62 65 68 71 74 77 80 83 86 89 92 95 98 101 104 107 110 113 116 119 122 125 128 131 134 137 140 143 146 149 152 155 158 161 164 167 170 173 176 179 182 185 188 191 194 197 200 203 206 209 212 215 218 221 224 227 230 233 236 239 242 245 248 251 254 257 260 263 266 269 272 275 278 281 284 287 290 293 296 299 302 305 308 311 314 317 320 323 326 329 332 335 338 341 344 347 350 353 356 359 362 365 368 371 374 377 380 383 386 389 392 395 398 401 0
-407 1 4 7 10 13 16 19 22 25 28 31 34 37 40 43 46 49 52 55 58 61 64 67 70 73 76 79 82 85 88 91 94 97 100 103 106 109 112 115 118 121 124 127 130 133 136 139 142 145 148 151 154 157 160 163 166 169 172 175 178 181 184 187 190 193 196 199 202 205 208 211 214 217 220 223 226 229 232 235 238 241 244 247 250 253 256 259 262 265 268 271 274 277 280 283 286 289 292 295 298 301 304 307 310 313 316 319 322 325 328 331 334 337 340 343 346 349 352 355 358 361 364 367 370 373 376 379 382 385 388 391 394 397 400 403 0
-408 2 5 8 11 14 17 20 23 26 29 32 35 38 41 44 47 50 53 56 59 62 65 68 71 74 77 80 83 86 89 92 95 98 101 104 107 110 113 116 119 122 125 128 131 134 137 140 143 146 149 152 155 158 161 164 167 170 173 176 179 182 185 188 191 194 197 200 203 206 209 212 215 218 221 224 227 230 233 236 239 242 245 248 251 254 257 260 263 266 269 272 275 278 281 284 287 290 293 296 299 302 305 308 311 314 317 320 323 326 329 332 335 338 341 344 347 350 353 356 359 362 365 368 371 374 377 380 383 386 389 392 395 398 401 404 0
-410 1 4 7 10 13 16 19 22 25 28 31 34 37 40 43 46 49 52 55 58 61 64 67 70 73 76 79 82 85 88 91 94 97 100 103 106 109 112 115 118 121 124 127 130 133 136 139 142 145 148 151 154 157 160 163 166 169 172 175 178 181 184 187 190 193 196 199 202 205 208 211 214 217 220 223 226 229 232 235 238 241 244 247 250 253 256 259 262 265 268 271 274 277 280 283 286 289 292 295 298 301 304 307 310 313 316 319 322 325 328 331 334 337 340 343 346 349 352 355 358 361 364 367 370 373 376 379 382 385 388 391 394 397 400 403 406 0
-411 2 5 8 11 14 17 20 23 26 29 32 35 38 41 44 47 50 53 56 59 62 65 68 71 74 77 80 83 86 89 92 95 98 101 104 107 110 113 116 119 122 125 128 131 134 137 140 143 146 149 152 155 158 161 164 167 170 173 176 179 182 185 188 191 194 197 200 203 206 209 212 215 218 221 224 227 230 233 236 239 242 245 248 251 254 257 260 263 266 269 272 275 278 281 284 287 290 293 296 299 302 305 308 311 314 317 320 323 326 329 332 335 338 341 344 347 350 353 356 359 362 365 368 371 374 377 380 383 386 389 392 395 398 401 404 407 0
-413 1 4 7 10 13 16 19 22 25 28 31 34 37 40 43 46 49 52 55 58 61 64 67 70 73 76 79 82 85 88 91 94 97 100 103 106 109 112 115 118 121 124 127 130 133 136 139 142 145 148 151 154 157 160 163 166 169 172 175 178 181 184 187 190 193 196 199 202 205 208 211 214 217 220 223 226 229 232 235 238 241 244 247 250 253 256 259 262 265 268 271 274 277 280 283 286 289 292 295 298 301 304 307 310 313 316 319 322 325 328 331 334 337 340 343 346 349 352 355 358 361 364 367 370 373 376 379 382 385 388 391 394 397 400 403 406 409 0
-414 2 5 8 11 14 17 20 23 26 29 32 35 38 41 44 47 50 53 56 59 62 65 68 71 74 77 80 83 86 89 92 95 98 101 104 107 110 113 116 119 122 125 128 131 134 137 140 143 146 149 152 155 158 161 164 167 170 173 176 179 182 185 188 191 194 197 200 203 206 209 212 215 218 221 224 227 230 233 236 239 242 245 248 251 254 257 260 263 266 269 272 275 278 281 284 287 290 293 296 299 302 305 308 311 314 317 320 323 326 329 332 335 338 341 344 347 350 353 356 359 362 365 368 371 374 377 380 383 386 389 392 395 398 401 404 407 410 0
-416 1 4 7 10 13 16 19 22 25 28 31 34 37 40 43 46 49 52 55 58 61 64 67 70 73 76 79 82 85 88 91 94 97 100 103 106 109 112 115 118 121 124 127 130 133 136 139 142 145 148 151 154 157 160 163 166 169 172 175 178 181 184 187 190 193 196 199 202 205 208 211 214 217 220 223 226 229 232 235 238 241 244 247 250 253 256 259 262 265 268 271 274 277 280 283 286 289 292 295 298 301 304 307 310 313 316 319 322 325 328 331 334 337 340 343 346 349 352 355 358 361 364 367 370 373 376 379 382 385 388 391 394 397 400 403 406 409 412 0
-417 2 5 8 11 14 17 20 23 26 29 32 35 38 41 44 47 50 53 56 59 62 65 68 71 74 77 80 83 86 89 92 95 98 101 104 107 110 113 116 119 122 125 128 131 134 137 140 143 146 149 152 155 158 161 164 167 170 173 176 179 182 185 188 191 194 197 200 203 206 209 212 215 218 221 224 227 230 233 236 239 242 245 248 251 254 257 260 263 266 269 272 275 278 281 284 287 290 293 296 299 302 305 308 311 314 317 320 323 326 329 332 335 338 341 344 347 350 353 356 359 362 365 368 371 374 377 380 383 386 389 392 395 398 401 404 407 410 413 0
-419 1 4 7 10 13 16 19 22 25 28 31 34 37 40 43 46 49 52 55 58 61 64 67 70 73 76 79 82 85 88 91 94 97 100 103 106 109 112 115 118 121 124 127 130 133 136 139 142 145 148 151 154 157 160 163 166 169 172 175 178 181 184 187 190 193 196 199 202 205 208 211 214 217 220 223 226 229 232 235 238 241 244 247 250 253 256 259 262 265 268 271 274 277 280 283 286 289 292 295 298 301 304 307 310 313 316 319 322 325 328 331 334 337 340 343 346 349 352 355 358 361 364 367 370 373 376 379 382 385 388 391 394 397 400 403 406 409 412 415 0
-420 2 5 8 11 14 17 20 23 26 29 32 35 38 41 44 47 50 53 56 59 62 65 68 71 74 77 80 83 86 89 92 95 98 101 104 107 110 113 116 119 122 125 128 131 134 137 140 143 146 149 152 155 158 161 164 167 170 173 176 179 182 185 188 191 194 197 200 203 206 209 212 215 218 221 224 227 230 233 236 239 242 245 248 251 254 257 260 263 266 269 272 275 278 281 284 287 290 293 296 299 302 305 308 311 314 317 320 323 326 329 332 335 338 341 344 347 350 353 356 359 362 365 368 371 374 377 380 383 386 389 392 395 398 401 404 407 410 413 416 0
-422 1 4 7 10 13 16 19 22 25 28 31 34 37 40 43 46 49 52 55 58 61 64 67 70 73 76 79 82 85 88 91 94 97 100 103 106 109 112 115 118 121 124 127 130 133 136 139 142 145 148 151 154 157 160 163 166 169 172 175 178 181 184 187 190 193 196 199 202 205 208 211 214 217 220 223 226 229 232 235 238 241 244 247 250 253 256 259 262 265 268 271 274 277 280 283 286 289 292 295 298 301 304 307 310 313 316 319 322 325 328 331 334 337 340 343 346 349 352 355 358 361 364 367 370 373 376 379 382 385 388 391 394 397 400 403 406 409 412 415 418 0
-423 2 5 8 11 14 17 20 23 26 29 32 35 38 41 44 47 50 53 56 59 62 65 68 71 74 77 80 83 86 89 92 95 98 101 104 107 110 113 116 119 122 125 128 131 134 137 140 143 146 149 152 155 158 161 164 167 170 173 176 179 182 185 188 191 194 197 200 203 206 209 212 215 218 221 224 227 230 233 236 239 242 245 248 251 254 257 260 263 266 269 272 275 278 281 284 287 290 293 296 299 302 305 308 311 314 317 320 323 326 329 332 335 338 341 344 347 350 353 356 359 362 365 368 371 374 377 380 383 386 389 392 395 398 401 404 407 410 413 416 419 0
-425 1 4 7 10 13 16 19 22 25 28 31 34 37 40 43 46 49 52 55 58 61 64 67 70 73 76 79 82 85 88 91 94 97 100 103 106 109 112 115 118 121 124 127 130 133 136 139 142 145 148 151 154 157 160 163 166 169 172 175 178 181 184 187 190 193 196 199 202 205 208 211 214 217 220 223 226 229 232 235 238 241 244 247 250 253 256 259 262 265 268 271 274 277 280 283 286 289 292 295 298 301 304 307 310 313 316 319 322 325 328 331 334 337 340 343 346 349 352 355 358 361 364 367 370 373 376 379 382 385 388 391 394 397 400 403 406 409 412 415 418 421 0
-426 2 5 8 11 14 17 20 23 26 29 32 35 38 41 44 47 50 53 56 59 62 65 68 71 74 77 80 83 86 89 92 95 98 101 104 107 110 113 116 119 122 125 128 131 134 137 140 143 146 149 152 155 158 161 164 167 170 173 176 179 182 185 188 191 194 197 200 203 206 209 212 215 218 221 224 227 230 233 236 239 242 245 248 251 254 257 260 263 266 269 272 275 278 281 284 287 290 293 296 299 302 305 308 311 314 317 320 323 326 329 332 335 338 341 344 347 350 353 356 359 362 365 368 371 374 377 380 383 386 389 392 395 398 401 404 407 410 413 416 419 422 0
-428 1 4 7 10 13 16 19 22 25 28 31 34 37 40 43 46 49 52 55 58 61 64 67 70 73 76 79 82 85 88 91 94 97 100 103 106 109 112 115 118 121 124 127 130 133 136 139 142 145 148 151 154 157 160 163 166 169 172 175 178 181 184 187 190 193 196 199 202 205 208 211 214 217 220 223 226 229 232 235 238 241 244 247 250 253 256 259 262 265 268 271 274 277 280 283 286 289 292 295 298 301 304 307 310 313 316 319 322 325 328 331 334 337 340 343 346 349 352 355 358 361 364 367 370 373 376 379 382 385 388 391 394 397 400 403 406 409 412 415 418 421 424 0
-429 2 5 8 11 14 17 20 23 26 29 32 35 38 41 44 47 50 53 56 59 62 65 68 71 74 77 80 83 86 89 92 95 98 101 104 107 110 113 116 119 122 125 128 131 134 137 140 143 146 149 152 155 158 161 164 167 170 173 176 179 182 185 188 191 194 197 200 203 206 209 212 215 218 221 224 227 230 233 236 239 242 245 248 251 254 257 260 263 266 269 272 275 278 281 284 287 290 293 296 299 302 305 308 311 314 317 320 323 326 329 332 335 338 341 344 347 350 353 356 359 362 365 368 371 374 377 380 383 386 389 392 395 398 401 404 407 410 413 416 419 422 425 0
-431 1 4 7 10 13 16 19 22 25 28 31 34 37 40 43 46 49 52 55 58 61 64 67 70 73 76 79 82 85 88 91 94 97 100 103 106 109 112 115 118 121 124 127 130 133 136 139 142 145 148 151 154 157 160 163 166 169 172 175 178 181 184 187 190 193 196 199 202 205 208 211 214 217 220 223 226 229 232 235 238 241 244 247 250 253 256 259 262 265 268 271 274 277 280 283 286 289 292 295 298 301 304 307 310 313 316 319 322 325 328 331 334 337 340 343 346 349 352 355 358 361 364 367 370 373 376 379 382 385 388 391 394 397 400 403 406 409 412 415 418 421 424 427 0
-432 2 5 8 11 14 17 20 23 26 29 32 35 38 41 44 47 50 53 56 59 62 65 68 71 74 77 80 83 86 89 92 95 98 101 104 107 110 113 116 119 122 125 128 131 134 137 140 143 146 149 152 155 158 161 164 167 170 173 176 179 182 185 188 191 194 197 200 203 206 209 212 215 218 221 224 227 230 233 236 239 242 245 248 251 254 257 260 263 266 269 272 275 278 281 284 287 290 293 296 299 302 305 308 311 314 317 320 323 326 329 332 335 338 341 344 347 350 353 356 359 362 365 368 371 374 377 380 383 386 389 392 395 398 401 404 407 410 413 416 419 422 425 428 0
-434 1 4 7 10 13 16 19 22 25 28 31 34 37 40 43 46 49 52 55 58 61 64 67 70 73 76 79 82 85 88 91 94 97 100 103 106 109 112 115 118 121 124 127 130 133 136 139 142 145 148 151 154 157 160 163 166 169 172 175 178 181 184 187 190 193 196 199 202 205 208 211 214 217 220 223 226 229 232 235 238 241 244 247 250 253 256 259 262 265 268 271 274 277 280 283 286 289 292 295 298 301 304 307 310 313 316 319 322 325 328 331 334 337 340 343 346 349 352 355 358 361 364 367 370 373 376 379 382 385 388 391 394 397 400 403 406 409 412 415 418 421 424 427 430 0
-435 2 5 8 11 14 17 20 23 26 29 32 35 38 41 44 47 50 53 56 59 62 65 68 71 74 77 80 83 86 89 92 95 98 101 104 107 110 113 116 119 122 125 128 131 134 137 140 143 146 149 152 155 158 161 164 167 170 173 176 179 182 185 188 191 194 197 200 203 206 209 212 215 218 221 224 227 230 233 236 239 242 245 248 251 254 257 260 263 266 269 272 275 278 281 284 287 290 293 296 299 302 305 308 311 314 317 320 323 326 329 332 335 338 341 344 347 350 353 356 359 362 365 368 371 374 377 380 383 386 389 392 395 398 401 404 407 410 413 416 419 422 425 428 431 0
-437 1 4 7 10 13 16 19 22 25 28 31 34 37 40 43 46 49 52 55 58 61 64 67 70 73 76 79 82 85 88 91 94 97 100 103 106 109 112 115 118 121 124 127 130 133 136 139 142 145 148 151 154 157 160 163 166 169 172 175 178 181 184 187 190 193 196 199 202 205 208 211 214 217 220 223 226 229 232 235 238 241 244 247 250 253 256 259 262 265 268 271 274 277 280 283 286 289 292 295 298 301 304 307 310 313 316 319 322 325 328 331 334 337 340 343 346 349 352 355 358 361 364 367 370 373 376 379 382 385 388 391 394 397 400 403 406 409 412 415 418 421 424 427 430 433 0
-438 2 5 8 11 14 17 20 23 26 29 32 35 38 41 44 47 50 53 56 59 62 65 68 71 74 77 80 83 86 89 92 95 98 101 104 107 110 113 116 119 122 125 128 131 134 137 140 143 146 149 152 155 158 161 164 167 170 173 176 179 182 185 188 191 194 197 200 203 206 209 212 215 218 221 224 227 230 233 236 239 242 245 248 251 254 257 260 263 266 269 272 275 278 281 284 287 290 293 296 299 302 305 308 311 314 317 320 323 326 329 332 335 338 341 344 347 350 353 356 359 362 365 368 371 374 377 380 383 386 389 392 395 398 401 404 407 410 413 416 419 422 425 428 431 434 0
-440 1 4 7 10 13 16 19 22 25 28 31 34 37 40 43 46 49 52 55 58 61 64 67 70 73 76 79 82 85 88 91 94 97 100 103 106 109 112 115 118 121 124 127 130 133 136 139 142 145 148 151 154 157 160 163 166 169 172 175 178 181 184 187 190 193 196 199 202 205 208 211 214 217 220 223 226 229 232 235 238 241 244 247 250 253 256 259 262 265 268 271 274 277 280 283 286 289 292 295 298 301 304 307 310 313 316 319 322 325 328 331 334 337 340 343 346 349 352 355 358 361 364 367 370 373 376 379 382 385 388 391 394 397 400 403 406 409 412 415 418 421 424 427 430 433 436 0
-441 2 5 8 11 14 17 20 23 26 29 32 35 38 41 44 47 50 53 56 59 62 65 68 71 74 77 80 83 86 89 92 95 98 101 104 107 110 113 116 119 122 125 128 131 134 137 140 143 146 149 152 155 158 161 164 167 170 173 176 179 182 185 188 191 194 197 200 203 206 209 212 215 218 221 224 227 230 233 236 239 242 245 248 251 254 257 260 263 266 269 272 275 278 281 284 287 290 293 296 299 302 305 308 311 314 317 320 323 326 329 332 335 338 341 344 347 350 353 356 359 362 365 368 371 374 377 380 383 386 389 392 395 398 401 404 407 410 413 416 419 422 425 428 431 434 437 0
-443 1 4 7 10 13 16 19 22 25 28 31 34 37 40 43 46 49 52 55 58 61 64 67 70 73 76 79 82 85 88 91 94 97 100 103 106 109 112 115 118 121 124 127 130 133 136 139 142 145 148 151 154 157 160 163 166 169 172 175 178 181 184 187 190 193 196 199 202 205 208 211 214 217 220 223 226 229 232 235 238 241 244 247 250 253 256 259 262 265 268 271 274 277 280 283 286 289 292 295 298 301 304 307 310 313 316 319 322 325 328 331 334 337 340 343 346 349 352 355 358 361 364 367 370 373 376 379 382 385 388 391 394 397 400 403 406 409 412 415 418 421 424 427 430 433 436 439 0
-444 2 5 8 11 14 17 20 23 26 29 32 35 38 41 44 47 50 53 56 59 62 65 68 71 74 77 80 83 86 89 92 95 98 101 104 107 110 113 116 119 122 125 128 131 134 137 140 143 146 149 152 155 158 161 164 167 170 173 176 179 182 185 188 191 194 197 200 203 206 209 212 215 218 221 224 227 230 233 236 239 242 245 248 251 254 257 260 263 266 269 272 275 278 281 284 287 290 293 296 299 302 305 308 311 314 317 320 323 326 329 332 335 338 341 344 347 350 353 356 359 362 365 368 371 374 377 380 383 386 389 392 395 398 401 404 407 410 413 416 419 422 425 428 431 434 437 440 0
-446 1 4 7 10 13 16 19 22 25 28 31 34 37 40 43 46 49 52 55 58 61 64 67 70 73 76 79 82 85 88 91 94 97 100 103 106 109 112 115 118 121 124 127 130 133 136 139 142 145 148 151 154 157 160 163 166 169 172 175 178 181 184 187 190 193 196 199 202 205 208 211 214 217 220 223 226 229 232 235 238 241 244 247 250 253 256 259 262 265 268 271 274 277 280 283 286 289 292 295 298 301 304 307 310 313 316 319 322 325 328 331 334 337 340 343 346 349 352 355 358 361 364 367 370 373 376 379 382 385 388 391 394 397 400 403 406 409 412 415 418 421 424 427 430 433 436 439 442 0
-447 2 5 8 11 14 17 20 23 26 29 32 35 38 41 44 47 50 53 56 59 62 65 68 71 74 77 80 83 86 89 92 95 98 101 104 107 110 113 116 119 122 125 128 131 134 137 140 143 146 149 152 155 158 161 164 167 170 173 176 179 182 185 188 191 194 197 200 203 206 209 212 215 218 221 224 227 230 233 236 239 242 245 248 251 254 257 260 263 266 269 272 275 278 281 284 287 290 293 296 299 302 305 308 311 314 317 320 323 326 329 332 335 338 341 344 347 350 353 356 359 362 365 368 371 374 377 380 383 386 389 392 395 398 401 404 407 410 413 416 419 422 425 428 431 434 437 440 443 0
-449 1 4 7 10 13 16 19 22 25 28 31 34 37 40 43 46 49 52 55 58 61 64 67 70 73 76 79 82 85 88 91 94 97 100 103 106 109 112 115 118 121 124 127 130 133 136 139 142 145 148 151 154 157 160 163 166 169 172 175 178 181 184 187 190 193 196 199 202 205 208 211 214 217 220 223 226 229 232 235 238 241 244 247 250 253 256 259 262 265 268 271 274 277 280 283 286 289 292 295 298 301 304 307 310 313 316 319 322 325 328 331 334 337 340 343 346 349 352 355 358 361 364 367 370 373 376 379 382 385 388 391 394 397 400 403 406 409 412 415 418 421 424 427 430 433 436 439 442 445 0
-450 2 5 8 11 14 17 20 23 26 29 32 35 38 41 44 47 50 53 56 59 62 65 68 71 74 77 80 83 86 89 92 95 98 101 104 107 110 113 116 119 122 125 128 131 134 137 140 143 146 149 152 155 158 161 164 167 170 173 176 179 182 185 188 191 194 197 200 203 206 209 212 215 218 221 224 227 230 233 236 239 242 245 248 251 254 257 260 263 266 269 272 275 278 281 284 287 290 293 296 299 302 305 308 311 314 317 320 323 326 329 332 335 338 341 344 347 350 353 356 359 362 365 368 371 374 377 380 383 386 389 392 395 398 401 404 407 410 413 416 419 422 425 428 431 434 437 440 443 446 0
-452 1 4 7 10 13 16 19 22 25 28 31 34 37 40 43 46 49 52 55 58 61 64 67 70 73 76 79 82 85 88 91 94 97 100 103 106 109 112 115 118 121 124 127 130 133 136 139 142 145 148 151 154 157 160 163 166 169 172 175 178 181 184 187 190 193 196 199 202 205 208 211 214 217 220 223 226 229 232 235 238 241 244 247 250 253 256 259 262 265 268 271 274 277 280 283 286 289 292 295 298 301 304 307 310 313 316 319 322 325 328 331 334 337 340 343 346 349 352 355 358 361 364 367 370 373 376 379 382 385 388 391 394 397 400 403 406 409 412 415 418 421 424 427 430 433 436 439 442 445 448 0
-453 2 5 8 11 14 17 20 23 26 29 32 35 38 41 44 47 50 53 56 59 62 65 68 71 74 77 80 83 86 89 92 95 98 101 104 107 110 113 116 119 122 125 128 131 134 137 140 143 146 149 152 155 158 161 164 167 170 173 176 179 182 185 188 191 194 197 200 203 206 209 212 215 218 221 224 227 230 233 236 239 242 245 248 251 254 257 260 263 266 269 272 275 278 281 284 287 290 293 296 299 302 305 308 311 314 317 320 323 326 329 332 335 338 341 344 347 350 353 356 359 362 365 368 371 374 377 380 383 386 389 392 395 398 401 404 407 410 413 416 419 422 425 428 431 434 437 440 443 446 449 0
-455 1 4 7 10 13 16 19 22 25 28 31 34 37 40 43 46 49 52 55 58 61 64 67 70 73 76 79 82 85 88 91 94 97 100 103 106 109 112 115 118 121 124 127 130 133 136 139 142 145 148 151 154 157 160 163 166 169 172 175 178 181 184 187 190 193 196 199 202 205 208 211 214 217 220 223 226 229 232 235 238 241 244 247 250 253 256 259 262 265 268 271 274 277 280 283 286 289 292 295 298 301 304 307 310 313 316 319 322 325 328 331 334 337 340 343 346 349 352 355 358 361 364 367 370 373 376 379 382 385 388 391 394 397 400 403 406 409 412 415 418 421 424 427 430 433 436 439 442 445 448 451 0
-456 2 5 8 11 14 17 20 23 26 29 32 35 38 41 44 47 50 53 56 59 62 65 68 71 74 77 80 83 86 89 92 95 98 101 104 107 110 113 116 119 122 125 128 131 134 137 140 143 146 149 152 155 158 161 164 167 170 173 176 179 182 185 188 191 194 197 200 203 206 209 212 215 218 221 224 227 230 233 236 239 242 245 248 251 254 257 260 263 266 269 272 275 278 281 284 287 290 293 296 299 302 305 308 311 314 317 320 323 326 329 332 335 338 341 344 347 350 353 356 359 362 365 368 371 374 377 380 383 386 389 392 395 398 401 404 407 410 413 416 419 422 425 428 431 434 437 440 443 446 449 452 0
-458 1 4 7 10 13 16 19 22 25 28 31 34 37 40 43 46 49 52 55 58 61 64 67 70 73 76 79 82 85 88 91 94 97 100 103 106 109 112 115 118 121 124 127 130 133 136 139 142 145 148 151 154 157 160 163 166 169 172 175 178 181 184 187 190 193 196 199 202 205 208 211 214 217 220 223 226 229 232 235 238 241 244 247 250 253 256 259 262 265 268 271 274 277 280 283 286 289 292 295 298 301 304 307 310 313 316 319 322 325 328 331 334 337 340 343 346 349 352 355 358 361 364 367 370 373 376 379 382 385 388 391 394 397 400 403 406 409 412 415 418 421 424 427 430 433 436 439 442 445 448 451 454 0
-459 2 5 8 11 14 17 20 23 26 29 32 35 38 41 44 47 50 53 56 59 62 65 68 71 74 77 80 83 86 89 92 95 98 101 104 107 110 113 116 119 122 125 128 131 134 137 140 143 146 149 152 155 158 161 164 167 170 173 176 179 182 185 188 191 194 197 200 203 206 209 212 215 218 221 224 227 230 233 236 239 242 245 248 251 254 257 260 263 266 269 272 275 278 281 284 287 290 293 296 299 302 305 308 311 314 317 320 323 326 329 332 335 338 341 344 347 350 353 356 359 362 365 368 371 374 377 380 383 386 389 392 395 398 401 404 407 410 413 416 419 422 425 428 431 434 437 440 443 446 449 452 455 0
-461 1 4 7 10 13 16 19 22 25 28 31 34 37 40 43 46 49 52 55 58 61 64 67 70 73 76 79 82 85 88 91 94 97 100 103 106 109 112 115 118 121 124 127 130 133 136 139 142 145 148 151 154 157 160 163 166 169 172 175 178 181 184 187 190 193 196 199 202 205 208 211 214 217 220 223 226 229 232 235 238 241 244 247 250 253 256 259 262 265 268 271 274 277 280 283 286 289 292 295 298 301 304 307 310 313 316 319 322 325 328 331 334 337 340 343 346 349 352 355 358 361 364 367 370 373 376 379 382 385 388 391 394 397 400 403 406 409 412 415 418 421 424 427 430 433 436 439 442 445 448 451 454 457 0
-462 2 5 8 11 14 17 20 23 26 29 32 35 38 41 44 47 50 53 56 59 62 65 68 71 74 77 80 83 86 89 92 95 98 101 104 107 110 113 116 119 122 125 128 131 134 137 140 143 146 149 152 155 158 161 164 167 170 173 176 179 182 185 188 191 194 197 200 203 206 209 212 215 218 221 224 227 230 233 236 239 242 245 248 251 254 257 260 263 266 269 272 275 278 281 284 287 290 293 296 299 302 305 308 311 314 317 320 323 326 329 332 335 338 341 344 347 350 353 356 359 362 365 368 371 374 377 380 383 386 389 392 395 398 401 404 407 410 413 416 419 422 425 428 431 434 437 440 443 446 449 452 455 458 0
-464 1 4 7 10 13 16 19 22 25 28 31 34 37 40 43 46 49 52 55 58 61 64 67 70 73 76 79 82 85 88 91 94 97 100 103 106 109 112 115 118 121 124 127 130 133 136 139 142 145 148 151 154 157 160 163 166 169 172 175 178 181 184 187 190 193 196 199 202 205 208 211 214 217 220 223 226 229 232 235 238 241 244 247 250 253 256 259 262 265 268 271 274 277 280 283 286 289 292 295 298 301 304 307 310 313 316 319 322 325 328 331 334 337 340 343 346 349 352 355 358 361 364 367 370 373 376 379 382 385 388 391 394 397 400 403 406 409 412 415 418 421 424 427 430 433 436 439 442 445 448 451 454 457 460 0
-465 2 5 8 11 14 17 20 23 26 29 32 35 38 41 44 47 50 53 56 59 62 65 68 71 74 77 80 83 86 89 92 95 98 101 104 107 110 113 116 119 122 125 128 131 134 137 140 143 146 149 152 155 158 161 164 167 170 173 176 179 182 185 188 191 194 197 200 203 206 209 212 215 218 221 224 227 230 233 236 239 242 245 248 251 254 257 260 263 266 269 272 275 278 281 284 287 290 293 296 299 302 305 308 311 314 317 320 323 326 329 332 335 338 341 344 347 350 353 356 359 362 365 368 371 374 377 380 383 386 389 392 395 398 401 404 407 410 413 416 419 422 425 428 431 434 437 440 443 446 449 452 455 458 461 0
-467 1 4 7 10 13 16 19 22 25 28 31 34 37 40 43 46 49 52 55 58 61 64 67 70 73 76 79 82 85 88 91 94 97 100 103 106 109 112 115 118 121 124 127 130 133 136 139 142 145 148 151 154 157 160 163 166 169 172 175 178 181 184 187 190 193 196 199 202 205 208 211 214 217 220 223 226 229 232 235 238 241 244 247 250 253 256 259 262 265 268 271 274 277 280 283 286 289 292 295 298 301 304 307 310 313 316 319 322 325 328 331 334 337 340 343 346 349 352 355 358 361 364 367 370 373 376 379 382 385 388 391 394 397 400 403 406 409 412 415 418 421 424 427 430 433 436 439 442 445 448 451 454 457 460 463 0
-468 2 5 8 11 14 17 20 23 26 29 32 35 38 41 44 47 50 53 56 59 62 65 68 71 74 77 80 83 86 89 92 95 98 101 104 107 110 113 116 119 122 125 128 131 134 137 140 143 146 149 152 155 158 161 164 167 170 173 176 179 182 185 188 191 194 197 200 203 206 209 212 215 218 221 224 227 230 233 236 239 242 245 248 251 254 257 260 263 266 269 272 275 278 281 284 287 290 293 296 299 302 305 308 311 314 317 320 323 326 329 332 335 338 341 344 347 350 353 356 359 362 365 368 371 374 377 380 383 386 389 392 395 398 401 404 407 410 413 416 419 422 425 428 431 434 437 440 443 446 449 452 455 458 461 464 0
-470 1 4 7 10 13 16 19 22 25 28 31 34 37 40 43 46 49 52 55 58 61 64 67 70 73 76 79 82 85 88 91 94 97 100 103 106 109 112 115 118 121 124 127 130 133 136 139 142 145 148 151 154 157 160 163 166 169 172 175 178 181 184 187 190 193 196 199 202 205 208 211 214 217 220 223 226 229 232 235 238 241 244 247 250 253 256 259 262 265 268 271 274 277 280 283 286 289 292 295 298 301 304 307 310 313 316 319 322 325 328 331 334 337 340 343 346 349 352 355 358 361 364 367 370 373 376 379 382 385 388 391 394 397 400 403 406 409 412 415 418 421 424 427 430 433 436 439 442 445 448 451 454 457 460 463 466 0
-471 2 5 8 11 14 17 20 23 26 29 32 35 38 41 44 47 50 53 56 59 62 65 68 71 74 77 80 83 86 89 92 95 98 101 104 107 110 113 116 119 122 125 128 131 134 137 140 143 146 149 152 155 158 161 164 167 170 173 176 179 182 185 188 191 194 197 200 203 206 209 212 215 218 221 224 227 230 233 236 239 242 245 248 251 254 257 260 263 266 269 272 275 278 281 284 287 290 293 296 299 302 305 308 311 314 317 320 323 326 329 332 335 338 341 344 347 350 353 356 359 362 365 368 371 374 377 380 383 386 389 392 395 398 401 404 407 410 413 416 419 422 425 428 431 434 437 440 443 446 449 452 455 458 461 464 467 0
-473 1 4 7 10 13 16 19 22 25 28 31 34 37 40 43 46 49 52 55 58 61 64 67 70 73 76 79 82 85 88 91 94 97 100 103 106 109 112 115 118 121 124 127 130 133 136 139 142 145 148 151 154 157 160 163 166 169 172 175 178 181 184 187 190 193 196 199 202 205 208 211 214 217 220 223 226 229 232 235 238 241 244 247 250 253 256 259 262 265 268 271 274 277 280 283 286 289 292 295 298 301 304 307 310 313 316 319 322 325 328 331 334 337 340 343 346 349 352 355 358 361 364 367 370 373 376 379 382 385 388 391 394 397 400 403 406 409 412 415 418 421 424 427 430 433 436 439 442 445 448 451 454 457 460 463 466 469 0
-474 2 5 8 11 14 17 20 23 26 29 32 35 38 41 44 47 50 53 56 59 62 65 68 71 74 77 80 83 86 89 92 95 98 101 104 107 110 113 116 119 122 125 128 131 134 137 140 143 146 149 152 155 158 161 164 167 170 173 176 179 182 185 188 191 194 197 200 203 206 209 212 215 218 221 224 227 230 233 236 239 242 245 248 251 254 257 260 263 266 269 272 275 278 281 284 287 290 293 296 299 302 305 308 311 314 317 320 323 326 329 332 335 338 341 344 347 350 353 356 359 362 365 368 371 374 377 380 383 386 389 392 395 398 401 404 407 410 413 416 419 422 425 428 431 434 437 440 443 446 449 452 455 458 461 464 467 470 0
-476 1 4 7 10 13 16 19 22 25 28 31 34 37 40 43 46 49 52 55 58 61 64 67 70 73 76 79 82 85 88 91 94 97 100 103 106 109 112 115 118 121 124 127 130 133 136 139 142 145 148 151 154 157 160 163 166 169 172 175 178 181 184 187 190 193 196 199 202 205 208 211 214 217 220 223 226 229 232 235 238 241 244 247 250 253 256 259 262 265 268 271 274 277 280 283 286 289 292 295 298 301 304 307 310 313 316 319 322 325 328 331 334 337 340 343 346 349 352 355 358 361 364 367 370 373 376 379 382 385 388 391 394 397 400 403 406 409 412 415 418 421 424 427 430 433 436 439 442 445 448 451 454 457 460 463 466 469 472 0
-477 2 5 8 11 14 17 20 23 26 29 32 35 38 41 44 47 50 53 56 59 62 65 68 71 74 77 80 83 86 89 92 95 98 101 104 107 110 113 116 119 122 125 128 131 134 137 140 143 146 149 152 155 158 161 164 167 170 173 176 179 182 185 188 191 194 197 200 203 206 209 212 215 218 221 224 227 230 233 236 239 242 245 248 251 254 257 260 263 266 269 272 275 278 281 284 287 290 293 296 299 302 305 308 311 314 317 320 323 326 329 332 335 338 341 344 347 350 353 356 359 362 365 368 371 374 377 380 383 386 389 392 395 398 401 404 407 410 413 416 419 422 425 428 431 434 437 440 443 446 449 452 455 458 461 464 467 470 473 0
-479 1 4 7 10 13 16 19 22 25 28 31 34 37 40 43 46 49 52 55 58 61 64 67 70 73 76 79 82 85 88 91 94 97 100 103 106 109 112 115 118 121 124 127 130 133 136 139 142 145 148 151 154 157 160 163 166 169 172 175 178 181 184 187 190 193 196 199 202 205 208 211 214 217 220 223 226 229 232 235 238 241 244 247 250 253 256 259 262 265 268 271 274 277 280 283 286 289 292 295 298 301 304 307 310 313 316 319 322 325 328 331 334 337 340 343 346 349 352 355 358 361 364 367 370 373 376 379 382 385 388 391 394 397 400 403 406 409 412 415 418 421 424 427 430 433 436 439 442 445 448 451 454 457 460 463 466 469 472 475 0
-480 2 5 8 11 14 17 20 23 26 29 32 35 38 41 44 47 50 53 56 59 62 65 68 71 74 77 80 83 86 89 92 95 98 101 104 107 110 113 116 119 122 125 128 131 134 137 140 143 146 149 152 155 158 161 164 167 170 173 176 179 182 185 188 191 194 197 200 203 206 209 212 215 218 221 224 227 230 233 236 239 242 245 248 251 254 257 260 263 266 269 272 275 278 281 284 287 290 293 296 299 302 305 308 311 314 317 320 323 326 329 332 335 338 341 344 347 350 353 356 359 362 365 368 371 374 377 380 383 386 389 392 395 398 401 404 407 410 413 416 419 422 425 428 431 434 437 440 443 446 449 452 455 458 461 464 467 470 473 476 0
-482 1 4 7 10 13 16 19 22 25 28 31 34 37 40 43 46 49 52 55 58 61 64 67 70 73 76 79 82 85 88 91 94 97 100 103 106 109 112 115 118 121 124 127 130 133 136 139 142 145 148 151 154 157 160 163 166 169 172 175 178 181 184 187 190 193 196 199 202 205 208 211 214 217 220 223 226 229 232 235 238 241 244 247 250 253 256 259 262 265 268 271 274 277 280 283 286 289 292 295 298 301 304 307 310 313 316 319 322 325 328 331 334 337 340 343 346 349 352 355 358 361 364 367 370 373 376 379 382 385 388 391 394 397 400 403 406 409 412 415 418 421 424 427 430 433 436 439 442 445 448 451 454 457 460 463 466 469 472 475 478 0
-483 2 5 8 11 14 17 20 23 26 29 32 35 38 41 44 47 50 53 56 59 62 65 68 71 74 77 80 83 86 89 92 95 98 101 104 107 110 113 116 119 122 125 128 131 134 137 140 143 146 149 152 155 158 161 164 167 170 173 176 179 182 185 188 191 194 197 200 203 206 209 212 215 218 221 224 227 230 233 236 239 242 245 248 251 254 257 260 263 266 269 272 275 278 281 284 287 290 293 296 299 302 305 308 311 314 317 320 323 326 329 332 335 338 341 344 347 350 353 356 359 362 365 368 371 374 377 380 383 386 389 392 395 398 401 404 407 410 413 416 419 422 425 428 431 434 437 440 443 446 449 452 455 458 461 464 467 470 473 476 479 0
-485 1 4 7 10 13 16 19 22 25 28 31 34 37 40 43 46 49 52 55 58 61 64 67 70 73 76 79 82 85 88 91 94 97 100 103 106 109 112 115 118 121 124 127 130 133 136 139 142 145 148 151 154 157 160 163 166 169 172 175 178 181 184 187 190 193 196 199 202 205 208 211 214 217 220 223 226 229 232 235 238 241 244 247 250 253 256 259 262 265 268 271 274 277 280 283 286 289 292 295 298 301 304 307 310 313 316 319 322 325 328 331 334 337 340 343 346 349 352 355 358 361 364 367 370 373 376 379 382 385 388 391 394 397 400 403 406 409 412 415 418 421 424 427 430 433 436 439 442 445 448 451 454 457 460 463 466 469 472 475 478 481 0
-486 2 5 8 11 14 17 20 23 26 29 32 35 38 41 44 47 50 53 56 59 62 65 68 71 74 77 80 83 86 89 92 95 98 101 104 107 110 113 116 119 122 125 128 131 134 137 140 143 146 149 152 155 158 161 164 167 170 173 176 179 182 185 188 191 194 197 200 203 206 209 212 215 218 221 224 227 230 233 236 239 242 245 248 251 254 257 260 263 266 269 272 275 278 281 284 287 290 293 296 299 302 305 308 311 314 317 320 323 326 329 332 335 338 341 344 347 350 353 356 359 362 365 368 371 374 377 380 383 386 389 392 395 398 401 404 407 410 413 416 419 422 425 428 431 434 437 440 443 446 449 452 455 458 461 464 467 470 473 476 479 482 0
-488 1 4 7 10 13 16 19 22 25 28 31 34 37 40 43 46 49 52 55 58 61 64 67 70 73 76 79 82 85 88 91 94 97 100 103 106 109 112 115 118 121 124 127 130 133 136 139 142 145 148 151 154 157 160 163 166 169 172 175 178 181 184 187 190 193 196 199 202 205 208 211 214 217 220 223 226 229 232 235 238 241 244 247 250 253 256 259 262 265 268 271 274 277 280 283 286 289 292 295 298 301 304 307 310 313 316 319 322 325 328 331 334 337 340 343 346 349 352 355 358 361 364 367 370 373 376 379 382 385 388 391 394 397 400 403 406 409 412 415 418 421 424 427 430 433 436 439 442 445 448 451 454 457 460 463 466 469 472 475 478 481 484 0
-489 2 5 8 11 14 17 20 23 26 29 32 35 38 41 44 47 50 53 56 59 62 65 68 71 74 77 80 83 86 89 92 95 98 101 104 107 110 113 116 119 122 125 128 131 134 137 140 143 146 149 152 155 158 161 164 167 170 173 176 179 182 185 188 191 194 197 200 203 206 209 212 215 218 221 224 227 230 233 236 239 242 245 248 251 254 257 260 263 266 269 272 275 278 281 284 287 290 293 296 299 302 305 308 311 314 317 320 323 326 329 332 335 338 341 344 347 350 353 356 359 362 365 368 371 374 377 380 383 386 389 392 395 398 401 404 407 410 413 416 419 422 425 428 431 434 437 440 443 446 449 452 455 458 461 464 467 470 473 476 479 482 485 0
-491 1 4 7 10 13 16 19 22 25 28 31 34 37 40 43 46 49 52 55 58 61 64 67 70 73 76 79 82 85 88 91 94 97 100 103 106 109 112 115 118 121 124 127 130 133 136 139 142 145 148 151 154 157 160 163 166 169 172 175 178 181 184 187 190 193 196 199 202 205 208 211 214 217 220 223 226 229 232 235 238 241 244 247 250 253 256 259 262 265 268 271 274 277 280 283 286 289 292 295 298 301 304 307 310 313 316 319 322 325 328 331 334 337 340 343 346 349 352 355 358 361 364 367 370 373 376 379 382 385 388 391 394 397 400 403 406 409 412 415 418 421 424 427 430 433 436 439 442 445 448 451 454 457 460 463 466 469 472 475 478 481 484 487 0
-492 2 5 8 11 14 17 20 23 26 29 32 35 38 41 44 47 50 53 56 59 62 65 68 71 74 77 80 83 86 89 92 95 98 101 104 107 110 113 116 119 122 125 128 131 134 137 140 143 146 149 152 155 158 161 164 167 170 173 176 179 182 185 188 191 194 197 200 203 206 209 212 215 218 221 224 227 230 233 236 239 242 245 248 251 254 257 260 263 266 269 272 275 278 281 284 287 290 293 296 299 302 305 308 311 314 317 320 323 326 329 332 335 338 341 344 347 350 353 356 359 362 365 368 371 374 377 380 383 386 389 392 395 398 401 404 407 410 413 416 419 422 425 428 431 434 437 440 443 446 449 452 455 458 461 464 467 470 473 476 479 482 485 488 0
-494 1 4 7 10 13 16 19 22 25 28 31 34 37 40 43 46 49 52 55 58 61 64 67 70 73 76 79 82 85 88 91 94 97 100 103 106 109 112 115 118 121 124 127 130 133 136 139 142 145 148 151 154 157 160 163 166 169 172 175 178 181 184 187 190 193 196 199 202 205 208 211 214 217 220 223 226 229 232 235 238 241 244 247 250 253 256 259 262 265 268 271 274 277 280 283 286 289 292 295 298 301 304 307 310 313 316 319 322 325 328 331 334 337 340 343 346 349 352 355 358 361 364 367 370 373 376 379 382 385 388 391 394 397 400 403 406 409 412 415 418 421 424 427 430 433 436 439 442 445 448 451 454 457 460 463 466 469 472 475 478 481 484 487 490 0
-495 2 5 8 11 14 17 20 23 26 29 32 35 38 41 44 47 50 53 56 59 62 65 68 71 74 77 80 83 86 89 92 95 98 101 104 107 110 113 116 119 122 125 128 131 134 137 140 143 146 149 152 155 158 161 164 167 170 173 176 179 182 185 188 191 194 197 200 203 206 209 212 215 218 221 224 227 230 233 236 239 242 245 248 251 254 257 260 263 266 269 272 275 278 281 284 287 290 293 296 299 302 305 308 311 314 317 320 323 326 329 332 335 338 341 344 347 350 353 356 359 362 365 368 371 374 377 380 383 386 389 392 395 398 401 404 407 410 413 416 419 422 425 428 431 434 437 440 443 446 449 452 455 458 461 464 467 470 473 476 479 482 485 488 491 0
-497 1 4 7 10 13 16 19 22 25 28 31 34 37 40 43 46 49 52 55 58 61 64 67 70 73 76 79 82 85 88 91 94 97 100 103 106 109 112 115 118 121 124 127 130 133 136 139 142 145 148 151 154 157 160 163 166 169 172 175 178 181 184 187 190 193 196 199 202 205 208 211 214 217 220 223 226 229 232 235 238 241 244 247 250 253 256 259 262 265 268 271 274 277 280 283 286 289 292 295 298 301 304 307 310 313 316 319 322 325 328 331 334 337 340 343 346 349 352 355 358 361 364 367 370 373 376 379 382 385 388 391 394 397 400 403 406 409 412 415 418 421 424 427 430 433 436 439 442 445 448 451 454 457 460 463 466 469 472 475 478 481 484 487 490 493 0
-498 2 5 8 11 14 17 20 23 26 29 32 35 38 41 44 47 50 53 56 59 62 65 68 71 74 77 80 83 86 89 92 95 98 101 104 107 110 113 116 119 122 125 128 131 134 137 140 143 146 149 152 155 158 161 164 167 170 173 176 179 182 185 188 191 194 197 200 203 206 209 212 215 218 221 224 227 230 233 236 239 242 245 248 251 254 257 260 263 266 269 272 275 278 281 284 287 290 293 296 299 302 305 308 311 314 317 320 323 326 329 332 335 338 341 344 347 350 353 356 359 362 365 368 371 374 377 380 383 386 389 392 395 398 401 404 407 410 413 416 419 422 425 428 431 434 437 440 443 446 449 452 455 458 461 464 467 470 473 476 479 482 485 488 491 494 0
-500 1 4 7 10 13 16 19 22 25 28 31 34 37 40 43 46 49 52 55 58 61 64 67 70 73 76 79 82 85 88 91 94 97 100 103 106 109 112 115 118 121 124 127 130 133 136 139 142 145 148 151 154 157 160 163 166 169 172 175 178 181 184 187 190 193 196 199 202 205 208 211 214 217 220 223 226 229 232 235 238 241 244 247 250 253 256 259 262 265 268 271 274 277 280 283 286 289 292 295 298 301 304 307 310 313 316 319 322 325 328 331 334 337 340 343 346 349 352 355 358 361 364 367 370 373 376 379 382 385 388 391 394 397 400 403 406 409 412 415 418 421 424 427 430 433 436 439 442 445 448 451 454 457 460 463 466 469 472 475 478 481 484 487 490 493 496 0
-501 2 5 8 11 14 17 20 23 26 29 32 35 38 41 44 47 50 53 56 59 62 65 68 71 74 77 80 83 86 89 92 95 98 101 104 107 110 113 116 119 122 125 128 131 134 137 140 143 146 149 152 155 158 161 164 167 170 173 176 179 182 185 188 191 194 197 200 203 206 209 212 215 218 221 224 227 230 233 236 239 242 245 248 251 254 257 260 263 266 269 272 275 278 281 284 287 290 293 296 299 302 305 308 311 314 317 320 323 326 329 332 335 338 341 344 347 350 353 356 359 362 365 368 371 374 377 380 383 386 389 392 395 398 401 404 407 410 413 416 419 422 425 428 431 434 437 440 443 446 449 452 455 458 461 464 467 470 473 476 479 482 485 488 491 494 497 0
-503 1 4 7 10 13 16 19 22 25 28 31 34 37 40 43 46 49 52 55 58 61 64 67 70 73 76 79 82 85 88 91 94 97 100 103 106 109 112 115 118 121 124 127 130 133 136 139 142 145 148 151 154 157 160 163 166 169 172 175 178 181 184 187 190 193 196 199 202 205 208 211 214 217 220 223 226 229 232 235 238 241 244 247 250 253 256 259 262 265 268 271 274 277 280 283 286 289 292 295 298 301 304 307 310 313 316 319 322 325 328 331 334 337 340 343 346 349 352 355 358 361 364 367 370 373 376 379 382 385 388 391 394 397 400 403 406 409 412 415 418 421 424 427 430 433 436 439 442 445 448 451 454 457 460 463 466 469 472 475 478 481 484 487 490 493 496 499 0
-504 2 5 8 11 14 17 20 23 26 29 32 35 38 41 44 47 50 53 56 59 62 65 68 71 74 77 80 83 86 89 92 95 98 101 104 107 110 113 116 119 122 125 128 131 134 137 140 143 146 149 152 155 158 161 164 167 170 173 176 179 182 185 188 191 194 197 200 203 206 209 212 215 218 221 224 227 230 233 236 239 242 245 248 251 254 257 260 263 266 269 272 275 278 281 284 287 290 293 296 299 302 305 308 311 314 317 320 323 326 329 332 335 338 341 344 347 350 353 356 359 362 365 368 371 374 377 380 383 386 389 392 395 398 401 404 407 410 413 416 419 422 425 428 431 434 437 440 443 446 449 452 455 458 461 464 467 470 473 476 479 482 485 488 491 494 497 500 0
-506 1 4 7 10 13 16 19 22 25 28 31 34 37 40 43 46 49 52 55 58 61 64 67 70 73 76 79 82 85 88 91 94 97 100 103 106 109 112 115 118 121 124 127 130 133 136 139 142 145 148 151 154 157 160 163 166 169 172 175 178 181 184 187 190 193 196 199 202 205 208 211 214 217 220 223 226 229 232 235 238 241 244 247 250 253 256 259 262 265 268 271 274 277 280 283 286 289 292 295 298 301 304 307 310 313 316 319 322 325 328 331 334 337 340 343 346 349 352 355 358 361 364 367 370 373 376 379 382 385 388 391 394 397 400 403 406 409 412 415 418 421 424 427 430 433 436 439 442 445 448 451 454 457 460 463 466 469 472 475 478 481 484 487 490 493 496 499 502 0
-507 2 5 8 11 14 17 20 23 26 29 32 35 38 41 44 47 50 53 56 59 62 65 68 71 74 77 80 83 86 89 92 95 98 101 104 107 110 113 116 119 122 125 128 131 134 137 140 143 146 149 152 155 158 161 164 167 170 173 176 179 182 185 188 191 194 197 200 203 206 209 212 215 218 221 224 227 230 233 236 239 242 245 248 251 254 257 260 263 266 269 272 275 278 281 284 287 290 293 296 299 302 305 308 311 314 317 320 323 326 329 332 335 338 341 344 347 350 353 356 359 362 365 368 371 374 377 380 383 386 389 392 395 398 401 404 407 410 413 416 419 422 425 428 431 434 437 440 443 446 449 452 455 458 461 464 467 470 473 476 479 482 485 488 491 494 497 500 503 0
-509 1 4 7 10 13 16 19 22 25 28 31 34 37 40 43 46 49 52 55 58 61 64 67 70 73 76 79 82 85 88 91 94 97 100 103 106 109 112 115 118 121 124 127 130 133 136 139 142 145 148 151 154 157 160 163 166 169 172 175 178 181 184 187 190 193 196 199 202 205 208 211 214 217 220 223 226 229 232 235 238 241 244 247 250 253 256 259 262 265 268 271 274 277 280 283 286 289 292 295 298 301 304 307 310 313 316 319 322 325 328 331 334 337 340 343 346 349 352 355 358 361 364 367 370 373 376 379 382 385 388 391 394 397 400 403 406 409 412 415 418 421 424 427 430 433 436 439 442 445 448 451 454 457 460 463 466 469 472 475 478 481 484 487 490 493 496 499 502 505 0
-510 2 5 8 11 14 17 20 23 26 29 32 35 38 41 44 47 50 53 56 59 62 65 68 71 74 77 80 83 86 89 92 95 98 101 104 107 110 113 116 119 122 125 128 131 134 137 140 143 146 149 152 155 158 161 164 167 170 173 176 179 182 185 188 191 194 197 200 203 206 209 212 215 218 221 224 227 230 233 236 239 242 245 248 251 254 257 260 263 266 269 272 275 278 281 284 287 290 293 296 299 302 305 308 311 314 317 320 323 326 329 332 335 338 341 344 347 350 353 356 359 362 365 368 371 374 377 380 383 386 389 392 395 398 401 404 407 410 413 416 419 422 425 428 431 434 437 440 443 446 449 452 455 458 461 464 467 470 473 476 479 482 485 488 491 494 497 500 503 506 0
-512 1 4 7 10 13 16 19 22 25 28 31 34 37 40 43 46 49 52 55 58 61 64 67 70 73 76 79 82 85 88 91 94 97 100 103 106 109 112 115 118 121 124 127 130 133 136 139 142 145 148 151 154 157 160 163 166 169 172 175 178 181 184 187 190 193 196 199 202 205 208 211 214 217 220 223 226 229 232 235 238 241 244 247 250 253 256 259 262 265 268 271 274 277 280 283 286 289 292 295 298 301 304 307 310 313 316 319 322 325 328 331 334 337 340 343 346 349 352 355 358 361 364 367 370 373 376 379 382 385 388 391 394 397 400 403 406 409 412 415 418 421 424 427 430 433 436 439 442 445 448 451 454 457 460 463 466 469 472 475 478 481 484 487 490 493 496 499 502 505 508 0
-513 2 5 8 11 14 17 20 23 26 29 32 35 38 41 44 47 50 53 56 59 62 65 68 71 74 77 80 83 86 89 92 95 98 101 104 107 110 113 116 119 122 125 128 131 134 137 140 143 146 149 152 155 158 161 164 167 170 173 176 179 182 185 188 191 194 197 200 203 206 209 212 215 218 221 224 227 230 233 236 239 242 245 248 251 254 257 260 263 266 269 272 275 278 281 284 287 290 293 296 299 302 305 308 311 314 317 320 323 326 329 332 335 338 341 344 347 350 353 356 359 362 365 368 371 374 377 380 383 386 389 392 395 398 401 404 407 410 413 416 419 422 425 428 431 434 437 440 443 446 449 452 455 458 461 464 467 470 473 476 479 482 485 488 491 494 497 500 503 506 509 0
-515 1 4 7 10 13 16 19 22 25 28 31 34 37 40 43 46 49 52 55 58 61 64 67 70 73 76 79 82 85 88 91 94 97 100 103 106 109 112 115 118 121 124 127 130 133 136 139 142 145 148 151 154 157 160 163 166 169 172 175 178 181 184 187 190 193 196 199 202 205 208 211 214 217 220 223 226 229 232 235 238 241 244 247 250 253 256 259 262 265 268 271 274 277 280 283 286 289 292 295 298 301 304 307 310 313 316 319 322 325 328 331 334 337 340 343 346 349 352 355 358 361 364 367 370 373 376 379 382 385 388 391 394 397 400 403 406 409 412 415 418 421 424 427 430 433 436 439 442 445 448 451 454 457 460 463 466 469 472 475 478 481 484 487 490 493 496 499 502 505 508 511 0
-516 2 5 8 11 14 17 20 23 26 29 32 35 38 41 44 47 50 53 56 59 62 65 68 71 74 77 80 83 86 89 92 95 98 101 104 107 110 113 116 119 122 125 128 131 134 137 140 143 146 149 152 155 158 161 164 167 170 173 176 179 182 185 188 191 194 197 200 203 206 209 212 215 218 221 224 227 230 233 236 239 242 245 248 251 254 257 260 263 266 269 272 275 278 281 284 287 290 293 296 299 302 305 308 311 314 317 320 323 326 329 332 335 338 341 344 347 350 353 356 359 362 365 368 371 374 377 380 383 386 389 392 395 398 401 404 407 410 413 416 419 422 425 428 431 434 437 440 443 446 449 452 455 458 461 464 467 470 473 476 479 482 485 488 491 494 497 500 503 506 509 512 0
-518 1 4 7 10 13 16 19 22 25 28 31 34 37 40 43 46 49 52 55 58 61 64 67 70 73 76 79 82 85 88 91 94 97 100 103 106 109 112 115 118 121 124 127 130 133 136 139 142 145 148 151 154 157 160 163 166 169 172 175 178 181 184 187 190 193 196 199 202 205 208 211 214 217 220 223 226 229 232 235 238 241 244 247 250 253 256 259 262 265 268 271 274 277 280 283 286 289 292 295 298 301 304 307 310 313 316 319 322 325 328 331 334 337 340 343 346 349 352 355 358 361 364 367 370 373 376 379 382 385 388 391 394 397 400 403 406 409 412 415 418 421 424 427 430 433 436 439 442 445 448 451 454 457 460 463 466 469 472 475 478 481 484 487 490 493 496 499 502 505 508 511 514 0
-519 2 5 8 11 14 17 20 23 26 29 32 35 38 41 44 47 50 53 56 59 62 65 68 71 74 77 80 83 86 89 92 95 98 101 104 107 110 113 116 119 122 125 128 131 134 137 140 143 146 149 152 155 158 161 164 167 170 173 176 179 182 185 188 191 194 197 200 203 206 209 212 215 218 221 224 227 230 233 236 239 242 245 248 251 254 257 260 263 266 269 272 275 278 281 284 287 290 293 296 299 302 305 308 311 314 317 320 323 326 329 332 335 338 341 344 347 350 353 356 359 362 365 368 371 374 377 380 383 386 389 392 395 398 401 404 407 410 413 416 419 422 425 428 431 434 437 440 443 446 449 452 455 458 461 464 467 470 473 476 479 482 485 488 491 494 497 500 503 506 509 512 515 0
-521 1 4 7 10 13 16 19 22 25 28 31 34 37 40 43 46 49 52 55 58 61 64 67 70 73 76 79 82 85 88 91 94 97 100 103 106 109 112 115 118 121 124 127 130 133 136 139 142 145 148 151 154 157 160 163 166 169 172 175 178 181 184 187 190 193 196 199 202 205 208 211 214 217 220 223 226 229 232 235 238 241 244 247 250 253 256 259 262 265 268 271 274 277 280 283 286 289 292 295 298 301 304 307 310 313 316 319 322 325 328 331 334 337 340 343 346 349 352 355 358 361 364 367 370 373 376 379 382 385 388 391 394 397 400 403 406 409 412 415 418 421 424 427 430 433 436 439 442 445 448 451 454 457 460 463 466 469 472 475 478 481 484 487 490 493 496 499 502 505 508 511 514 517 0
-522 2 5 8 11 14 17 20 23 26 29 32 35 38 41 44 47 50 53 56 59 62 65 68 71 74 77 80 83 86 89 92 95 98 101 104 107 110 113 116 119 122 125 128 131 134 137 140 143 146 149 152 155 158 161 164 167 170 173 176 179 182 185 188 191 194 197 200 203 206 209 212 215 218 221 224 227 230 233 236 239 242 245 248 251 254 257 260 263 266 269 272 275 278 281 284 287 290 293 296 299 302 305 308 311 314 317 320 323 326 329 332 335 338 341 344 347 350 353 356 359 362 365 368 371 374 377 380 383 386 389 392 395 398 401 404 407 410 413 416 419 422 425 428 431 434 437 440 443 446 449 452 455 458 461 464 467 470 473 476 479 482 485 488 491 494 497 500 503 506 509 512 515 518 0
-524 1 4 7 10 13 16 19 22 25 28 31 34 37 40 43 46 49 52 55 58 61 64 67 70 73 76 79 82 85 88 91 94 97 100 103 106 109 112 115 118 121 124 127 130 133 136 139 142 145 148 151 154 157 160 163 166 169 172 175 178 181 184 187 190 193 196 199 202 205 208 211 214 217 220 223 226 229 232 235 238 241 244 247 250 253 256 259 262 265 268 271 274 277 280 283 286 289 292 295 298 301 304 307 310 313 316 319 322 325 328 331 334 337 340 343 346 349 352 355 358 361 364 367 370 373 376 379 382 385 388 391 394 397 400 403 406 409 412 415 418 421 424 427 430 433 436 439 442 445 448 451 454 457 460 463 466 469 472 475 478 481 484 487 490 493 496 499 502 505 508 511 514 517 520 0
-525 2 5 8 11 14 17 20 23 26 29 32 35 38 41 44 47 50 53 56 59 62 65 68 71 74 77 80 83 86 89 92 95 98 101 104 107 110 113 116 119 122 125 128 131 134 137 140 143 146 149 152 155 158 161 164 167 170 173 176 179 182 185 188 191 194 197 200 203 206 209 212 215 218 221 224 227 230 233 236 239 242 245 248 251 254 257 260 263 266 269 272 275 278 281 284 287 290 293 296 299 302 305 308 311 314 317 320 323 326 329 332 335 338 341 344 347 350 353 356 359 362 365 368 371 374 377 380 383 386 389 392 395 398 401 404 407 410 413 416 419 422 425 428 431 434 437 440 443 446 449 452 455 458 461 464 467 470 473 476 479 482 485 488 491 494 497 500 503 506 509 512 515 518 521 0
-527 1 4 7 10 13 16 19 22 25 28 31 34 37 40 43 46 49 52 55 58 61 64 67 70 73 76 79 82 85 88 91 94 97 100 103 106 109 112 115 118 121 124 127 130 133 136 139 142 145 148 151 154 157 160 163 166 169 172 175 178 181 184 187 190 193 196 199 202 205 208 211 214 217 220 223 226 229 232 235 238 241 244 247 250 253 256 259 262 265 268 271 274 277 280 283 286 289 292 295 298 301 304 307 310 313 316 319 322 325 328 331 334 337 340 343 346 349 352 355 358 361 364 367 370 373 376 379 382 385 388 391 394 397 400 403 406 409 412 415 418 421 424 427 430 433 436 439 442 445 448 451 454 457 460 463 466 469 472 475 478 481 484 487 490 493 496 499 502 505 508 511 514 517 520 523 0
-528 2 5 8 11 14 17 20 23 26 29 32 35 38 41 44 47 50 53 56 59 62 65 68 71 74 77 80 83 86 89 92 95 98 101 104 107 110 113 116 119 122 125 128 131 134 137 140 143 146 149 152 155 158 161 164 167 170 173 176 179 182 185 188 191 194 197 200 203 206 209 212 215 218 221 224 227 230 233 236 239 242 245 248 251 254 257 260 263 266 269 272 275 278 281 284 287 290 293 296 299 302 305 308 311 314 317 320 323 326 329 332 335 338 341 344 347 350 353 356 359 362 365 368 371 374 377 380 383 386 389 392 395 398 401 404 407 410 413 416 419 422 425 428 431 434 437 440 443 446 449 452 455 458 461 464 467 470 473 476 479 482 485 488 491 494 497 500 503 506 509 512 515 518 521 524 0
-530 1 4 7 10 13 16 19 22 25 28 31 34 37 40 43 46 49 52 55 58 61 64 67 70 73 76 79 82 85 88 91 94 97 100 103 106 109 112 115 118 121 124 127 130 133 136 139 142 145 148 151 154 157 160 163 166 169 172 175 178 181 184 187 190 193 196 199 202 205 208 211 214 217 220 223 226 229 232 235 238 241 244 247 250 253 256 259 262 265 268 271 274 277 280 283 286 289 292 295 298 301 304 307 310 313 316 319 322 325 328 331 334 337 340 343 346 349 352 355 358 361 364 367 370 373 376 379 382 385 388 391 394 397 400 403 406 409 412 415 418 421 424 427 430 433 436 439 442 445 448 451 454 457 460 463 466 469 472 475 478 481 484 487 490 493 496 499 502 505 508 511 514 517 520 523 526 0
-531 2 5 8 11 14 17 20 23 26 29 32 35 38 41 44 47 50 53 56 59 62 65 68 71 74 77 80 83 86 89 92 95 98 101 104 107 110 113 116 119 122 125 128 131 134 137 140 143 146 149 152 155 158 161 164 167 170 173 176 179 182 185 188 191 194 197 200 203 206 209 212 215 218 221 224 227 230 233 236 239 242 245 248 251 254 257 260 263 266 269 272 275 278 281 284 287 290 293 296 299 302 305 308 311 314 317 320 323 326 329 332 335 338 341 344 347 350 353 356 359 362 365 368 371 374 377 380 383 386 389 392 395 398 401 404 407 410 413 416 419 422 425 428 431 434 437 440 443 446 449 452 455 458 461 464 467 470 473 476 479 482 485 488 491 494 497 500 503 506 509 512 515 518 521 524 527 0
-533 1 4 7 10 13 16 19 22 25 28 31 34 37 40 43 46 49 52 55 58 61 64 67 70 73 76 79 82 85 88 91 94 97 100 103 106 109 112 115 118 121 124 127 130 133 136 139 142 145 148 151 154 157 160 163 166 169 172 175 178 181 184 187 190 193 196 199 202 205 208 211 214 217 220 223 226 229 232 235 238 241 244 247 250 253 256 259 262 265 268 271 274 277 280 283 286 289 292 295 298 301 304 307 310 313 316 319 322 325 328 331 334 337 340 343 346 349 352 355 358 361 364 367 370 373 376 379 382 385 388 391 394 397 400 403 406 409 412 415 418 421 424 427 430 433 436 439 442 445 448 451 454 457 460 463 466 469 472 475 478 481 484 487 490 493 496 499 502 505 508 511 514 517 520 523 526 529 0
-534 2 5 8 11 14 17 20 23 26 29 32 35 38 41 44 47 50 53 56 59 62 65 68 71 74 77 80 83 86 89 92 95 98 101 104 107 110 113 116 119 122 125 128 131 134 137 140 143 146 149 152 155 158 161 164 167 170 173 176 179 182 185 188 191 194 197 200 203 206 209 212 215 218 221 224 227 230 233 236 239 242 245 248 251 254 257 260 263 266 269 272 275 278 281 284 287 290 293 296 299 302 305 308 311 314 317 320 323 326 329 332 335 338 341 344 347 350 353 356 359 362 365 368 371 374 377 380 383 386 389 392 395 398 401 404 407 410 413 416 419 422 425 428 431 434 437 440 443 446 449 452 455 458 461 464 467 470 473 476 479 482 485 488 491 494 497 500 503 506 509 512 515 518 521 524 527 530 0
-536 1 4 7 10 13 16 19 22 25 28 31 34 37 40 43 46 49 52 55 58 61 64 67 70 73 76 79 82 85 88 91 94 97 100 103 106 109 112 115 118 121 124 127 130 133 136 139 142 145 148 151 154 157 160 163 166 169 172 175 178 181 184 187 190 193 196 199 202 205 208 211 214 217 220 223 226 229 232 235 238 241 244 247 250 253 256 259 262 265 268 271 274 277 280 283 286 289 292 295 298 301 304 307 310 313 316 319 322 325 328 331 334 337 340 343 346 349 352 355 358 361 364 367 370 373 376 379 382 385 388 391 394 397 400 403 406 409 412 415 418 421 424 427 430 433 436 439 442 445 448 451 454 457 460 463 466 469 472 475 478 481 484 487 490 493 496 499 502 505 508 511 514 517 520 523 526 529 532 0
-537 2 5 8 11 14 17 20 23 26 29 32 35 38 41 44 47 50 53 56 59 62 65 68 71 74 77 80 83 86 89 92 95 98 101 104 107 110 113 116 119 122 125 128 131 134 137 140 143 146 149 152 155 158 161 164 167 170 173 176 179 182 185 188 191 194 197 200 203 206 209 212 215 218 221 224 227 230 233 236 239 242 245 248 251 254 257 260 263 266 269 272 275 278 281 284 287 290 293 296 299 302 305 308 311 314 317 320 323 326 329 332 335 338 341 344 347 350 353 356 359 362 365 368 371 374 377 380 383 386 389 392 395 398 401 404 407 410 413 416 419 422 425 428 431 434 437 440 443 446 449 452 455 458 461 464 467 470 473 476 479 482 485 488 491 494 497 500 503 506 509 512 515 518 521 524 527 530 533 0
-539 1 4 7 10 13 16 19 22 25 28 31 34 37 40 43 46 49 52 55 58 61 64 67 70 73 76 79 82 85 88 91 94 97 100 103 106 109 112 115 118 121 124 127 130 133 136 139 142 145 148 151 154 157 160 163 166 169 172 175 178 181 184 187 190 193 196 199 202 205 208 211 214 217 220 223 226 229 232 235 238 241 244 247 250 253 256 259 262 265 268 271 274 277 280 283 286 289 292 295 298 301 304 307 310 313 316 319 322 325 328 331 334 337 340 343 346 349 352 355 358 361 364 367 370 373 376 379 382 385 388 391 394 397 400 403 406 409 412 415 418 421 424 427 430 433 436 439 442 445 448 451 454 457 460 463 466 469 472 475 478 481 484 487 490 493 496 499 502 505 508 511 514 517 520 523 526 529 532 535 0
-540 2 5 8 11 14 17 20 23 26 29 32 35 38 41 44 47 50 53 56 59 62 65 68 71 74 77 80 83 86 89 92 95 98 101 104 107 110 113 116 119 122 125 128 131 134 137 140 143 146 149 152 155 158 161 164 167 170 173 176 179 182 185 188 191 194 197 200 203 206 209 212 215 218 221 224 227 230 233 236 239 242 245 248 251 254 257 260 263 266 269 272 275 278 281 284 287 290 293 296 299 302 305 308 311 314 317 320 323 326 329 332 335 338 341 344 347 350 353 356 359 362 365 368 371 374 377 380 383 386 389 392 395 398 401 404 407 410 413 416 419 422 425 428 431 434 437 440 443 446 449 452 455 458 461 464 467 470 473 476 479 482 485 488 491 494 497 500 503 506 509 512 515 518 521 524 527 530 533 536 0
