p cnf 81 668
1 2 3 0
4 5 6 0
7 8 9 0
10 11 12 0
13 14 15 0
16 17 18 0
19 20 21 0
22 23 24 0
25 26 27 0
28 29 30 0
31 32 33 0
34 35 36 0
37 38 39 0
40 41 42 0
43 44 45 0
46 47 48 0
49 50 51 0
52 53 54 0
55 56 57 0
58 59 60 0
61 62 63 0
64 65 66 0
67 68 69 0
70 71 72 0
73 74 75 0
76 77 78 0
79 80 81 0
-1 -4 -7 0
-2 -5 -8 0
-3 -6 -9 0
-4 -7 -10 0
-5 -8 -11 0
-6 -9 -12 0
-7 -10 -13 0
-8 -11 -14 0
-9 -12 -15 0
-10 -13 -16 0
-11 -14 -17 0
-12 -15 -18 0
-13 -16 -19 0
-14 -17 -20 0
-15 -18 -21 0
-16 -19 -22 0
-17 -20 -23 0
-18 -21 -24 0
-19 -22 -25 0
-20 -23 -26 0
-21 -24 -27 0
-22 -25 -28 0
-23 -26 -29 0
-24 -27 -30 0
-25 -28 -31 0
-26 -29 -32 0
-27 -30 -33 0
-28 -31 -34 0
-29 -32 -35 0
-30 -33 -36 0
-31 -34 -37 0
-32 -35 -38 0
-33 -36 -39 0
-34 -37 -40 0
-35 -38 -41 0
-36 -39 -42 0
-37 -40 -43 0
-38 -41 -44 0
-39 -42 -45 0
-40 -43 -46 0
-41 -44 -47 0
-42 -45 -48 0
-43 -46 -49 0
-44 -47 -50 0
-45 -48 -51 0
-46 -49 -52 0
-47 -50 -53 0
-48 -51 -54 0
-49 -52 -55 0
-50 -53 -56 0
-51 -54 -57 0
-52 -55 -58 0
-53 -56 -59 0
-54 -57 -60 0
-55 -58 -61 0
-56 -59 -62 0
-57 -60 -63 0
-58 -61 -64 0
-59 -62 -65 0
-60 -63 -66 0
-61 -64 -67 0
-62 -65 -68 0
-63 -66 -69 0
-64 -67 -70 0
-65 -68 -71 0
-66 -69 -72 0
-67 -70 -73 0
-68 -71 -74 0
-69 -72 -75 0
-70 -73 -76 0
-71 -74 -77 0
-72 -75 -78 0
-73 -76 -79 0
-74 -77 -80 0
-75 -78 -81 0
-1 -7 -13 0
-2 -8 -14 0
-3 -9 -15 0
-4 -10 -16 0
-5 -11 -17 0
-6 -12 -18 0
-7 -13 -19 0
-8 -14 -20 0
-9 -15 -21 0
-10 -16 -22 0
-11 -17 -23 0
-12 -18 -24 0
-13 -19 -25 0
-14 -20 -26 0
-15 -21 -27 0
-16 -22 -28 0
-17 -23 -29 0
-18 -24 -30 0
-19 -25 -31 0
-20 -26 -32 0
-21 -27 -33 0
-22 -28 -34 0
-23 -29 -35 0
-24 -30 -36 0
-25 -31 -37 0
-26 -32 -38 0
-27 -33 -39 0
-28 -34 -40 0
-29 -35 -41 0
-30 -36 -42 0
-31 -37 -43 0
-32 -38 -44 0
-33 -39 -45 0
-34 -40 -46 0
-35 -41 -47 0
-36 -42 -48 0
-37 -43 -49 0
-38 -44 -50 0
-39 -45 -51 0
-40 -46 -52 0
-41 -47 -53 0
-42 -48 -54 0
-43 -49 -55 0
-44 -50 -56 0
-45 -51 -57 0
-46 -52 -58 0
-47 -53 -59 0
-48 -54 -60 0
-49 -55 -61 0
-50 -56 -62 0
-51 -57 -63 0
-52 -58 -64 0
-53 -59 -65 0
-54 -60 -66 0
-55 -61 -67 0
-56 -62 -68 0
-57 -63 -69 0
-58 -64 -70 0
-59 -65 -71 0
-60 -66 -72 0
-61 -67 -73 0
-62 -68 -74 0
-63 -69 -75 0
-64 -70 -76 0
-65 -71 -77 0
-66 -72 -78 0
-67 -73 -79 0
-68 -74 -80 0
-69 -75 -81 0
-1 -10 -19 0
-2 -11 -20 0
-3 -12 -21 0
-4 -13 -22 0
-5 -14 -23 0
-6 -15 -24 0
-7 -16 -25 0
-8 -17 -26 0
-9 -18 -27 0
-10 -19 -28 0
-11 -20 -29 0
-12 -21 -30 0
-13 -22 -31 0
-14 -23 -32 0
-15 -24 -33 0
-16 -25 -34 0
-17 -26 -35 0
-18 -27 -36 0
-19 -28 -37 0
-20 -29 -38 0
-21 -30 -39 0
-22 -31 -40 0
-23 -32 -41 0
-24 -33 -42 0
-25 -34 -43 0
-26 -35 -44 0
-27 -36 -45 0
-28 -37 -46 0
-29 -38 -47 0
-30 -39 -48 0
-31 -40 -49 0
-32 -41 -50 0
-33 -42 -51 0
-34 -43 -52 0
-35 -44 -53 0
-36 -45 -54 0
-37 -46 -55 0
-38 -47 -56 0
-39 -48 -57 0
-40 -49 -58 0
-41 -50 -59 0
-42 -51 -60 0
-43 -52 -61 0
-44 -53 -62 0
-45 -54 -63 0
-46 -55 -64 0
-47 -56 -65 0
-48 -57 -66 0
-49 -58 -67 0
-50 -59 -68 0
-51 -60 -69 0
-52 -61 -70 0
-53 -62 -71 0
-54 -63 -72 0
-55 -64 -73 0
-56 -65 -74 0
-57 -66 -75 0
-58 -67 -76 0
-59 -68 -77 0
-60 -69 -78 0
-61 -70 -79 0
-62 -71 -80 0
-63 -72 -81 0
-1 -13 -25 0
-2 -14 -26 0
-3 -15 -27 0
-4 -16 -28 0
-5 -17 -29 0
-6 -18 -30 0
-7 -19 -31 0
-8 -20 -32 0
-9 -21 -33 0
-10 -22 -34 0
-11 -23 -35 0
-12 -24 -36 0
-13 -25 -37 0
-14 -26 -38 0
-15 -27 -39 0
-16 -28 -40 0
-17 -29 -41 0
-18 -30 -42 0
-19 -31 -43 0
-20 -32 -44 0
-21 -33 -45 0
-22 -34 -46 0
-23 -35 -47 0
-24 -36 -48 0
-25 -37 -49 0
-26 -38 -50 0
-27 -39 -51 0
-28 -40 -52 0
-29 -41 -53 0
-30 -42 -54 0
-31 -43 -55 0
-32 -44 -56 0
-33 -45 -57 0
-34 -46 -58 0
-35 -47 -59 0
-36 -48 -60 0
-37 -49 -61 0
-38 -50 -62 0
-39 -51 -63 0
-40 -52 -64 0
-41 -53 -65 0
-42 -54 -66 0
-43 -55 -67 0
-44 -56 -68 0
-45 -57 -69 0
-46 -58 -70 0
-47 -59 -71 0
-48 -60 -72 0
-49 -61 -73 0
-50 -62 -74 0
-51 -63 -75 0
-52 -64 -76 0
-53 -65 -77 0
-54 -66 -78 0
-55 -67 -79 0
-56 -68 -80 0
-57 -69 -81 0
-1 -16 -31 0
-2 -17 -32 0
-3 -18 -33 0
-4 -19 -34 0
-5 -20 -35 0
-6 -21 -36 0
-7 -22 -37 0
-8 -23 -38 0
-9 -24 -39 0
-10 -25 -40 0
-11 -26 -41 0
-12 -27 -42 0
-13 -28 -43 0
-14 -29 -44 0
-15 -30 -45 0
-16 -31 -46 0
-17 -32 -47 0
-18 -33 -48 0
-19 -34 -49 0
-20 -35 -50 0
-21 -36 -51 0
-22 -37 -52 0
-23 -38 -53 0
-24 -39 -54 0
-25 -40 -55 0
-26 -41 -56 0
-27 -42 -57 0
-28 -43 -58 0
-29 -44 -59 0
-30 -45 -60 0
-31 -46 -61 0
-32 -47 -62 0
-33 -48 -63 0
-34 -49 -64 0
-35 -50 -65 0
-36 -51 -66 0
-37 -52 -67 0
-38 -53 -68 0
-39 -54 -69 0
-40 -55 -70 0
-41 -56 -71 0
-42 -57 -72 0
-43 -58 -73 0
-44 -59 -74 0
-45 -60 -75 0
-46 -61 -76 0
-47 -62 -77 0
-48 -63 -78 0
-49 -64 -79 0
-50 -65 -80 0
-51 -66 -81 0
-1 -19 -37 0
-2 -20 -38 0
-3 -21 -39 0
-4 -22 -40 0
-5 -23 -41 0
-6 -24 -42 0
-7 -25 -43 0
-8 -26 -44 0
-9 -27 -45 0
-10 -28 -46 0
-11 -29 -47 0
-12 -30 -48 0
-13 -31 -49 0
-14 -32 -50 0
-15 -33 -51 0
-16 -34 -52 0
-17 -35 -53 0
-18 -36 -54 0
-19 -37 -55 0
-20 -38 -56 0
-21 -39 -57 0
-22 -40 -58 0
-23 -41 -59 0
-24 -42 -60 0
-25 -43 -61 0
-26 -44 -62 0
-27 -45 -63 0
-28 -46 -64 0
-29 -47 -65 0
-30 -48 -66 0
-31 -49 -67 0
-32 -50 -68 0
-33 -51 -69 0
-34 -52 -70 0
-35 -53 -71 0
-36 -54 -72 0
-37 -55 -73 0
-38 -56 -74 0
-39 -57 -75 0
-40 -58 -76 0
-41 -59 -77 0
-42 -60 -78 0
-43 -61 -79 0
-44 -62 -80 0
-45 -63 -81 0
-1 -22 -43 0
-2 -23 -44 0
-3 -24 -45 0
-4 -25 -46 0
-5 -26 -47 0
-6 -27 -48 0
-7 -28 -49 0
-8 -29 -50 0
-9 -30 -51 0
-10 -31 -52 0
-11 -32 -53 0
-12 -33 -54 0
-13 -34 -55 0
-14 -35 -56 0
-15 -36 -57 0
-16 -37 -58 0
-17 -38 -59 0
-18 -39 -60 0
-19 -40 -61 0
-20 -41 -62 0
-21 -42 -63 0
-22 -43 -64 0
-23 -44 -65 0
-24 -45 -66 0
-25 -46 -67 0
-26 -47 -68 0
-27 -48 -69 0
-28 -49 -70 0
-29 -50 -71 0
-30 -51 -72 0
-31 -52 -73 0
-32 -53 -74 0
-33 -54 -75 0
-34 -55 -76 0
-35 -56 -77 0
-36 -57 -78 0
-37 -58 -79 0
-38 -59 -80 0
-39 -60 -81 0
-1 -25 -49 0
-2 -26 -50 0
-3 -27 -51 0
-4 -28 -52 0
-5 -29 -53 0
-6 -30 -54 0
-7 -31 -55 0
-8 -32 -56 0
-9 -33 -57 0
-10 -34 -58 0
-11 -35 -59 0
-12 -36 -60 0
-13 -37 -61 0
-14 -38 -62 0
-15 -39 -63 0
-16 -40 -64 0
-17 -41 -65 0
-18 -42 -66 0
-19 -43 -67 0
-20 -44 -68 0
-21 -45 -69 0
-22 -46 -70 0
-23 -47 -71 0
-24 -48 -72 0
-25 -49 -73 0
-26 -50 -74 0
-27 -51 -75 0
-28 -52 -76 0
-29 -53 -77 0
-30 -54 -78 0
-31 -55 -79 0
-32 -56 -80 0
-33 -57 -81 0
-1 -28 -55 0
-2 -29 -56 0
-3 -30 -57 0
-4 -31 -58 0
-5 -32 -59 0
-6 -33 -60 0
-7 -34 -61 0
-8 -35 -62 0
-9 -36 -63 0
-10 -37 -64 0
-11 -38 -65 0
-12 -39 -66 0
-13 -40 -67 0
-14 -41 -68 0
-15 -42 -69 0
-16 -43 -70 0
-17 -44 -71 0
-18 -45 -72 0
-19 -46 -73 0
-20 -47 -74 0
-21 -48 -75 0
-22 -49 -76 0
-23 -50 -77 0
-24 -51 -78 0
-25 -52 -79 0
-26 -53 -80 0
-27 -54 -81 0
-1 -31 -61 0
-2 -32 -62 0
-3 -33 -63 0
-4 -34 -64 0
-5 -35 -65 0
-6 -36 -66 0
-7 -37 -67 0
-8 -38 -68 0
-9 -39 -69 0
-10 -40 -70 0
-11 -41 -71 0
-12 -42 -72 0
-13 -43 -73 0
-14 -44 -74 0
-15 -45 -75 0
-16 -46 -76 0
-17 -47 -77 0
-18 -48 -78 0
-19 -49 -79 0
-20 -50 -80 0
-21 -51 -81 0
-1 -34 -67 0
-2 -35 -68 0
-3 -36 -69 0
-4 -37 -70 0
-5 -38 -71 0
-6 -39 -72 0
-7 -40 -73 0
-8 -41 -74 0
-9 -42 -75 0
-10 -43 -76 0
-11 -44 -77 0
-12 -45 -78 0
-13 -46 -79 0
-14 -47 -80 0
-15 -48 -81 0
-1 -37 -73 0
-2 -38 -74 0
-3 -39 -75 0
-4 -40 -76 0
-5 -41 -77 0
-6 -42 -78 0
-7 -43 -79 0
-8 -44 -80 0
-9 -45 -81 0
-1 -40 -79 0
-2 -41 -80 0
-3 -42 -81 0
-1 -2 0
-1 -3 0
-2 -3 0
-4 -5 0
-4 -6 0
-5 -6 0
-7 -8 0
-7 -9 0
-8 -9 0
-10 -11 0
-10 -12 0
-11 -12 0
-13 -14 0
-13 -15 0
-14 -15 0
-16 -17 0
-16 -18 0
-17 -18 0
-19 -20 0
-19 -21 0
-20 -21 0
-22 -23 0
-22 -24 0
-23 -24 0
-25 -26 0
-25 -27 0
-26 -27 0
-28 -29 0
-28 -30 0
-29 -30 0
-31 -32 0
-31 -33 0
-32 -33 0
-34 -35 0
-34 -36 0
-35 -36 0
-37 -38 0
-37 -39 0
-38 -39 0
-40 -41 0
-40 -42 0
-41 -42 0
-43 -44 0
-43 -45 0
-44 -45 0
-46 -47 0
-46 -48 0
-47 -48 0
-49 -50 0
-49 -51 0
-50 -51 0
-52 -53 0
-52 -54 0
-53 -54 0
-55 -56 0
-55 -57 0
-56 -57 0
-58 -59 0
-58 -60 0
-59 -60 0
-61 -62 0
-61 -63 0
-62 -63 0
-64 -65 0
-64 -66 0
-65 -66 0
-67 -68 0
-67 -69 0
-68 -69 0
-70 -71 0
-70 -72 0
-71 -72 0
-73 -74 0
-73 -75 0
-74 -75 0
-76 -77 0
-76 -78 0
-77 -78 0
-79 -80 0
-79 -81 0
-80 -81 0
1 0
-5 1 0
-6 0
-8 1 4 0
-9 2 5 0
-11 1 4 7 0
-12 2 5 8 0
-14 1 4 7 10 0
-15 2 5 8 11 0
-17 1 4 7 10 13 0
-18 2 5 8 11 14 0
-20 1 4 7 10 13 16 0
-21 2 5 8 11 14 17 0
-23 1 4 7 10 13 16 19 0
-24 2 5 8 11 14 17 20 0
-26 1 4 7 10 13 16 19 22 0
-27 2 5 8 11 14 17 20 23 0
-29 1 4 7 10 13 16 19 22 25 0
-30 2 5 8 11 14 17 20 23 26 0
-32 1 4 7 10 13 16 19 22 25 28 0
-33 2 5 8 11 14 17 20 23 26 29 0
-35 1 4 7 10 13 16 19 22 25 28 31 0
-36 2 5 8 11 14 17 20 23 26 29 32 0
-38 1 4 7 10 13 16 19 22 25 28 31 34 0
-39 2 5 8 11 14 17 20 23 26 29 32 35 0
-41 1 4 7 10 13 16 19 22 25 28 31 34 37 0
-42 2 5 8 11 14 17 20 23 26 29 32 35 38 0
-44 1 4 7 10 13 16 19 22 25 28 31 34 37 40 0
-45 2 5 8 11 14 17 20 23 26 29 32 35 38 41 0
-47 1 4 7 10 13 16 19 22 25 28 31 34 37 40 43 0
-48 2 5 8 11 14 17 20 23 26 29 32 35 38 41 44 0
-50 1 4 7 10 13 16 19 22 25 28 31 34 37 40 43 46 0
-51 2 5 8 11 14 17 20 23 26 29 32 35 38 41 44 47 0
-53 1 4 7 10 13 16 19 22 25 28 31 34 37 40 43 46 49 0
-54 2 5 8 11 14 17 20 23 26 29 32 35 38 41 44 47 50 0
-56 1 4 7 10 13 16 19 22 25 28 31 34 37 40 43 46 49 52 0
-57 2 5 8 11 14 17 20 23 26 29 32 35 38 41 44 47 50 53 0
-59 1 4 7 10 13 16 19 22 25 28 31 34 37 40 43 46 49 52 55 0
-60 2 5 8 11 14 17 20 23 26 29 32 35 38 41 44 47 50 53 56 0
-62 1 4 7 10 13 16 19 22 25 28 31 34 37 40 43 46 49 52 55 58 0
-63 2 5 8 11 14 17 20 23 26 29 32 35 38 41 44 47 50 53 56 59 0
-65 1 4 7 10 13 16 19 22 25 28 31 34 37 40 43 46 49 52 55 58 61 0
-66 2 5 8 11 14 17 20 23 26 29 32 35 38 41 44 47 50 53 56 59 62 0
-68 1 4 7 10 13 16 19 22 25 28 31 34 37 40 43 46 49 52 55 58 61 64 0
-69 2 5 8 11 14 17 20 23 26 29 32 35 38 41 44 47 50 53 56 59 62 65 0
-71 1 4 7 10 13 16 19 22 25 28 31 34 37 40 43 46 49 52 55 58 61 64 67 0
-72 2 5 8 11 14 17 20 23 26 29 32 35 38 41 44 47 50 53 56 59 62 65 68 0
-74 1 4 7 10 13 16 19 22 25 28 31 34 37 40 43 46 49 52 55 58 61 64 67 70 0
-75 2 5 8 11 14 17 20 23 26 29 32 35 38 41 44 47 50 53 56 59 62 65 68 71 0
-77 1 4 7 10 13 16 19 22 25 28 31 34 37 40 43 46 49 52 55 58 61 64 67 70 73 0
-78 2 5 8 11 14 17 20 23 26 29 32 35 38 41 44 47 50 53 56 59 62 65 68 71 74 0
-80 1 4 7 10 13 16 19 22 25 28 31 34 37 40 43 46 49 52 55 58 61 64 67 70 73 76 0
-81 2 5 8 11 14 17 20 23 26 29 32 35 38 41 44 47 50 53 56 59 62 65 68 71 74 77 0
