p cnf 412 10276
1 2 3 4 0
5 6 7 8 0
9 10 11 12 0
13 14 15 16 0
17 18 19 20 0
21 22 23 24 0
25 26 27 28 0
29 30 31 32 0
33 34 35 36 0
37 38 39 40 0
41 42 43 44 0
45 46 47 48 0
49 50 51 52 0
53 54 55 56 0
57 58 59 60 0
61 62 63 64 0
65 66 67 68 0
69 70 71 72 0
73 74 75 76 0
77 78 79 80 0
81 82 83 84 0
85 86 87 88 0
89 90 91 92 0
93 94 95 96 0
97 98 99 100 0
101 102 103 104 0
105 106 107 108 0
109 110 111 112 0
113 114 115 116 0
117 118 119 120 0
121 122 123 124 0
125 126 127 128 0
129 130 131 132 0
133 134 135 136 0
137 138 139 140 0
141 142 143 144 0
145 146 147 148 0
149 150 151 152 0
153 154 155 156 0
157 158 159 160 0
161 162 163 164 0
165 166 167 168 0
169 170 171 172 0
173 174 175 176 0
177 178 179 180 0
181 182 183 184 0
185 186 187 188 0
189 190 191 192 0
193 194 195 196 0
197 198 199 200 0
201 202 203 204 0
205 206 207 208 0
209 210 211 212 0
213 214 215 216 0
217 218 219 220 0
221 222 223 224 0
225 226 227 228 0
229 230 231 232 0
233 234 235 236 0
237 238 239 240 0
241 242 243 244 0
245 246 247 248 0
249 250 251 252 0
253 254 255 256 0
257 258 259 260 0
261 262 263 264 0
265 266 267 268 0
269 270 271 272 0
273 274 275 276 0
277 278 279 280 0
281 282 283 284 0
285 286 287 288 0
289 290 291 292 0
293 294 295 296 0
297 298 299 300 0
301 302 303 304 0
305 306 307 308 0
309 310 311 312 0
313 314 315 316 0
317 318 319 320 0
321 322 323 324 0
325 326 327 328 0
329 330 331 332 0
333 334 335 336 0
337 338 339 340 0
341 342 343 344 0
345 346 347 348 0
349 350 351 352 0
353 354 355 356 0
357 358 359 360 0
361 362 363 364 0
365 366 367 368 0
369 370 371 372 0
373 374 375 376 0
377 378 379 380 0
381 382 383 384 0
385 386 387 388 0
389 390 391 392 0
393 394 395 396 0
397 398 399 400 0
401 402 403 404 0
405 406 407 408 0
409 410 411 412 0
-1 -9 0
-2 -10 0
-3 -11 0
-4 -12 0
-5 -9 -13 0
-6 -10 -14 0
-7 -11 -15 0
-8 -12 -16 0
-9 -17 0
-10 -18 0
-11 -19 0
-12 -20 0
-9 -13 -21 0
-10 -14 -22 0
-11 -15 -23 0
-12 -16 -24 0
-9 -17 -25 0
-10 -18 -26 0
-11 -19 -27 0
-12 -20 -28 0
-9 -21 -29 0
-10 -22 -30 0
-11 -23 -31 0
-12 -24 -32 0
-9 -25 -33 0
-10 -26 -34 0
-11 -27 -35 0
-12 -28 -36 0
-9 -29 -37 0
-10 -30 -38 0
-11 -31 -39 0
-12 -32 -40 0
-9 -33 -41 0
-10 -34 -42 0
-11 -35 -43 0
-12 -36 -44 0
-9 -37 -45 0
-10 -38 -46 0
-11 -39 -47 0
-12 -40 -48 0
-9 -41 -49 0
-10 -42 -50 0
-11 -43 -51 0
-12 -44 -52 0
-9 -45 -53 0
-10 -46 -54 0
-11 -47 -55 0
-12 -48 -56 0
-9 -49 -57 0
-10 -50 -58 0
-11 -51 -59 0
-12 -52 -60 0
-9 -53 -61 0
-10 -54 -62 0
-11 -55 -63 0
-12 -56 -64 0
-9 -57 -65 0
-10 -58 -66 0
-11 -59 -67 0
-12 -60 -68 0
-9 -61 -69 0
-10 -62 -70 0
-11 -63 -71 0
-12 -64 -72 0
-9 -65 -73 0
-10 -66 -74 0
-11 -67 -75 0
-12 -68 -76 0
-9 -69 -77 0
-10 -70 -78 0
-11 -71 -79 0
-12 -72 -80 0
-9 -73 -81 0
-10 -74 -82 0
-11 -75 -83 0
-12 -76 -84 0
-9 -77 -85 0
-10 -78 -86 0
-11 -79 -87 0
-12 -80 -88 0
-9 -81 -89 0
-10 -82 -90 0
-11 -83 -91 0
-12 -84 -92 0
-9 -85 -93 0
-10 -86 -94 0
-11 -87 -95 0
-12 -88 -96 0
-9 -89 -97 0
-10 -90 -98 0
-11 -91 -99 0
-12 -92 -100 0
-9 -93 -101 0
-10 -94 -102 0
-11 -95 -103 0
-12 -96 -104 0
-9 -97 -105 0
-10 -98 -106 0
-11 -99 -107 0
-12 -100 -108 0
-9 -101 -109 0
-10 -102 -110 0
-11 -103 -111 0
-12 -104 -112 0
-9 -105 -113 0
-10 -106 -114 0
-11 -107 -115 0
-12 -108 -116 0
-9 -109 -117 0
-10 -110 -118 0
-11 -111 -119 0
-12 -112 -120 0
-9 -113 -121 0
-10 -114 -122 0
-11 -115 -123 0
-12 -116 -124 0
-9 -117 -125 0
-10 -118 -126 0
-11 -119 -127 0
-12 -120 -128 0
-9 -121 -129 0
-10 -122 -130 0
-11 -123 -131 0
-12 -124 -132 0
-9 -125 -133 0
-10 -126 -134 0
-11 -127 -135 0
-12 -128 -136 0
-9 -129 -137 0
-10 -130 -138 0
-11 -131 -139 0
-12 -132 -140 0
-9 -133 -141 0
-10 -134 -142 0
-11 -135 -143 0
-12 -136 -144 0
-9 -137 -145 0
-10 -138 -146 0
-11 -139 -147 0
-12 -140 -148 0
-9 -141 -149 0
-10 -142 -150 0
-11 -143 -151 0
-12 -144 -152 0
-9 -145 -153 0
-10 -146 -154 0
-11 -147 -155 0
-12 -148 -156 0
-9 -149 -157 0
-10 -150 -158 0
-11 -151 -159 0
-12 -152 -160 0
-9 -153 -161 0
-10 -154 -162 0
-11 -155 -163 0
-12 -156 -164 0
-9 -157 -165 0
-10 -158 -166 0
-11 -159 -167 0
-12 -160 -168 0
-9 -161 -169 0
-10 -162 -170 0
-11 -163 -171 0
-12 -164 -172 0
-9 -165 -173 0
-10 -166 -174 0
-11 -167 -175 0
-12 -168 -176 0
-9 -169 -177 0
-10 -170 -178 0
-11 -171 -179 0
-12 -172 -180 0
-9 -173 -181 0
-10 -174 -182 0
-11 -175 -183 0
-12 -176 -184 0
-9 -177 -185 0
-10 -178 -186 0
-11 -179 -187 0
-12 -180 -188 0
-9 -181 -189 0
-10 -182 -190 0
-11 -183 -191 0
-12 -184 -192 0
-9 -185 -193 0
-10 -186 -194 0
-11 -187 -195 0
-12 -188 -196 0
-9 -189 -197 0
-10 -190 -198 0
-11 -191 -199 0
-12 -192 -200 0
-9 -193 -201 0
-10 -194 -202 0
-11 -195 -203 0
-12 -196 -204 0
-9 -197 -205 0
-10 -198 -206 0
-11 -199 -207 0
-12 -200 -208 0
-9 -201 -209 0
-10 -202 -210 0
-11 -203 -211 0
-12 -204 -212 0
-9 -205 -213 0
-10 -206 -214 0
-11 -207 -215 0
-12 -208 -216 0
-9 -209 -217 0
-10 -210 -218 0
-11 -211 -219 0
-12 -212 -220 0
-9 -213 -221 0
-10 -214 -222 0
-11 -215 -223 0
-12 -216 -224 0
-9 -217 -225 0
-10 -218 -226 0
-11 -219 -227 0
-12 -220 -228 0
-9 -221 -229 0
-10 -222 -230 0
-11 -223 -231 0
-12 -224 -232 0
-9 -225 -233 0
-10 -226 -234 0
-11 -227 -235 0
-12 -228 -236 0
-9 -229 -237 0
-10 -230 -238 0
-11 -231 -239 0
-12 -232 -240 0
-9 -233 -241 0
-10 -234 -242 0
-11 -235 -243 0
-12 -236 -244 0
-9 -237 -245 0
-10 -238 -246 0
-11 -239 -247 0
-12 -240 -248 0
-9 -241 -249 0
-10 -242 -250 0
-11 -243 -251 0
-12 -244 -252 0
-9 -245 -253 0
-10 -246 -254 0
-11 -247 -255 0
-12 -248 -256 0
-9 -249 -257 0
-10 -250 -258 0
-11 -251 -259 0
-12 -252 -260 0
-9 -253 -261 0
-10 -254 -262 0
-11 -255 -263 0
-12 -256 -264 0
-9 -257 -265 0
-10 -258 -266 0
-11 -259 -267 0
-12 -260 -268 0
-9 -261 -269 0
-10 -262 -270 0
-11 -263 -271 0
-12 -264 -272 0
-9 -265 -273 0
-10 -266 -274 0
-11 -267 -275 0
-12 -268 -276 0
-9 -269 -277 0
-10 -270 -278 0
-11 -271 -279 0
-12 -272 -280 0
-9 -273 -281 0
-10 -274 -282 0
-11 -275 -283 0
-12 -276 -284 0
-9 -277 -285 0
-10 -278 -286 0
-11 -279 -287 0
-12 -280 -288 0
-9 -281 -289 0
-10 -282 -290 0
-11 -283 -291 0
-12 -284 -292 0
-9 -285 -293 0
-10 -286 -294 0
-11 -287 -295 0
-12 -288 -296 0
-9 -289 -297 0
-10 -290 -298 0
-11 -291 -299 0
-12 -292 -300 0
-9 -293 -301 0
-10 -294 -302 0
-11 -295 -303 0
-12 -296 -304 0
-9 -297 -305 0
-10 -298 -306 0
-11 -299 -307 0
-12 -300 -308 0
-9 -301 -309 0
-10 -302 -310 0
-11 -303 -311 0
-12 -304 -312 0
-9 -305 -313 0
-10 -306 -314 0
-11 -307 -315 0
-12 -308 -316 0
-9 -309 -317 0
-10 -310 -318 0
-11 -311 -319 0
-12 -312 -320 0
-9 -313 -321 0
-10 -314 -322 0
-11 -315 -323 0
-12 -316 -324 0
-9 -317 -325 0
-10 -318 -326 0
-11 -319 -327 0
-12 -320 -328 0
-9 -321 -329 0
-10 -322 -330 0
-11 -323 -331 0
-12 -324 -332 0
-9 -325 -333 0
-10 -326 -334 0
-11 -327 -335 0
-12 -328 -336 0
-9 -329 -337 0
-10 -330 -338 0
-11 -331 -339 0
-12 -332 -340 0
-9 -333 -341 0
-10 -334 -342 0
-11 -335 -343 0
-12 -336 -344 0
-9 -337 -345 0
-10 -338 -346 0
-11 -339 -347 0
-12 -340 -348 0
-9 -341 -349 0
-10 -342 -350 0
-11 -343 -351 0
-12 -344 -352 0
-9 -345 -353 0
-10 -346 -354 0
-11 -347 -355 0
-12 -348 -356 0
-9 -349 -357 0
-10 -350 -358 0
-11 -351 -359 0
-12 -352 -360 0
-9 -353 -361 0
-10 -354 -362 0
-11 -355 -363 0
-12 -356 -364 0
-9 -357 -365 0
-10 -358 -366 0
-11 -359 -367 0
-12 -360 -368 0
-9 -361 -369 0
-10 -362 -370 0
-11 -363 -371 0
-12 -364 -372 0
-9 -365 -373 0
-10 -366 -374 0
-11 -367 -375 0
-12 -368 -376 0
-9 -369 -377 0
-10 -370 -378 0
-11 -371 -379 0
-12 -372 -380 0
-9 -373 -381 0
-10 -374 -382 0
-11 -375 -383 0
-12 -376 -384 0
-9 -377 -385 0
-10 -378 -386 0
-11 -379 -387 0
-12 -380 -388 0
-9 -381 -389 0
-10 -382 -390 0
-11 -383 -391 0
-12 -384 -392 0
-9 -385 -393 0
-10 -386 -394 0
-11 -387 -395 0
-12 -388 -396 0
-9 -389 -397 0
-10 -390 -398 0
-11 -391 -399 0
-12 -392 -400 0
-9 -393 -401 0
-10 -394 -402 0
-11 -395 -403 0
-12 -396 -404 0
-9 -397 -405 0
-10 -398 -406 0
-11 -399 -407 0
-12 -400 -408 0
-9 -401 -409 0
-10 -402 -410 0
-11 -403 -411 0
-12 -404 -412 0
-1 -17 -21 0
-2 -18 -22 0
-3 -19 -23 0
-4 -20 -24 0
-5 -21 0
-6 -22 0
-7 -23 0
-8 -24 0
-9 -21 -25 0
-10 -22 -26 0
-11 -23 -27 0
-12 -24 -28 0
-13 -21 -29 0
-14 -22 -30 0
-15 -23 -31 0
-16 -24 -32 0
-17 -21 -33 0
-18 -22 -34 0
-19 -23 -35 0
-20 -24 -36 0
-21 -37 0
-22 -38 0
-23 -39 0
-24 -40 0
-21 -25 -41 0
-22 -26 -42 0
-23 -27 -43 0
-24 -28 -44 0
-21 -29 -45 0
-22 -30 -46 0
-23 -31 -47 0
-24 -32 -48 0
-21 -33 -49 0
-22 -34 -50 0
-23 -35 -51 0
-24 -36 -52 0
-21 -37 -53 0
-22 -38 -54 0
-23 -39 -55 0
-24 -40 -56 0
-21 -41 -57 0
-22 -42 -58 0
-23 -43 -59 0
-24 -44 -60 0
-21 -45 -61 0
-22 -46 -62 0
-23 -47 -63 0
-24 -48 -64 0
-21 -49 -65 0
-22 -50 -66 0
-23 -51 -67 0
-24 -52 -68 0
-21 -53 -69 0
-22 -54 -70 0
-23 -55 -71 0
-24 -56 -72 0
-21 -57 -73 0
-22 -58 -74 0
-23 -59 -75 0
-24 -60 -76 0
-21 -61 -77 0
-22 -62 -78 0
-23 -63 -79 0
-24 -64 -80 0
-21 -65 -81 0
-22 -66 -82 0
-23 -67 -83 0
-24 -68 -84 0
-21 -69 -85 0
-22 -70 -86 0
-23 -71 -87 0
-24 -72 -88 0
-21 -73 -89 0
-22 -74 -90 0
-23 -75 -91 0
-24 -76 -92 0
-21 -77 -93 0
-22 -78 -94 0
-23 -79 -95 0
-24 -80 -96 0
-21 -81 -97 0
-22 -82 -98 0
-23 -83 -99 0
-24 -84 -100 0
-21 -85 -101 0
-22 -86 -102 0
-23 -87 -103 0
-24 -88 -104 0
-21 -89 -105 0
-22 -90 -106 0
-23 -91 -107 0
-24 -92 -108 0
-21 -93 -109 0
-22 -94 -110 0
-23 -95 -111 0
-24 -96 -112 0
-21 -97 -113 0
-22 -98 -114 0
-23 -99 -115 0
-24 -100 -116 0
-21 -101 -117 0
-22 -102 -118 0
-23 -103 -119 0
-24 -104 -120 0
-21 -105 -121 0
-22 -106 -122 0
-23 -107 -123 0
-24 -108 -124 0
-21 -109 -125 0
-22 -110 -126 0
-23 -111 -127 0
-24 -112 -128 0
-21 -113 -129 0
-22 -114 -130 0
-23 -115 -131 0
-24 -116 -132 0
-21 -117 -133 0
-22 -118 -134 0
-23 -119 -135 0
-24 -120 -136 0
-21 -121 -137 0
-22 -122 -138 0
-23 -123 -139 0
-24 -124 -140 0
-21 -125 -141 0
-22 -126 -142 0
-23 -127 -143 0
-24 -128 -144 0
-21 -129 -145 0
-22 -130 -146 0
-23 -131 -147 0
-24 -132 -148 0
-21 -133 -149 0
-22 -134 -150 0
-23 -135 -151 0
-24 -136 -152 0
-21 -137 -153 0
-22 -138 -154 0
-23 -139 -155 0
-24 -140 -156 0
-21 -141 -157 0
-22 -142 -158 0
-23 -143 -159 0
-24 -144 -160 0
-21 -145 -161 0
-22 -146 -162 0
-23 -147 -163 0
-24 -148 -164 0
-21 -149 -165 0
-22 -150 -166 0
-23 -151 -167 0
-24 -152 -168 0
-21 -153 -169 0
-22 -154 -170 0
-23 -155 -171 0
-24 -156 -172 0
-21 -157 -173 0
-22 -158 -174 0
-23 -159 -175 0
-24 -160 -176 0
-21 -161 -177 0
-22 -162 -178 0
-23 -163 -179 0
-24 -164 -180 0
-21 -165 -181 0
-22 -166 -182 0
-23 -167 -183 0
-24 -168 -184 0
-21 -169 -185 0
-22 -170 -186 0
-23 -171 -187 0
-24 -172 -188 0
-21 -173 -189 0
-22 -174 -190 0
-23 -175 -191 0
-24 -176 -192 0
-21 -177 -193 0
-22 -178 -194 0
-23 -179 -195 0
-24 -180 -196 0
-21 -181 -197 0
-22 -182 -198 0
-23 -183 -199 0
-24 -184 -200 0
-21 -185 -201 0
-22 -186 -202 0
-23 -187 -203 0
-24 -188 -204 0
-21 -189 -205 0
-22 -190 -206 0
-23 -191 -207 0
-24 -192 -208 0
-21 -193 -209 0
-22 -194 -210 0
-23 -195 -211 0
-24 -196 -212 0
-21 -197 -213 0
-22 -198 -214 0
-23 -199 -215 0
-24 -200 -216 0
-21 -201 -217 0
-22 -202 -218 0
-23 -203 -219 0
-24 -204 -220 0
-21 -205 -221 0
-22 -206 -222 0
-23 -207 -223 0
-24 -208 -224 0
-21 -209 -225 0
-22 -210 -226 0
-23 -211 -227 0
-24 -212 -228 0
-21 -213 -229 0
-22 -214 -230 0
-23 -215 -231 0
-24 -216 -232 0
-21 -217 -233 0
-22 -218 -234 0
-23 -219 -235 0
-24 -220 -236 0
-21 -221 -237 0
-22 -222 -238 0
-23 -223 -239 0
-24 -224 -240 0
-21 -225 -241 0
-22 -226 -242 0
-23 -227 -243 0
-24 -228 -244 0
-21 -229 -245 0
-22 -230 -246 0
-23 -231 -247 0
-24 -232 -248 0
-21 -233 -249 0
-22 -234 -250 0
-23 -235 -251 0
-24 -236 -252 0
-21 -237 -253 0
-22 -238 -254 0
-23 -239 -255 0
-24 -240 -256 0
-21 -241 -257 0
-22 -242 -258 0
-23 -243 -259 0
-24 -244 -260 0
-21 -245 -261 0
-22 -246 -262 0
-23 -247 -263 0
-24 -248 -264 0
-21 -249 -265 0
-22 -250 -266 0
-23 -251 -267 0
-24 -252 -268 0
-21 -253 -269 0
-22 -254 -270 0
-23 -255 -271 0
-24 -256 -272 0
-21 -257 -273 0
-22 -258 -274 0
-23 -259 -275 0
-24 -260 -276 0
-21 -261 -277 0
-22 -262 -278 0
-23 -263 -279 0
-24 -264 -280 0
-21 -265 -281 0
-22 -266 -282 0
-23 -267 -283 0
-24 -268 -284 0
-21 -269 -285 0
-22 -270 -286 0
-23 -271 -287 0
-24 -272 -288 0
-21 -273 -289 0
-22 -274 -290 0
-23 -275 -291 0
-24 -276 -292 0
-21 -277 -293 0
-22 -278 -294 0
-23 -279 -295 0
-24 -280 -296 0
-21 -281 -297 0
-22 -282 -298 0
-23 -283 -299 0
-24 -284 -300 0
-21 -285 -301 0
-22 -286 -302 0
-23 -287 -303 0
-24 -288 -304 0
-21 -289 -305 0
-22 -290 -306 0
-23 -291 -307 0
-24 -292 -308 0
-21 -293 -309 0
-22 -294 -310 0
-23 -295 -311 0
-24 -296 -312 0
-21 -297 -313 0
-22 -298 -314 0
-23 -299 -315 0
-24 -300 -316 0
-21 -301 -317 0
-22 -302 -318 0
-23 -303 -319 0
-24 -304 -320 0
-21 -305 -321 0
-22 -306 -322 0
-23 -307 -323 0
-24 -308 -324 0
-21 -309 -325 0
-22 -310 -326 0
-23 -311 -327 0
-24 -312 -328 0
-21 -313 -329 0
-22 -314 -330 0
-23 -315 -331 0
-24 -316 -332 0
-21 -317 -333 0
-22 -318 -334 0
-23 -319 -335 0
-24 -320 -336 0
-21 -321 -337 0
-22 -322 -338 0
-23 -323 -339 0
-24 -324 -340 0
-21 -325 -341 0
-22 -326 -342 0
-23 -327 -343 0
-24 -328 -344 0
-21 -329 -345 0
-22 -330 -346 0
-23 -331 -347 0
-24 -332 -348 0
-21 -333 -349 0
-22 -334 -350 0
-23 -335 -351 0
-24 -336 -352 0
-21 -337 -353 0
-22 -338 -354 0
-23 -339 -355 0
-24 -340 -356 0
-21 -341 -357 0
-22 -342 -358 0
-23 -343 -359 0
-24 -344 -360 0
-21 -345 -361 0
-22 -346 -362 0
-23 -347 -363 0
-24 -348 -364 0
-21 -349 -365 0
-22 -350 -366 0
-23 -351 -367 0
-24 -352 -368 0
-21 -353 -369 0
-22 -354 -370 0
-23 -355 -371 0
-24 -356 -372 0
-21 -357 -373 0
-22 -358 -374 0
-23 -359 -375 0
-24 -360 -376 0
-21 -361 -377 0
-22 -362 -378 0
-23 -363 -379 0
-24 -364 -380 0
-21 -365 -381 0
-22 -366 -382 0
-23 -367 -383 0
-24 -368 -384 0
-21 -369 -385 0
-22 -370 -386 0
-23 -371 -387 0
-24 -372 -388 0
-21 -373 -389 0
-22 -374 -390 0
-23 -375 -391 0
-24 -376 -392 0
-21 -377 -393 0
-22 -378 -394 0
-23 -379 -395 0
-24 -380 -396 0
-21 -381 -397 0
-22 -382 -398 0
-23 -383 -399 0
-24 -384 -400 0
-21 -385 -401 0
-22 -386 -402 0
-23 -387 -403 0
-24 -388 -404 0
-21 -389 -405 0
-22 -390 -406 0
-23 -391 -407 0
-24 -392 -408 0
-21 -393 -409 0
-22 -394 -410 0
-23 -395 -411 0
-24 -396 -412 0
-1 -25 -33 0
-2 -26 -34 0
-3 -27 -35 0
-4 -28 -36 0
-5 -29 -33 0
-6 -30 -34 0
-7 -31 -35 0
-8 -32 -36 0
-9 -33 0
-10 -34 0
-11 -35 0
-12 -36 0
-13 -33 -37 0
-14 -34 -38 0
-15 -35 -39 0
-16 -36 -40 0
-17 -33 -41 0
-18 -34 -42 0
-19 -35 -43 0
-20 -36 -44 0
-21 -33 -45 0
-22 -34 -46 0
-23 -35 -47 0
-24 -36 -48 0
-25 -33 -49 0
-26 -34 -50 0
-27 -35 -51 0
-28 -36 -52 0
-29 -33 -53 0
-30 -34 -54 0
-31 -35 -55 0
-32 -36 -56 0
-33 -57 0
-34 -58 0
-35 -59 0
-36 -60 0
-33 -37 -61 0
-34 -38 -62 0
-35 -39 -63 0
-36 -40 -64 0
-33 -41 -65 0
-34 -42 -66 0
-35 -43 -67 0
-36 -44 -68 0
-33 -45 -69 0
-34 -46 -70 0
-35 -47 -71 0
-36 -48 -72 0
-33 -49 -73 0
-34 -50 -74 0
-35 -51 -75 0
-36 -52 -76 0
-33 -53 -77 0
-34 -54 -78 0
-35 -55 -79 0
-36 -56 -80 0
-33 -57 -81 0
-34 -58 -82 0
-35 -59 -83 0
-36 -60 -84 0
-33 -61 -85 0
-34 -62 -86 0
-35 -63 -87 0
-36 -64 -88 0
-33 -65 -89 0
-34 -66 -90 0
-35 -67 -91 0
-36 -68 -92 0
-33 -69 -93 0
-34 -70 -94 0
-35 -71 -95 0
-36 -72 -96 0
-33 -73 -97 0
-34 -74 -98 0
-35 -75 -99 0
-36 -76 -100 0
-33 -77 -101 0
-34 -78 -102 0
-35 -79 -103 0
-36 -80 -104 0
-33 -81 -105 0
-34 -82 -106 0
-35 -83 -107 0
-36 -84 -108 0
-33 -85 -109 0
-34 -86 -110 0
-35 -87 -111 0
-36 -88 -112 0
-33 -89 -113 0
-34 -90 -114 0
-35 -91 -115 0
-36 -92 -116 0
-33 -93 -117 0
-34 -94 -118 0
-35 -95 -119 0
-36 -96 -120 0
-33 -97 -121 0
-34 -98 -122 0
-35 -99 -123 0
-36 -100 -124 0
-33 -101 -125 0
-34 -102 -126 0
-35 -103 -127 0
-36 -104 -128 0
-33 -105 -129 0
-34 -106 -130 0
-35 -107 -131 0
-36 -108 -132 0
-33 -109 -133 0
-34 -110 -134 0
-35 -111 -135 0
-36 -112 -136 0
-33 -113 -137 0
-34 -114 -138 0
-35 -115 -139 0
-36 -116 -140 0
-33 -117 -141 0
-34 -118 -142 0
-35 -119 -143 0
-36 -120 -144 0
-33 -121 -145 0
-34 -122 -146 0
-35 -123 -147 0
-36 -124 -148 0
-33 -125 -149 0
-34 -126 -150 0
-35 -127 -151 0
-36 -128 -152 0
-33 -129 -153 0
-34 -130 -154 0
-35 -131 -155 0
-36 -132 -156 0
-33 -133 -157 0
-34 -134 -158 0
-35 -135 -159 0
-36 -136 -160 0
-33 -137 -161 0
-34 -138 -162 0
-35 -139 -163 0
-36 -140 -164 0
-33 -141 -165 0
-34 -142 -166 0
-35 -143 -167 0
-36 -144 -168 0
-33 -145 -169 0
-34 -146 -170 0
-35 -147 -171 0
-36 -148 -172 0
-33 -149 -173 0
-34 -150 -174 0
-35 -151 -175 0
-36 -152 -176 0
-33 -153 -177 0
-34 -154 -178 0
-35 -155 -179 0
-36 -156 -180 0
-33 -157 -181 0
-34 -158 -182 0
-35 -159 -183 0
-36 -160 -184 0
-33 -161 -185 0
-34 -162 -186 0
-35 -163 -187 0
-36 -164 -188 0
-33 -165 -189 0
-34 -166 -190 0
-35 -167 -191 0
-36 -168 -192 0
-33 -169 -193 0
-34 -170 -194 0
-35 -171 -195 0
-36 -172 -196 0
-33 -173 -197 0
-34 -174 -198 0
-35 -175 -199 0
-36 -176 -200 0
-33 -177 -201 0
-34 -178 -202 0
-35 -179 -203 0
-36 -180 -204 0
-33 -181 -205 0
-34 -182 -206 0
-35 -183 -207 0
-36 -184 -208 0
-33 -185 -209 0
-34 -186 -210 0
-35 -187 -211 0
-36 -188 -212 0
-33 -189 -213 0
-34 -190 -214 0
-35 -191 -215 0
-36 -192 -216 0
-33 -193 -217 0
-34 -194 -218 0
-35 -195 -219 0
-36 -196 -220 0
-33 -197 -221 0
-34 -198 -222 0
-35 -199 -223 0
-36 -200 -224 0
-33 -201 -225 0
-34 -202 -226 0
-35 -203 -227 0
-36 -204 -228 0
-33 -205 -229 0
-34 -206 -230 0
-35 -207 -231 0
-36 -208 -232 0
-33 -209 -233 0
-34 -210 -234 0
-35 -211 -235 0
-36 -212 -236 0
-33 -213 -237 0
-34 -214 -238 0
-35 -215 -239 0
-36 -216 -240 0
-33 -217 -241 0
-34 -218 -242 0
-35 -219 -243 0
-36 -220 -244 0
-33 -221 -245 0
-34 -222 -246 0
-35 -223 -247 0
-36 -224 -248 0
-33 -225 -249 0
-34 -226 -250 0
-35 -227 -251 0
-36 -228 -252 0
-33 -229 -253 0
-34 -230 -254 0
-35 -231 -255 0
-36 -232 -256 0
-33 -233 -257 0
-34 -234 -258 0
-35 -235 -259 0
-36 -236 -260 0
-33 -237 -261 0
-34 -238 -262 0
-35 -239 -263 0
-36 -240 -264 0
-33 -241 -265 0
-34 -242 -266 0
-35 -243 -267 0
-36 -244 -268 0
-33 -245 -269 0
-34 -246 -270 0
-35 -247 -271 0
-36 -248 -272 0
-33 -249 -273 0
-34 -250 -274 0
-35 -251 -275 0
-36 -252 -276 0
-33 -253 -277 0
-34 -254 -278 0
-35 -255 -279 0
-36 -256 -280 0
-33 -257 -281 0
-34 -258 -282 0
-35 -259 -283 0
-36 -260 -284 0
-33 -261 -285 0
-34 -262 -286 0
-35 -263 -287 0
-36 -264 -288 0
-33 -265 -289 0
-34 -266 -290 0
-35 -267 -291 0
-36 -268 -292 0
-33 -269 -293 0
-34 -270 -294 0
-35 -271 -295 0
-36 -272 -296 0
-33 -273 -297 0
-34 -274 -298 0
-35 -275 -299 0
-36 -276 -300 0
-33 -277 -301 0
-34 -278 -302 0
-35 -279 -303 0
-36 -280 -304 0
-33 -281 -305 0
-34 -282 -306 0
-35 -283 -307 0
-36 -284 -308 0
-33 -285 -309 0
-34 -286 -310 0
-35 -287 -311 0
-36 -288 -312 0
-33 -289 -313 0
-34 -290 -314 0
-35 -291 -315 0
-36 -292 -316 0
-33 -293 -317 0
-34 -294 -318 0
-35 -295 -319 0
-36 -296 -320 0
-33 -297 -321 0
-34 -298 -322 0
-35 -299 -323 0
-36 -300 -324 0
-33 -301 -325 0
-34 -302 -326 0
-35 -303 -327 0
-36 -304 -328 0
-33 -305 -329 0
-34 -306 -330 0
-35 -307 -331 0
-36 -308 -332 0
-33 -309 -333 0
-34 -310 -334 0
-35 -311 -335 0
-36 -312 -336 0
-33 -313 -337 0
-34 -314 -338 0
-35 -315 -339 0
-36 -316 -340 0
-33 -317 -341 0
-34 -318 -342 0
-35 -319 -343 0
-36 -320 -344 0
-33 -321 -345 0
-34 -322 -346 0
-35 -323 -347 0
-36 -324 -348 0
-33 -325 -349 0
-34 -326 -350 0
-35 -327 -351 0
-36 -328 -352 0
-33 -329 -353 0
-34 -330 -354 0
-35 -331 -355 0
-36 -332 -356 0
-33 -333 -357 0
-34 -334 -358 0
-35 -335 -359 0
-36 -336 -360 0
-33 -337 -361 0
-34 -338 -362 0
-35 -339 -363 0
-36 -340 -364 0
-33 -341 -365 0
-34 -342 -366 0
-35 -343 -367 0
-36 -344 -368 0
-33 -345 -369 0
-34 -346 -370 0
-35 -347 -371 0
-36 -348 -372 0
-33 -349 -373 0
-34 -350 -374 0
-35 -351 -375 0
-36 -352 -376 0
-33 -353 -377 0
-34 -354 -378 0
-35 -355 -379 0
-36 -356 -380 0
-33 -357 -381 0
-34 -358 -382 0
-35 -359 -383 0
-36 -360 -384 0
-33 -361 -385 0
-34 -362 -386 0
-35 -363 -387 0
-36 -364 -388 0
-33 -365 -389 0
-34 -366 -390 0
-35 -367 -391 0
-36 -368 -392 0
-33 -369 -393 0
-34 -370 -394 0
-35 -371 -395 0
-36 -372 -396 0
-33 -373 -397 0
-34 -374 -398 0
-35 -375 -399 0
-36 -376 -400 0
-33 -377 -401 0
-34 -378 -402 0
-35 -379 -403 0
-36 -380 -404 0
-33 -381 -405 0
-34 -382 -406 0
-35 -383 -407 0
-36 -384 -408 0
-33 -385 -409 0
-34 -386 -410 0
-35 -387 -411 0
-36 -388 -412 0
-1 -33 -45 0
-2 -34 -46 0
-3 -35 -47 0
-4 -36 -48 0
-5 -37 -45 0
-6 -38 -46 0
-7 -39 -47 0
-8 -40 -48 0
-9 -41 -45 0
-10 -42 -46 0
-11 -43 -47 0
-12 -44 -48 0
-13 -45 0
-14 -46 0
-15 -47 0
-16 -48 0
-17 -45 -49 0
-18 -46 -50 0
-19 -47 -51 0
-20 -48 -52 0
-21 -45 -53 0
-22 -46 -54 0
-23 -47 -55 0
-24 -48 -56 0
-25 -45 -57 0
-26 -46 -58 0
-27 -47 -59 0
-28 -48 -60 0
-29 -45 -61 0
-30 -46 -62 0
-31 -47 -63 0
-32 -48 -64 0
-33 -45 -65 0
-34 -46 -66 0
-35 -47 -67 0
-36 -48 -68 0
-37 -45 -69 0
-38 -46 -70 0
-39 -47 -71 0
-40 -48 -72 0
-41 -45 -73 0
-42 -46 -74 0
-43 -47 -75 0
-44 -48 -76 0
-45 -77 0
-46 -78 0
-47 -79 0
-48 -80 0
-45 -49 -81 0
-46 -50 -82 0
-47 -51 -83 0
-48 -52 -84 0
-45 -53 -85 0
-46 -54 -86 0
-47 -55 -87 0
-48 -56 -88 0
-45 -57 -89 0
-46 -58 -90 0
-47 -59 -91 0
-48 -60 -92 0
-45 -61 -93 0
-46 -62 -94 0
-47 -63 -95 0
-48 -64 -96 0
-45 -65 -97 0
-46 -66 -98 0
-47 -67 -99 0
-48 -68 -100 0
-45 -69 -101 0
-46 -70 -102 0
-47 -71 -103 0
-48 -72 -104 0
-45 -73 -105 0
-46 -74 -106 0
-47 -75 -107 0
-48 -76 -108 0
-45 -77 -109 0
-46 -78 -110 0
-47 -79 -111 0
-48 -80 -112 0
-45 -81 -113 0
-46 -82 -114 0
-47 -83 -115 0
-48 -84 -116 0
-45 -85 -117 0
-46 -86 -118 0
-47 -87 -119 0
-48 -88 -120 0
-45 -89 -121 0
-46 -90 -122 0
-47 -91 -123 0
-48 -92 -124 0
-45 -93 -125 0
-46 -94 -126 0
-47 -95 -127 0
-48 -96 -128 0
-45 -97 -129 0
-46 -98 -130 0
-47 -99 -131 0
-48 -100 -132 0
-45 -101 -133 0
-46 -102 -134 0
-47 -103 -135 0
-48 -104 -136 0
-45 -105 -137 0
-46 -106 -138 0
-47 -107 -139 0
-48 -108 -140 0
-45 -109 -141 0
-46 -110 -142 0
-47 -111 -143 0
-48 -112 -144 0
-45 -113 -145 0
-46 -114 -146 0
-47 -115 -147 0
-48 -116 -148 0
-45 -117 -149 0
-46 -118 -150 0
-47 -119 -151 0
-48 -120 -152 0
-45 -121 -153 0
-46 -122 -154 0
-47 -123 -155 0
-48 -124 -156 0
-45 -125 -157 0
-46 -126 -158 0
-47 -127 -159 0
-48 -128 -160 0
-45 -129 -161 0
-46 -130 -162 0
-47 -131 -163 0
-48 -132 -164 0
-45 -133 -165 0
-46 -134 -166 0
-47 -135 -167 0
-48 -136 -168 0
-45 -137 -169 0
-46 -138 -170 0
-47 -139 -171 0
-48 -140 -172 0
-45 -141 -173 0
-46 -142 -174 0
-47 -143 -175 0
-48 -144 -176 0
-45 -145 -177 0
-46 -146 -178 0
-47 -147 -179 0
-48 -148 -180 0
-45 -149 -181 0
-46 -150 -182 0
-47 -151 -183 0
-48 -152 -184 0
-45 -153 -185 0
-46 -154 -186 0
-47 -155 -187 0
-48 -156 -188 0
-45 -157 -189 0
-46 -158 -190 0
-47 -159 -191 0
-48 -160 -192 0
-45 -161 -193 0
-46 -162 -194 0
-47 -163 -195 0
-48 -164 -196 0
-45 -165 -197 0
-46 -166 -198 0
-47 -167 -199 0
-48 -168 -200 0
-45 -169 -201 0
-46 -170 -202 0
-47 -171 -203 0
-48 -172 -204 0
-45 -173 -205 0
-46 -174 -206 0
-47 -175 -207 0
-48 -176 -208 0
-45 -177 -209 0
-46 -178 -210 0
-47 -179 -211 0
-48 -180 -212 0
-45 -181 -213 0
-46 -182 -214 0
-47 -183 -215 0
-48 -184 -216 0
-45 -185 -217 0
-46 -186 -218 0
-47 -187 -219 0
-48 -188 -220 0
-45 -189 -221 0
-46 -190 -222 0
-47 -191 -223 0
-48 -192 -224 0
-45 -193 -225 0
-46 -194 -226 0
-47 -195 -227 0
-48 -196 -228 0
-45 -197 -229 0
-46 -198 -230 0
-47 -199 -231 0
-48 -200 -232 0
-45 -201 -233 0
-46 -202 -234 0
-47 -203 -235 0
-48 -204 -236 0
-45 -205 -237 0
-46 -206 -238 0
-47 -207 -239 0
-48 -208 -240 0
-45 -209 -241 0
-46 -210 -242 0
-47 -211 -243 0
-48 -212 -244 0
-45 -213 -245 0
-46 -214 -246 0
-47 -215 -247 0
-48 -216 -248 0
-45 -217 -249 0
-46 -218 -250 0
-47 -219 -251 0
-48 -220 -252 0
-45 -221 -253 0
-46 -222 -254 0
-47 -223 -255 0
-48 -224 -256 0
-45 -225 -257 0
-46 -226 -258 0
-47 -227 -259 0
-48 -228 -260 0
-45 -229 -261 0
-46 -230 -262 0
-47 -231 -263 0
-48 -232 -264 0
-45 -233 -265 0
-46 -234 -266 0
-47 -235 -267 0
-48 -236 -268 0
-45 -237 -269 0
-46 -238 -270 0
-47 -239 -271 0
-48 -240 -272 0
-45 -241 -273 0
-46 -242 -274 0
-47 -243 -275 0
-48 -244 -276 0
-45 -245 -277 0
-46 -246 -278 0
-47 -247 -279 0
-48 -248 -280 0
-45 -249 -281 0
-46 -250 -282 0
-47 -251 -283 0
-48 -252 -284 0
-45 -253 -285 0
-46 -254 -286 0
-47 -255 -287 0
-48 -256 -288 0
-45 -257 -289 0
-46 -258 -290 0
-47 -259 -291 0
-48 -260 -292 0
-45 -261 -293 0
-46 -262 -294 0
-47 -263 -295 0
-48 -264 -296 0
-45 -265 -297 0
-46 -266 -298 0
-47 -267 -299 0
-48 -268 -300 0
-45 -269 -301 0
-46 -270 -302 0
-47 -271 -303 0
-48 -272 -304 0
-45 -273 -305 0
-46 -274 -306 0
-47 -275 -307 0
-48 -276 -308 0
-45 -277 -309 0
-46 -278 -310 0
-47 -279 -311 0
-48 -280 -312 0
-45 -281 -313 0
-46 -282 -314 0
-47 -283 -315 0
-48 -284 -316 0
-45 -285 -317 0
-46 -286 -318 0
-47 -287 -319 0
-48 -288 -320 0
-45 -289 -321 0
-46 -290 -322 0
-47 -291 -323 0
-48 -292 -324 0
-45 -293 -325 0
-46 -294 -326 0
-47 -295 -327 0
-48 -296 -328 0
-45 -297 -329 0
-46 -298 -330 0
-47 -299 -331 0
-48 -300 -332 0
-45 -301 -333 0
-46 -302 -334 0
-47 -303 -335 0
-48 -304 -336 0
-45 -305 -337 0
-46 -306 -338 0
-47 -307 -339 0
-48 -308 -340 0
-45 -309 -341 0
-46 -310 -342 0
-47 -311 -343 0
-48 -312 -344 0
-45 -313 -345 0
-46 -314 -346 0
-47 -315 -347 0
-48 -316 -348 0
-45 -317 -349 0
-46 -318 -350 0
-47 -319 -351 0
-48 -320 -352 0
-45 -321 -353 0
-46 -322 -354 0
-47 -323 -355 0
-48 -324 -356 0
-45 -325 -357 0
-46 -326 -358 0
-47 -327 -359 0
-48 -328 -360 0
-45 -329 -361 0
-46 -330 -362 0
-47 -331 -363 0
-48 -332 -364 0
-45 -333 -365 0
-46 -334 -366 0
-47 -335 -367 0
-48 -336 -368 0
-45 -337 -369 0
-46 -338 -370 0
-47 -339 -371 0
-48 -340 -372 0
-45 -341 -373 0
-46 -342 -374 0
-47 -343 -375 0
-48 -344 -376 0
-45 -345 -377 0
-46 -346 -378 0
-47 -347 -379 0
-48 -348 -380 0
-45 -349 -381 0
-46 -350 -382 0
-47 -351 -383 0
-48 -352 -384 0
-45 -353 -385 0
-46 -354 -386 0
-47 -355 -387 0
-48 -356 -388 0
-45 -357 -389 0
-46 -358 -390 0
-47 -359 -391 0
-48 -360 -392 0
-45 -361 -393 0
-46 -362 -394 0
-47 -363 -395 0
-48 -364 -396 0
-45 -365 -397 0
-46 -366 -398 0
-47 -367 -399 0
-48 -368 -400 0
-45 -369 -401 0
-46 -370 -402 0
-47 -371 -403 0
-48 -372 -404 0
-45 -373 -405 0
-46 -374 -406 0
-47 -375 -407 0
-48 -376 -408 0
-45 -377 -409 0
-46 -378 -410 0
-47 -379 -411 0
-48 -380 -412 0
-1 -41 -57 0
-2 -42 -58 0
-3 -43 -59 0
-4 -44 -60 0
-5 -45 -57 0
-6 -46 -58 0
-7 -47 -59 0
-8 -48 -60 0
-9 -49 -57 0
-10 -50 -58 0
-11 -51 -59 0
-12 -52 -60 0
-13 -53 -57 0
-14 -54 -58 0
-15 -55 -59 0
-16 -56 -60 0
-17 -57 0
-18 -58 0
-19 -59 0
-20 -60 0
-21 -57 -61 0
-22 -58 -62 0
-23 -59 -63 0
-24 -60 -64 0
-25 -57 -65 0
-26 -58 -66 0
-27 -59 -67 0
-28 -60 -68 0
-29 -57 -69 0
-30 -58 -70 0
-31 -59 -71 0
-32 -60 -72 0
-33 -57 -73 0
-34 -58 -74 0
-35 -59 -75 0
-36 -60 -76 0
-37 -57 -77 0
-38 -58 -78 0
-39 -59 -79 0
-40 -60 -80 0
-41 -57 -81 0
-42 -58 -82 0
-43 -59 -83 0
-44 -60 -84 0
-45 -57 -85 0
-46 -58 -86 0
-47 -59 -87 0
-48 -60 -88 0
-49 -57 -89 0
-50 -58 -90 0
-51 -59 -91 0
-52 -60 -92 0
-53 -57 -93 0
-54 -58 -94 0
-55 -59 -95 0
-56 -60 -96 0
-57 -97 0
-58 -98 0
-59 -99 0
-60 -100 0
-57 -61 -101 0
-58 -62 -102 0
-59 -63 -103 0
-60 -64 -104 0
-57 -65 -105 0
-58 -66 -106 0
-59 -67 -107 0
-60 -68 -108 0
-57 -69 -109 0
-58 -70 -110 0
-59 -71 -111 0
-60 -72 -112 0
-57 -73 -113 0
-58 -74 -114 0
-59 -75 -115 0
-60 -76 -116 0
-57 -77 -117 0
-58 -78 -118 0
-59 -79 -119 0
-60 -80 -120 0
-57 -81 -121 0
-58 -82 -122 0
-59 -83 -123 0
-60 -84 -124 0
-57 -85 -125 0
-58 -86 -126 0
-59 -87 -127 0
-60 -88 -128 0
-57 -89 -129 0
-58 -90 -130 0
-59 -91 -131 0
-60 -92 -132 0
-57 -93 -133 0
-58 -94 -134 0
-59 -95 -135 0
-60 -96 -136 0
-57 -97 -137 0
-58 -98 -138 0
-59 -99 -139 0
-60 -100 -140 0
-57 -101 -141 0
-58 -102 -142 0
-59 -103 -143 0
-60 -104 -144 0
-57 -105 -145 0
-58 -106 -146 0
-59 -107 -147 0
-60 -108 -148 0
-57 -109 -149 0
-58 -110 -150 0
-59 -111 -151 0
-60 -112 -152 0
-57 -113 -153 0
-58 -114 -154 0
-59 -115 -155 0
-60 -116 -156 0
-57 -117 -157 0
-58 -118 -158 0
-59 -119 -159 0
-60 -120 -160 0
-57 -121 -161 0
-58 -122 -162 0
-59 -123 -163 0
-60 -124 -164 0
-57 -125 -165 0
-58 -126 -166 0
-59 -127 -167 0
-60 -128 -168 0
-57 -129 -169 0
-58 -130 -170 0
-59 -131 -171 0
-60 -132 -172 0
-57 -133 -173 0
-58 -134 -174 0
-59 -135 -175 0
-60 -136 -176 0
-57 -137 -177 0
-58 -138 -178 0
-59 -139 -179 0
-60 -140 -180 0
-57 -141 -181 0
-58 -142 -182 0
-59 -143 -183 0
-60 -144 -184 0
-57 -145 -185 0
-58 -146 -186 0
-59 -147 -187 0
-60 -148 -188 0
-57 -149 -189 0
-58 -150 -190 0
-59 -151 -191 0
-60 -152 -192 0
-57 -153 -193 0
-58 -154 -194 0
-59 -155 -195 0
-60 -156 -196 0
-57 -157 -197 0
-58 -158 -198 0
-59 -159 -199 0
-60 -160 -200 0
-57 -161 -201 0
-58 -162 -202 0
-59 -163 -203 0
-60 -164 -204 0
-57 -165 -205 0
-58 -166 -206 0
-59 -167 -207 0
-60 -168 -208 0
-57 -169 -209 0
-58 -170 -210 0
-59 -171 -211 0
-60 -172 -212 0
-57 -173 -213 0
-58 -174 -214 0
-59 -175 -215 0
-60 -176 -216 0
-57 -177 -217 0
-58 -178 -218 0
-59 -179 -219 0
-60 -180 -220 0
-57 -181 -221 0
-58 -182 -222 0
-59 -183 -223 0
-60 -184 -224 0
-57 -185 -225 0
-58 -186 -226 0
-59 -187 -227 0
-60 -188 -228 0
-57 -189 -229 0
-58 -190 -230 0
-59 -191 -231 0
-60 -192 -232 0
-57 -193 -233 0
-58 -194 -234 0
-59 -195 -235 0
-60 -196 -236 0
-57 -197 -237 0
-58 -198 -238 0
-59 -199 -239 0
-60 -200 -240 0
-57 -201 -241 0
-58 -202 -242 0
-59 -203 -243 0
-60 -204 -244 0
-57 -205 -245 0
-58 -206 -246 0
-59 -207 -247 0
-60 -208 -248 0
-57 -209 -249 0
-58 -210 -250 0
-59 -211 -251 0
-60 -212 -252 0
-57 -213 -253 0
-58 -214 -254 0
-59 -215 -255 0
-60 -216 -256 0
-57 -217 -257 0
-58 -218 -258 0
-59 -219 -259 0
-60 -220 -260 0
-57 -221 -261 0
-58 -222 -262 0
-59 -223 -263 0
-60 -224 -264 0
-57 -225 -265 0
-58 -226 -266 0
-59 -227 -267 0
-60 -228 -268 0
-57 -229 -269 0
-58 -230 -270 0
-59 -231 -271 0
-60 -232 -272 0
-57 -233 -273 0
-58 -234 -274 0
-59 -235 -275 0
-60 -236 -276 0
-57 -237 -277 0
-58 -238 -278 0
-59 -239 -279 0
-60 -240 -280 0
-57 -241 -281 0
-58 -242 -282 0
-59 -243 -283 0
-60 -244 -284 0
-57 -245 -285 0
-58 -246 -286 0
-59 -247 -287 0
-60 -248 -288 0
-57 -249 -289 0
-58 -250 -290 0
-59 -251 -291 0
-60 -252 -292 0
-57 -253 -293 0
-58 -254 -294 0
-59 -255 -295 0
-60 -256 -296 0
-57 -257 -297 0
-58 -258 -298 0
-59 -259 -299 0
-60 -260 -300 0
-57 -261 -301 0
-58 -262 -302 0
-59 -263 -303 0
-60 -264 -304 0
-57 -265 -305 0
-58 -266 -306 0
-59 -267 -307 0
-60 -268 -308 0
-57 -269 -309 0
-58 -270 -310 0
-59 -271 -311 0
-60 -272 -312 0
-57 -273 -313 0
-58 -274 -314 0
-59 -275 -315 0
-60 -276 -316 0
-57 -277 -317 0
-58 -278 -318 0
-59 -279 -319 0
-60 -280 -320 0
-57 -281 -321 0
-58 -282 -322 0
-59 -283 -323 0
-60 -284 -324 0
-57 -285 -325 0
-58 -286 -326 0
-59 -287 -327 0
-60 -288 -328 0
-57 -289 -329 0
-58 -290 -330 0
-59 -291 -331 0
-60 -292 -332 0
-57 -293 -333 0
-58 -294 -334 0
-59 -295 -335 0
-60 -296 -336 0
-57 -297 -337 0
-58 -298 -338 0
-59 -299 -339 0
-60 -300 -340 0
-57 -301 -341 0
-58 -302 -342 0
-59 -303 -343 0
-60 -304 -344 0
-57 -305 -345 0
-58 -306 -346 0
-59 -307 -347 0
-60 -308 -348 0
-57 -309 -349 0
-58 -310 -350 0
-59 -311 -351 0
-60 -312 -352 0
-57 -313 -353 0
-58 -314 -354 0
-59 -315 -355 0
-60 -316 -356 0
-57 -317 -357 0
-58 -318 -358 0
-59 -319 -359 0
-60 -320 -360 0
-57 -321 -361 0
-58 -322 -362 0
-59 -323 -363 0
-60 -324 -364 0
-57 -325 -365 0
-58 -326 -366 0
-59 -327 -367 0
-60 -328 -368 0
-57 -329 -369 0
-58 -330 -370 0
-59 -331 -371 0
-60 -332 -372 0
-57 -333 -373 0
-58 -334 -374 0
-59 -335 -375 0
-60 -336 -376 0
-57 -337 -377 0
-58 -338 -378 0
-59 -339 -379 0
-60 -340 -380 0
-57 -341 -381 0
-58 -342 -382 0
-59 -343 -383 0
-60 -344 -384 0
-57 -345 -385 0
-58 -346 -386 0
-59 -347 -387 0
-60 -348 -388 0
-57 -349 -389 0
-58 -350 -390 0
-59 -351 -391 0
-60 -352 -392 0
-57 -353 -393 0
-58 -354 -394 0
-59 -355 -395 0
-60 -356 -396 0
-57 -357 -397 0
-58 -358 -398 0
-59 -359 -399 0
-60 -360 -400 0
-57 -361 -401 0
-58 -362 -402 0
-59 -363 -403 0
-60 -364 -404 0
-57 -365 -405 0
-58 -366 -406 0
-59 -367 -407 0
-60 -368 -408 0
-57 -369 -409 0
-58 -370 -410 0
-59 -371 -411 0
-60 -372 -412 0
-1 -49 -69 0
-2 -50 -70 0
-3 -51 -71 0
-4 -52 -72 0
-5 -53 -69 0
-6 -54 -70 0
-7 -55 -71 0
-8 -56 -72 0
-9 -57 -69 0
-10 -58 -70 0
-11 -59 -71 0
-12 -60 -72 0
-13 -61 -69 0
-14 -62 -70 0
-15 -63 -71 0
-16 -64 -72 0
-17 -65 -69 0
-18 -66 -70 0
-19 -67 -71 0
-20 -68 -72 0
-21 -69 0
-22 -70 0
-23 -71 0
-24 -72 0
-25 -69 -73 0
-26 -70 -74 0
-27 -71 -75 0
-28 -72 -76 0
-29 -69 -77 0
-30 -70 -78 0
-31 -71 -79 0
-32 -72 -80 0
-33 -69 -81 0
-34 -70 -82 0
-35 -71 -83 0
-36 -72 -84 0
-37 -69 -85 0
-38 -70 -86 0
-39 -71 -87 0
-40 -72 -88 0
-41 -69 -89 0
-42 -70 -90 0
-43 -71 -91 0
-44 -72 -92 0
-45 -69 -93 0
-46 -70 -94 0
-47 -71 -95 0
-48 -72 -96 0
-49 -69 -97 0
-50 -70 -98 0
-51 -71 -99 0
-52 -72 -100 0
-53 -69 -101 0
-54 -70 -102 0
-55 -71 -103 0
-56 -72 -104 0
-57 -69 -105 0
-58 -70 -106 0
-59 -71 -107 0
-60 -72 -108 0
-61 -69 -109 0
-62 -70 -110 0
-63 -71 -111 0
-64 -72 -112 0
-65 -69 -113 0
-66 -70 -114 0
-67 -71 -115 0
-68 -72 -116 0
-69 -117 0
-70 -118 0
-71 -119 0
-72 -120 0
-69 -73 -121 0
-70 -74 -122 0
-71 -75 -123 0
-72 -76 -124 0
-69 -77 -125 0
-70 -78 -126 0
-71 -79 -127 0
-72 -80 -128 0
-69 -81 -129 0
-70 -82 -130 0
-71 -83 -131 0
-72 -84 -132 0
-69 -85 -133 0
-70 -86 -134 0
-71 -87 -135 0
-72 -88 -136 0
-69 -89 -137 0
-70 -90 -138 0
-71 -91 -139 0
-72 -92 -140 0
-69 -93 -141 0
-70 -94 -142 0
-71 -95 -143 0
-72 -96 -144 0
-69 -97 -145 0
-70 -98 -146 0
-71 -99 -147 0
-72 -100 -148 0
-69 -101 -149 0
-70 -102 -150 0
-71 -103 -151 0
-72 -104 -152 0
-69 -105 -153 0
-70 -106 -154 0
-71 -107 -155 0
-72 -108 -156 0
-69 -109 -157 0
-70 -110 -158 0
-71 -111 -159 0
-72 -112 -160 0
-69 -113 -161 0
-70 -114 -162 0
-71 -115 -163 0
-72 -116 -164 0
-69 -117 -165 0
-70 -118 -166 0
-71 -119 -167 0
-72 -120 -168 0
-69 -121 -169 0
-70 -122 -170 0
-71 -123 -171 0
-72 -124 -172 0
-69 -125 -173 0
-70 -126 -174 0
-71 -127 -175 0
-72 -128 -176 0
-69 -129 -177 0
-70 -130 -178 0
-71 -131 -179 0
-72 -132 -180 0
-69 -133 -181 0
-70 -134 -182 0
-71 -135 -183 0
-72 -136 -184 0
-69 -137 -185 0
-70 -138 -186 0
-71 -139 -187 0
-72 -140 -188 0
-69 -141 -189 0
-70 -142 -190 0
-71 -143 -191 0
-72 -144 -192 0
-69 -145 -193 0
-70 -146 -194 0
-71 -147 -195 0
-72 -148 -196 0
-69 -149 -197 0
-70 -150 -198 0
-71 -151 -199 0
-72 -152 -200 0
-69 -153 -201 0
-70 -154 -202 0
-71 -155 -203 0
-72 -156 -204 0
-69 -157 -205 0
-70 -158 -206 0
-71 -159 -207 0
-72 -160 -208 0
-69 -161 -209 0
-70 -162 -210 0
-71 -163 -211 0
-72 -164 -212 0
-69 -165 -213 0
-70 -166 -214 0
-71 -167 -215 0
-72 -168 -216 0
-69 -169 -217 0
-70 -170 -218 0
-71 -171 -219 0
-72 -172 -220 0
-69 -173 -221 0
-70 -174 -222 0
-71 -175 -223 0
-72 -176 -224 0
-69 -177 -225 0
-70 -178 -226 0
-71 -179 -227 0
-72 -180 -228 0
-69 -181 -229 0
-70 -182 -230 0
-71 -183 -231 0
-72 -184 -232 0
-69 -185 -233 0
-70 -186 -234 0
-71 -187 -235 0
-72 -188 -236 0
-69 -189 -237 0
-70 -190 -238 0
-71 -191 -239 0
-72 -192 -240 0
-69 -193 -241 0
-70 -194 -242 0
-71 -195 -243 0
-72 -196 -244 0
-69 -197 -245 0
-70 -198 -246 0
-71 -199 -247 0
-72 -200 -248 0
-69 -201 -249 0
-70 -202 -250 0
-71 -203 -251 0
-72 -204 -252 0
-69 -205 -253 0
-70 -206 -254 0
-71 -207 -255 0
-72 -208 -256 0
-69 -209 -257 0
-70 -210 -258 0
-71 -211 -259 0
-72 -212 -260 0
-69 -213 -261 0
-70 -214 -262 0
-71 -215 -263 0
-72 -216 -264 0
-69 -217 -265 0
-70 -218 -266 0
-71 -219 -267 0
-72 -220 -268 0
-69 -221 -269 0
-70 -222 -270 0
-71 -223 -271 0
-72 -224 -272 0
-69 -225 -273 0
-70 -226 -274 0
-71 -227 -275 0
-72 -228 -276 0
-69 -229 -277 0
-70 -230 -278 0
-71 -231 -279 0
-72 -232 -280 0
-69 -233 -281 0
-70 -234 -282 0
-71 -235 -283 0
-72 -236 -284 0
-69 -237 -285 0
-70 -238 -286 0
-71 -239 -287 0
-72 -240 -288 0
-69 -241 -289 0
-70 -242 -290 0
-71 -243 -291 0
-72 -244 -292 0
-69 -245 -293 0
-70 -246 -294 0
-71 -247 -295 0
-72 -248 -296 0
-69 -249 -297 0
-70 -250 -298 0
-71 -251 -299 0
-72 -252 -300 0
-69 -253 -301 0
-70 -254 -302 0
-71 -255 -303 0
-72 -256 -304 0
-69 -257 -305 0
-70 -258 -306 0
-71 -259 -307 0
-72 -260 -308 0
-69 -261 -309 0
-70 -262 -310 0
-71 -263 -311 0
-72 -264 -312 0
-69 -265 -313 0
-70 -266 -314 0
-71 -267 -315 0
-72 -268 -316 0
-69 -269 -317 0
-70 -270 -318 0
-71 -271 -319 0
-72 -272 -320 0
-69 -273 -321 0
-70 -274 -322 0
-71 -275 -323 0
-72 -276 -324 0
-69 -277 -325 0
-70 -278 -326 0
-71 -279 -327 0
-72 -280 -328 0
-69 -281 -329 0
-70 -282 -330 0
-71 -283 -331 0
-72 -284 -332 0
-69 -285 -333 0
-70 -286 -334 0
-71 -287 -335 0
-72 -288 -336 0
-69 -289 -337 0
-70 -290 -338 0
-71 -291 -339 0
-72 -292 -340 0
-69 -293 -341 0
-70 -294 -342 0
-71 -295 -343 0
-72 -296 -344 0
-69 -297 -345 0
-70 -298 -346 0
-71 -299 -347 0
-72 -300 -348 0
-69 -301 -349 0
-70 -302 -350 0
-71 -303 -351 0
-72 -304 -352 0
-69 -305 -353 0
-70 -306 -354 0
-71 -307 -355 0
-72 -308 -356 0
-69 -309 -357 0
-70 -310 -358 0
-71 -311 -359 0
-72 -312 -360 0
-69 -313 -361 0
-70 -314 -362 0
-71 -315 -363 0
-72 -316 -364 0
-69 -317 -365 0
-70 -318 -366 0
-71 -319 -367 0
-72 -320 -368 0
-69 -321 -369 0
-70 -322 -370 0
-71 -323 -371 0
-72 -324 -372 0
-69 -325 -373 0
-70 -326 -374 0
-71 -327 -375 0
-72 -328 -376 0
-69 -329 -377 0
-70 -330 -378 0
-71 -331 -379 0
-72 -332 -380 0
-69 -333 -381 0
-70 -334 -382 0
-71 -335 -383 0
-72 -336 -384 0
-69 -337 -385 0
-70 -338 -386 0
-71 -339 -387 0
-72 -340 -388 0
-69 -341 -389 0
-70 -342 -390 0
-71 -343 -391 0
-72 -344 -392 0
-69 -345 -393 0
-70 -346 -394 0
-71 -347 -395 0
-72 -348 -396 0
-69 -349 -397 0
-70 -350 -398 0
-71 -351 -399 0
-72 -352 -400 0
-69 -353 -401 0
-70 -354 -402 0
-71 -355 -403 0
-72 -356 -404 0
-69 -357 -405 0
-70 -358 -406 0
-71 -359 -407 0
-72 -360 -408 0
-69 -361 -409 0
-70 -362 -410 0
-71 -363 -411 0
-72 -364 -412 0
-1 -57 -81 0
-2 -58 -82 0
-3 -59 -83 0
-4 -60 -84 0
-5 -61 -81 0
-6 -62 -82 0
-7 -63 -83 0
-8 -64 -84 0
-9 -65 -81 0
-10 -66 -82 0
-11 -67 -83 0
-12 -68 -84 0
-13 -69 -81 0
-14 -70 -82 0
-15 -71 -83 0
-16 -72 -84 0
-17 -73 -81 0
-18 -74 -82 0
-19 -75 -83 0
-20 -76 -84 0
-21 -77 -81 0
-22 -78 -82 0
-23 -79 -83 0
-24 -80 -84 0
-25 -81 0
-26 -82 0
-27 -83 0
-28 -84 0
-29 -81 -85 0
-30 -82 -86 0
-31 -83 -87 0
-32 -84 -88 0
-33 -81 -89 0
-34 -82 -90 0
-35 -83 -91 0
-36 -84 -92 0
-37 -81 -93 0
-38 -82 -94 0
-39 -83 -95 0
-40 -84 -96 0
-41 -81 -97 0
-42 -82 -98 0
-43 -83 -99 0
-44 -84 -100 0
-45 -81 -101 0
-46 -82 -102 0
-47 -83 -103 0
-48 -84 -104 0
-49 -81 -105 0
-50 -82 -106 0
-51 -83 -107 0
-52 -84 -108 0
-53 -81 -109 0
-54 -82 -110 0
-55 -83 -111 0
-56 -84 -112 0
-57 -81 -113 0
-58 -82 -114 0
-59 -83 -115 0
-60 -84 -116 0
-61 -81 -117 0
-62 -82 -118 0
-63 -83 -119 0
-64 -84 -120 0
-65 -81 -121 0
-66 -82 -122 0
-67 -83 -123 0
-68 -84 -124 0
-69 -81 -125 0
-70 -82 -126 0
-71 -83 -127 0
-72 -84 -128 0
-73 -81 -129 0
-74 -82 -130 0
-75 -83 -131 0
-76 -84 -132 0
-77 -81 -133 0
-78 -82 -134 0
-79 -83 -135 0
-80 -84 -136 0
-81 -137 0
-82 -138 0
-83 -139 0
-84 -140 0
-81 -85 -141 0
-82 -86 -142 0
-83 -87 -143 0
-84 -88 -144 0
-81 -89 -145 0
-82 -90 -146 0
-83 -91 -147 0
-84 -92 -148 0
-81 -93 -149 0
-82 -94 -150 0
-83 -95 -151 0
-84 -96 -152 0
-81 -97 -153 0
-82 -98 -154 0
-83 -99 -155 0
-84 -100 -156 0
-81 -101 -157 0
-82 -102 -158 0
-83 -103 -159 0
-84 -104 -160 0
-81 -105 -161 0
-82 -106 -162 0
-83 -107 -163 0
-84 -108 -164 0
-81 -109 -165 0
-82 -110 -166 0
-83 -111 -167 0
-84 -112 -168 0
-81 -113 -169 0
-82 -114 -170 0
-83 -115 -171 0
-84 -116 -172 0
-81 -117 -173 0
-82 -118 -174 0
-83 -119 -175 0
-84 -120 -176 0
-81 -121 -177 0
-82 -122 -178 0
-83 -123 -179 0
-84 -124 -180 0
-81 -125 -181 0
-82 -126 -182 0
-83 -127 -183 0
-84 -128 -184 0
-81 -129 -185 0
-82 -130 -186 0
-83 -131 -187 0
-84 -132 -188 0
-81 -133 -189 0
-82 -134 -190 0
-83 -135 -191 0
-84 -136 -192 0
-81 -137 -193 0
-82 -138 -194 0
-83 -139 -195 0
-84 -140 -196 0
-81 -141 -197 0
-82 -142 -198 0
-83 -143 -199 0
-84 -144 -200 0
-81 -145 -201 0
-82 -146 -202 0
-83 -147 -203 0
-84 -148 -204 0
-81 -149 -205 0
-82 -150 -206 0
-83 -151 -207 0
-84 -152 -208 0
-81 -153 -209 0
-82 -154 -210 0
-83 -155 -211 0
-84 -156 -212 0
-81 -157 -213 0
-82 -158 -214 0
-83 -159 -215 0
-84 -160 -216 0
-81 -161 -217 0
-82 -162 -218 0
-83 -163 -219 0
-84 -164 -220 0
-81 -165 -221 0
-82 -166 -222 0
-83 -167 -223 0
-84 -168 -224 0
-81 -169 -225 0
-82 -170 -226 0
-83 -171 -227 0
-84 -172 -228 0
-81 -173 -229 0
-82 -174 -230 0
-83 -175 -231 0
-84 -176 -232 0
-81 -177 -233 0
-82 -178 -234 0
-83 -179 -235 0
-84 -180 -236 0
-81 -181 -237 0
-82 -182 -238 0
-83 -183 -239 0
-84 -184 -240 0
-81 -185 -241 0
-82 -186 -242 0
-83 -187 -243 0
-84 -188 -244 0
-81 -189 -245 0
-82 -190 -246 0
-83 -191 -247 0
-84 -192 -248 0
-81 -193 -249 0
-82 -194 -250 0
-83 -195 -251 0
-84 -196 -252 0
-81 -197 -253 0
-82 -198 -254 0
-83 -199 -255 0
-84 -200 -256 0
-81 -201 -257 0
-82 -202 -258 0
-83 -203 -259 0
-84 -204 -260 0
-81 -205 -261 0
-82 -206 -262 0
-83 -207 -263 0
-84 -208 -264 0
-81 -209 -265 0
-82 -210 -266 0
-83 -211 -267 0
-84 -212 -268 0
-81 -213 -269 0
-82 -214 -270 0
-83 -215 -271 0
-84 -216 -272 0
-81 -217 -273 0
-82 -218 -274 0
-83 -219 -275 0
-84 -220 -276 0
-81 -221 -277 0
-82 -222 -278 0
-83 -223 -279 0
-84 -224 -280 0
-81 -225 -281 0
-82 -226 -282 0
-83 -227 -283 0
-84 -228 -284 0
-81 -229 -285 0
-82 -230 -286 0
-83 -231 -287 0
-84 -232 -288 0
-81 -233 -289 0
-82 -234 -290 0
-83 -235 -291 0
-84 -236 -292 0
-81 -237 -293 0
-82 -238 -294 0
-83 -239 -295 0
-84 -240 -296 0
-81 -241 -297 0
-82 -242 -298 0
-83 -243 -299 0
-84 -244 -300 0
-81 -245 -301 0
-82 -246 -302 0
-83 -247 -303 0
-84 -248 -304 0
-81 -249 -305 0
-82 -250 -306 0
-83 -251 -307 0
-84 -252 -308 0
-81 -253 -309 0
-82 -254 -310 0
-83 -255 -311 0
-84 -256 -312 0
-81 -257 -313 0
-82 -258 -314 0
-83 -259 -315 0
-84 -260 -316 0
-81 -261 -317 0
-82 -262 -318 0
-83 -263 -319 0
-84 -264 -320 0
-81 -265 -321 0
-82 -266 -322 0
-83 -267 -323 0
-84 -268 -324 0
-81 -269 -325 0
-82 -270 -326 0
-83 -271 -327 0
-84 -272 -328 0
-81 -273 -329 0
-82 -274 -330 0
-83 -275 -331 0
-84 -276 -332 0
-81 -277 -333 0
-82 -278 -334 0
-83 -279 -335 0
-84 -280 -336 0
-81 -281 -337 0
-82 -282 -338 0
-83 -283 -339 0
-84 -284 -340 0
-81 -285 -341 0
-82 -286 -342 0
-83 -287 -343 0
-84 -288 -344 0
-81 -289 -345 0
-82 -290 -346 0
-83 -291 -347 0
-84 -292 -348 0
-81 -293 -349 0
-82 -294 -350 0
-83 -295 -351 0
-84 -296 -352 0
-81 -297 -353 0
-82 -298 -354 0
-83 -299 -355 0
-84 -300 -356 0
-81 -301 -357 0
-82 -302 -358 0
-83 -303 -359 0
-84 -304 -360 0
-81 -305 -361 0
-82 -306 -362 0
-83 -307 -363 0
-84 -308 -364 0
-81 -309 -365 0
-82 -310 -366 0
-83 -311 -367 0
-84 -312 -368 0
-81 -313 -369 0
-82 -314 -370 0
-83 -315 -371 0
-84 -316 -372 0
-81 -317 -373 0
-82 -318 -374 0
-83 -319 -375 0
-84 -320 -376 0
-81 -321 -377 0
-82 -322 -378 0
-83 -323 -379 0
-84 -324 -380 0
-81 -325 -381 0
-82 -326 -382 0
-83 -327 -383 0
-84 -328 -384 0
-81 -329 -385 0
-82 -330 -386 0
-83 -331 -387 0
-84 -332 -388 0
-81 -333 -389 0
-82 -334 -390 0
-83 -335 -391 0
-84 -336 -392 0
-81 -337 -393 0
-82 -338 -394 0
-83 -339 -395 0
-84 -340 -396 0
-81 -341 -397 0
-82 -342 -398 0
-83 -343 -399 0
-84 -344 -400 0
-81 -345 -401 0
-82 -346 -402 0
-83 -347 -403 0
-84 -348 -404 0
-81 -349 -405 0
-82 -350 -406 0
-83 -351 -407 0
-84 -352 -408 0
-81 -353 -409 0
-82 -354 -410 0
-83 -355 -411 0
-84 -356 -412 0
-1 -65 -93 0
-2 -66 -94 0
-3 -67 -95 0
-4 -68 -96 0
-5 -69 -93 0
-6 -70 -94 0
-7 -71 -95 0
-8 -72 -96 0
-9 -73 -93 0
-10 -74 -94 0
-11 -75 -95 0
-12 -76 -96 0
-13 -77 -93 0
-14 -78 -94 0
-15 -79 -95 0
-16 -80 -96 0
-17 -81 -93 0
-18 -82 -94 0
-19 -83 -95 0
-20 -84 -96 0
-21 -85 -93 0
-22 -86 -94 0
-23 -87 -95 0
-24 -88 -96 0
-25 -89 -93 0
-26 -90 -94 0
-27 -91 -95 0
-28 -92 -96 0
-29 -93 0
-30 -94 0
-31 -95 0
-32 -96 0
-33 -93 -97 0
-34 -94 -98 0
-35 -95 -99 0
-36 -96 -100 0
-37 -93 -101 0
-38 -94 -102 0
-39 -95 -103 0
-40 -96 -104 0
-41 -93 -105 0
-42 -94 -106 0
-43 -95 -107 0
-44 -96 -108 0
-45 -93 -109 0
-46 -94 -110 0
-47 -95 -111 0
-48 -96 -112 0
-49 -93 -113 0
-50 -94 -114 0
-51 -95 -115 0
-52 -96 -116 0
-53 -93 -117 0
-54 -94 -118 0
-55 -95 -119 0
-56 -96 -120 0
-57 -93 -121 0
-58 -94 -122 0
-59 -95 -123 0
-60 -96 -124 0
-61 -93 -125 0
-62 -94 -126 0
-63 -95 -127 0
-64 -96 -128 0
-65 -93 -129 0
-66 -94 -130 0
-67 -95 -131 0
-68 -96 -132 0
-69 -93 -133 0
-70 -94 -134 0
-71 -95 -135 0
-72 -96 -136 0
-73 -93 -137 0
-74 -94 -138 0
-75 -95 -139 0
-76 -96 -140 0
-77 -93 -141 0
-78 -94 -142 0
-79 -95 -143 0
-80 -96 -144 0
-81 -93 -145 0
-82 -94 -146 0
-83 -95 -147 0
-84 -96 -148 0
-85 -93 -149 0
-86 -94 -150 0
-87 -95 -151 0
-88 -96 -152 0
-89 -93 -153 0
-90 -94 -154 0
-91 -95 -155 0
-92 -96 -156 0
-93 -157 0
-94 -158 0
-95 -159 0
-96 -160 0
-93 -97 -161 0
-94 -98 -162 0
-95 -99 -163 0
-96 -100 -164 0
-93 -101 -165 0
-94 -102 -166 0
-95 -103 -167 0
-96 -104 -168 0
-93 -105 -169 0
-94 -106 -170 0
-95 -107 -171 0
-96 -108 -172 0
-93 -109 -173 0
-94 -110 -174 0
-95 -111 -175 0
-96 -112 -176 0
-93 -113 -177 0
-94 -114 -178 0
-95 -115 -179 0
-96 -116 -180 0
-93 -117 -181 0
-94 -118 -182 0
-95 -119 -183 0
-96 -120 -184 0
-93 -121 -185 0
-94 -122 -186 0
-95 -123 -187 0
-96 -124 -188 0
-93 -125 -189 0
-94 -126 -190 0
-95 -127 -191 0
-96 -128 -192 0
-93 -129 -193 0
-94 -130 -194 0
-95 -131 -195 0
-96 -132 -196 0
-93 -133 -197 0
-94 -134 -198 0
-95 -135 -199 0
-96 -136 -200 0
-93 -137 -201 0
-94 -138 -202 0
-95 -139 -203 0
-96 -140 -204 0
-93 -141 -205 0
-94 -142 -206 0
-95 -143 -207 0
-96 -144 -208 0
-93 -145 -209 0
-94 -146 -210 0
-95 -147 -211 0
-96 -148 -212 0
-93 -149 -213 0
-94 -150 -214 0
-95 -151 -215 0
-96 -152 -216 0
-93 -153 -217 0
-94 -154 -218 0
-95 -155 -219 0
-96 -156 -220 0
-93 -157 -221 0
-94 -158 -222 0
-95 -159 -223 0
-96 -160 -224 0
-93 -161 -225 0
-94 -162 -226 0
-95 -163 -227 0
-96 -164 -228 0
-93 -165 -229 0
-94 -166 -230 0
-95 -167 -231 0
-96 -168 -232 0
-93 -169 -233 0
-94 -170 -234 0
-95 -171 -235 0
-96 -172 -236 0
-93 -173 -237 0
-94 -174 -238 0
-95 -175 -239 0
-96 -176 -240 0
-93 -177 -241 0
-94 -178 -242 0
-95 -179 -243 0
-96 -180 -244 0
-93 -181 -245 0
-94 -182 -246 0
-95 -183 -247 0
-96 -184 -248 0
-93 -185 -249 0
-94 -186 -250 0
-95 -187 -251 0
-96 -188 -252 0
-93 -189 -253 0
-94 -190 -254 0
-95 -191 -255 0
-96 -192 -256 0
-93 -193 -257 0
-94 -194 -258 0
-95 -195 -259 0
-96 -196 -260 0
-93 -197 -261 0
-94 -198 -262 0
-95 -199 -263 0
-96 -200 -264 0
-93 -201 -265 0
-94 -202 -266 0
-95 -203 -267 0
-96 -204 -268 0
-93 -205 -269 0
-94 -206 -270 0
-95 -207 -271 0
-96 -208 -272 0
-93 -209 -273 0
-94 -210 -274 0
-95 -211 -275 0
-96 -212 -276 0
-93 -213 -277 0
-94 -214 -278 0
-95 -215 -279 0
-96 -216 -280 0
-93 -217 -281 0
-94 -218 -282 0
-95 -219 -283 0
-96 -220 -284 0
-93 -221 -285 0
-94 -222 -286 0
-95 -223 -287 0
-96 -224 -288 0
-93 -225 -289 0
-94 -226 -290 0
-95 -227 -291 0
-96 -228 -292 0
-93 -229 -293 0
-94 -230 -294 0
-95 -231 -295 0
-96 -232 -296 0
-93 -233 -297 0
-94 -234 -298 0
-95 -235 -299 0
-96 -236 -300 0
-93 -237 -301 0
-94 -238 -302 0
-95 -239 -303 0
-96 -240 -304 0
-93 -241 -305 0
-94 -242 -306 0
-95 -243 -307 0
-96 -244 -308 0
-93 -245 -309 0
-94 -246 -310 0
-95 -247 -311 0
-96 -248 -312 0
-93 -249 -313 0
-94 -250 -314 0
-95 -251 -315 0
-96 -252 -316 0
-93 -253 -317 0
-94 -254 -318 0
-95 -255 -319 0
-96 -256 -320 0
-93 -257 -321 0
-94 -258 -322 0
-95 -259 -323 0
-96 -260 -324 0
-93 -261 -325 0
-94 -262 -326 0
-95 -263 -327 0
-96 -264 -328 0
-93 -265 -329 0
-94 -266 -330 0
-95 -267 -331 0
-96 -268 -332 0
-93 -269 -333 0
-94 -270 -334 0
-95 -271 -335 0
-96 -272 -336 0
-93 -273 -337 0
-94 -274 -338 0
-95 -275 -339 0
-96 -276 -340 0
-93 -277 -341 0
-94 -278 -342 0
-95 -279 -343 0
-96 -280 -344 0
-93 -281 -345 0
-94 -282 -346 0
-95 -283 -347 0
-96 -284 -348 0
-93 -285 -349 0
-94 -286 -350 0
-95 -287 -351 0
-96 -288 -352 0
-93 -289 -353 0
-94 -290 -354 0
-95 -291 -355 0
-96 -292 -356 0
-93 -293 -357 0
-94 -294 -358 0
-95 -295 -359 0
-96 -296 -360 0
-93 -297 -361 0
-94 -298 -362 0
-95 -299 -363 0
-96 -300 -364 0
-93 -301 -365 0
-94 -302 -366 0
-95 -303 -367 0
-96 -304 -368 0
-93 -305 -369 0
-94 -306 -370 0
-95 -307 -371 0
-96 -308 -372 0
-93 -309 -373 0
-94 -310 -374 0
-95 -311 -375 0
-96 -312 -376 0
-93 -313 -377 0
-94 -314 -378 0
-95 -315 -379 0
-96 -316 -380 0
-93 -317 -381 0
-94 -318 -382 0
-95 -319 -383 0
-96 -320 -384 0
-93 -321 -385 0
-94 -322 -386 0
-95 -323 -387 0
-96 -324 -388 0
-93 -325 -389 0
-94 -326 -390 0
-95 -327 -391 0
-96 -328 -392 0
-93 -329 -393 0
-94 -330 -394 0
-95 -331 -395 0
-96 -332 -396 0
-93 -333 -397 0
-94 -334 -398 0
-95 -335 -399 0
-96 -336 -400 0
-93 -337 -401 0
-94 -338 -402 0
-95 -339 -403 0
-96 -340 -404 0
-93 -341 -405 0
-94 -342 -406 0
-95 -343 -407 0
-96 -344 -408 0
-93 -345 -409 0
-94 -346 -410 0
-95 -347 -411 0
-96 -348 -412 0
-1 -73 -105 0
-2 -74 -106 0
-3 -75 -107 0
-4 -76 -108 0
-5 -77 -105 0
-6 -78 -106 0
-7 -79 -107 0
-8 -80 -108 0
-9 -81 -105 0
-10 -82 -106 0
-11 -83 -107 0
-12 -84 -108 0
-13 -85 -105 0
-14 -86 -106 0
-15 -87 -107 0
-16 -88 -108 0
-17 -89 -105 0
-18 -90 -106 0
-19 -91 -107 0
-20 -92 -108 0
-21 -93 -105 0
-22 -94 -106 0
-23 -95 -107 0
-24 -96 -108 0
-25 -97 -105 0
-26 -98 -106 0
-27 -99 -107 0
-28 -100 -108 0
-29 -101 -105 0
-30 -102 -106 0
-31 -103 -107 0
-32 -104 -108 0
-33 -105 0
-34 -106 0
-35 -107 0
-36 -108 0
-37 -105 -109 0
-38 -106 -110 0
-39 -107 -111 0
-40 -108 -112 0
-41 -105 -113 0
-42 -106 -114 0
-43 -107 -115 0
-44 -108 -116 0
-45 -105 -117 0
-46 -106 -118 0
-47 -107 -119 0
-48 -108 -120 0
-49 -105 -121 0
-50 -106 -122 0
-51 -107 -123 0
-52 -108 -124 0
-53 -105 -125 0
-54 -106 -126 0
-55 -107 -127 0
-56 -108 -128 0
-57 -105 -129 0
-58 -106 -130 0
-59 -107 -131 0
-60 -108 -132 0
-61 -105 -133 0
-62 -106 -134 0
-63 -107 -135 0
-64 -108 -136 0
-65 -105 -137 0
-66 -106 -138 0
-67 -107 -139 0
-68 -108 -140 0
-69 -105 -141 0
-70 -106 -142 0
-71 -107 -143 0
-72 -108 -144 0
-73 -105 -145 0
-74 -106 -146 0
-75 -107 -147 0
-76 -108 -148 0
-77 -105 -149 0
-78 -106 -150 0
-79 -107 -151 0
-80 -108 -152 0
-81 -105 -153 0
-82 -106 -154 0
-83 -107 -155 0
-84 -108 -156 0
-85 -105 -157 0
-86 -106 -158 0
-87 -107 -159 0
-88 -108 -160 0
-89 -105 -161 0
-90 -106 -162 0
-91 -107 -163 0
-92 -108 -164 0
-93 -105 -165 0
-94 -106 -166 0
-95 -107 -167 0
-96 -108 -168 0
-97 -105 -169 0
-98 -106 -170 0
-99 -107 -171 0
-100 -108 -172 0
-101 -105 -173 0
-102 -106 -174 0
-103 -107 -175 0
-104 -108 -176 0
-105 -177 0
-106 -178 0
-107 -179 0
-108 -180 0
-105 -109 -181 0
-106 -110 -182 0
-107 -111 -183 0
-108 -112 -184 0
-105 -113 -185 0
-106 -114 -186 0
-107 -115 -187 0
-108 -116 -188 0
-105 -117 -189 0
-106 -118 -190 0
-107 -119 -191 0
-108 -120 -192 0
-105 -121 -193 0
-106 -122 -194 0
-107 -123 -195 0
-108 -124 -196 0
-105 -125 -197 0
-106 -126 -198 0
-107 -127 -199 0
-108 -128 -200 0
-105 -129 -201 0
-106 -130 -202 0
-107 -131 -203 0
-108 -132 -204 0
-105 -133 -205 0
-106 -134 -206 0
-107 -135 -207 0
-108 -136 -208 0
-105 -137 -209 0
-106 -138 -210 0
-107 -139 -211 0
-108 -140 -212 0
-105 -141 -213 0
-106 -142 -214 0
-107 -143 -215 0
-108 -144 -216 0
-105 -145 -217 0
-106 -146 -218 0
-107 -147 -219 0
-108 -148 -220 0
-105 -149 -221 0
-106 -150 -222 0
-107 -151 -223 0
-108 -152 -224 0
-105 -153 -225 0
-106 -154 -226 0
-107 -155 -227 0
-108 -156 -228 0
-105 -157 -229 0
-106 -158 -230 0
-107 -159 -231 0
-108 -160 -232 0
-105 -161 -233 0
-106 -162 -234 0
-107 -163 -235 0
-108 -164 -236 0
-105 -165 -237 0
-106 -166 -238 0
-107 -167 -239 0
-108 -168 -240 0
-105 -169 -241 0
-106 -170 -242 0
-107 -171 -243 0
-108 -172 -244 0
-105 -173 -245 0
-106 -174 -246 0
-107 -175 -247 0
-108 -176 -248 0
-105 -177 -249 0
-106 -178 -250 0
-107 -179 -251 0
-108 -180 -252 0
-105 -181 -253 0
-106 -182 -254 0
-107 -183 -255 0
-108 -184 -256 0
-105 -185 -257 0
-106 -186 -258 0
-107 -187 -259 0
-108 -188 -260 0
-105 -189 -261 0
-106 -190 -262 0
-107 -191 -263 0
-108 -192 -264 0
-105 -193 -265 0
-106 -194 -266 0
-107 -195 -267 0
-108 -196 -268 0
-105 -197 -269 0
-106 -198 -270 0
-107 -199 -271 0
-108 -200 -272 0
-105 -201 -273 0
-106 -202 -274 0
-107 -203 -275 0
-108 -204 -276 0
-105 -205 -277 0
-106 -206 -278 0
-107 -207 -279 0
-108 -208 -280 0
-105 -209 -281 0
-106 -210 -282 0
-107 -211 -283 0
-108 -212 -284 0
-105 -213 -285 0
-106 -214 -286 0
-107 -215 -287 0
-108 -216 -288 0
-105 -217 -289 0
-106 -218 -290 0
-107 -219 -291 0
-108 -220 -292 0
-105 -221 -293 0
-106 -222 -294 0
-107 -223 -295 0
-108 -224 -296 0
-105 -225 -297 0
-106 -226 -298 0
-107 -227 -299 0
-108 -228 -300 0
-105 -229 -301 0
-106 -230 -302 0
-107 -231 -303 0
-108 -232 -304 0
-105 -233 -305 0
-106 -234 -306 0
-107 -235 -307 0
-108 -236 -308 0
-105 -237 -309 0
-106 -238 -310 0
-107 -239 -311 0
-108 -240 -312 0
-105 -241 -313 0
-106 -242 -314 0
-107 -243 -315 0
-108 -244 -316 0
-105 -245 -317 0
-106 -246 -318 0
-107 -247 -319 0
-108 -248 -320 0
-105 -249 -321 0
-106 -250 -322 0
-107 -251 -323 0
-108 -252 -324 0
-105 -253 -325 0
-106 -254 -326 0
-107 -255 -327 0
-108 -256 -328 0
-105 -257 -329 0
-106 -258 -330 0
-107 -259 -331 0
-108 -260 -332 0
-105 -261 -333 0
-106 -262 -334 0
-107 -263 -335 0
-108 -264 -336 0
-105 -265 -337 0
-106 -266 -338 0
-107 -267 -339 0
-108 -268 -340 0
-105 -269 -341 0
-106 -270 -342 0
-107 -271 -343 0
-108 -272 -344 0
-105 -273 -345 0
-106 -274 -346 0
-107 -275 -347 0
-108 -276 -348 0
-105 -277 -349 0
-106 -278 -350 0
-107 -279 -351 0
-108 -280 -352 0
-105 -281 -353 0
-106 -282 -354 0
-107 -283 -355 0
-108 -284 -356 0
-105 -285 -357 0
-106 -286 -358 0
-107 -287 -359 0
-108 -288 -360 0
-105 -289 -361 0
-106 -290 -362 0
-107 -291 -363 0
-108 -292 -364 0
-105 -293 -365 0
-106 -294 -366 0
-107 -295 -367 0
-108 -296 -368 0
-105 -297 -369 0
-106 -298 -370 0
-107 -299 -371 0
-108 -300 -372 0
-105 -301 -373 0
-106 -302 -374 0
-107 -303 -375 0
-108 -304 -376 0
-105 -305 -377 0
-106 -306 -378 0
-107 -307 -379 0
-108 -308 -380 0
-105 -309 -381 0
-106 -310 -382 0
-107 -311 -383 0
-108 -312 -384 0
-105 -313 -385 0
-106 -314 -386 0
-107 -315 -387 0
-108 -316 -388 0
-105 -317 -389 0
-106 -318 -390 0
-107 -319 -391 0
-108 -320 -392 0
-105 -321 -393 0
-106 -322 -394 0
-107 -323 -395 0
-108 -324 -396 0
-105 -325 -397 0
-106 -326 -398 0
-107 -327 -399 0
-108 -328 -400 0
-105 -329 -401 0
-106 -330 -402 0
-107 -331 -403 0
-108 -332 -404 0
-105 -333 -405 0
-106 -334 -406 0
-107 -335 -407 0
-108 -336 -408 0
-105 -337 -409 0
-106 -338 -410 0
-107 -339 -411 0
-108 -340 -412 0
-1 -81 -117 0
-2 -82 -118 0
-3 -83 -119 0
-4 -84 -120 0
-5 -85 -117 0
-6 -86 -118 0
-7 -87 -119 0
-8 -88 -120 0
-9 -89 -117 0
-10 -90 -118 0
-11 -91 -119 0
-12 -92 -120 0
-13 -93 -117 0
-14 -94 -118 0
-15 -95 -119 0
-16 -96 -120 0
-17 -97 -117 0
-18 -98 -118 0
-19 -99 -119 0
-20 -100 -120 0
-21 -101 -117 0
-22 -102 -118 0
-23 -103 -119 0
-24 -104 -120 0
-25 -105 -117 0
-26 -106 -118 0
-27 -107 -119 0
-28 -108 -120 0
-29 -109 -117 0
-30 -110 -118 0
-31 -111 -119 0
-32 -112 -120 0
-33 -113 -117 0
-34 -114 -118 0
-35 -115 -119 0
-36 -116 -120 0
-37 -117 0
-38 -118 0
-39 -119 0
-40 -120 0
-41 -117 -121 0
-42 -118 -122 0
-43 -119 -123 0
-44 -120 -124 0
-45 -117 -125 0
-46 -118 -126 0
-47 -119 -127 0
-48 -120 -128 0
-49 -117 -129 0
-50 -118 -130 0
-51 -119 -131 0
-52 -120 -132 0
-53 -117 -133 0
-54 -118 -134 0
-55 -119 -135 0
-56 -120 -136 0
-57 -117 -137 0
-58 -118 -138 0
-59 -119 -139 0
-60 -120 -140 0
-61 -117 -141 0
-62 -118 -142 0
-63 -119 -143 0
-64 -120 -144 0
-65 -117 -145 0
-66 -118 -146 0
-67 -119 -147 0
-68 -120 -148 0
-69 -117 -149 0
-70 -118 -150 0
-71 -119 -151 0
-72 -120 -152 0
-73 -117 -153 0
-74 -118 -154 0
-75 -119 -155 0
-76 -120 -156 0
-77 -117 -157 0
-78 -118 -158 0
-79 -119 -159 0
-80 -120 -160 0
-81 -117 -161 0
-82 -118 -162 0
-83 -119 -163 0
-84 -120 -164 0
-85 -117 -165 0
-86 -118 -166 0
-87 -119 -167 0
-88 -120 -168 0
-89 -117 -169 0
-90 -118 -170 0
-91 -119 -171 0
-92 -120 -172 0
-93 -117 -173 0
-94 -118 -174 0
-95 -119 -175 0
-96 -120 -176 0
-97 -117 -177 0
-98 -118 -178 0
-99 -119 -179 0
-100 -120 -180 0
-101 -117 -181 0
-102 -118 -182 0
-103 -119 -183 0
-104 -120 -184 0
-105 -117 -185 0
-106 -118 -186 0
-107 -119 -187 0
-108 -120 -188 0
-109 -117 -189 0
-110 -118 -190 0
-111 -119 -191 0
-112 -120 -192 0
-113 -117 -193 0
-114 -118 -194 0
-115 -119 -195 0
-116 -120 -196 0
-117 -197 0
-118 -198 0
-119 -199 0
-120 -200 0
-117 -121 -201 0
-118 -122 -202 0
-119 -123 -203 0
-120 -124 -204 0
-117 -125 -205 0
-118 -126 -206 0
-119 -127 -207 0
-120 -128 -208 0
-117 -129 -209 0
-118 -130 -210 0
-119 -131 -211 0
-120 -132 -212 0
-117 -133 -213 0
-118 -134 -214 0
-119 -135 -215 0
-120 -136 -216 0
-117 -137 -217 0
-118 -138 -218 0
-119 -139 -219 0
-120 -140 -220 0
-117 -141 -221 0
-118 -142 -222 0
-119 -143 -223 0
-120 -144 -224 0
-117 -145 -225 0
-118 -146 -226 0
-119 -147 -227 0
-120 -148 -228 0
-117 -149 -229 0
-118 -150 -230 0
-119 -151 -231 0
-120 -152 -232 0
-117 -153 -233 0
-118 -154 -234 0
-119 -155 -235 0
-120 -156 -236 0
-117 -157 -237 0
-118 -158 -238 0
-119 -159 -239 0
-120 -160 -240 0
-117 -161 -241 0
-118 -162 -242 0
-119 -163 -243 0
-120 -164 -244 0
-117 -165 -245 0
-118 -166 -246 0
-119 -167 -247 0
-120 -168 -248 0
-117 -169 -249 0
-118 -170 -250 0
-119 -171 -251 0
-120 -172 -252 0
-117 -173 -253 0
-118 -174 -254 0
-119 -175 -255 0
-120 -176 -256 0
-117 -177 -257 0
-118 -178 -258 0
-119 -179 -259 0
-120 -180 -260 0
-117 -181 -261 0
-118 -182 -262 0
-119 -183 -263 0
-120 -184 -264 0
-117 -185 -265 0
-118 -186 -266 0
-119 -187 -267 0
-120 -188 -268 0
-117 -189 -269 0
-118 -190 -270 0
-119 -191 -271 0
-120 -192 -272 0
-117 -193 -273 0
-118 -194 -274 0
-119 -195 -275 0
-120 -196 -276 0
-117 -197 -277 0
-118 -198 -278 0
-119 -199 -279 0
-120 -200 -280 0
-117 -201 -281 0
-118 -202 -282 0
-119 -203 -283 0
-120 -204 -284 0
-117 -205 -285 0
-118 -206 -286 0
-119 -207 -287 0
-120 -208 -288 0
-117 -209 -289 0
-118 -210 -290 0
-119 -211 -291 0
-120 -212 -292 0
-117 -213 -293 0
-118 -214 -294 0
-119 -215 -295 0
-120 -216 -296 0
-117 -217 -297 0
-118 -218 -298 0
-119 -219 -299 0
-120 -220 -300 0
-117 -221 -301 0
-118 -222 -302 0
-119 -223 -303 0
-120 -224 -304 0
-117 -225 -305 0
-118 -226 -306 0
-119 -227 -307 0
-120 -228 -308 0
-117 -229 -309 0
-118 -230 -310 0
-119 -231 -311 0
-120 -232 -312 0
-117 -233 -313 0
-118 -234 -314 0
-119 -235 -315 0
-120 -236 -316 0
-117 -237 -317 0
-118 -238 -318 0
-119 -239 -319 0
-120 -240 -320 0
-117 -241 -321 0
-118 -242 -322 0
-119 -243 -323 0
-120 -244 -324 0
-117 -245 -325 0
-118 -246 -326 0
-119 -247 -327 0
-120 -248 -328 0
-117 -249 -329 0
-118 -250 -330 0
-119 -251 -331 0
-120 -252 -332 0
-117 -253 -333 0
-118 -254 -334 0
-119 -255 -335 0
-120 -256 -336 0
-117 -257 -337 0
-118 -258 -338 0
-119 -259 -339 0
-120 -260 -340 0
-117 -261 -341 0
-118 -262 -342 0
-119 -263 -343 0
-120 -264 -344 0
-117 -265 -345 0
-118 -266 -346 0
-119 -267 -347 0
-120 -268 -348 0
-117 -269 -349 0
-118 -270 -350 0
-119 -271 -351 0
-120 -272 -352 0
-117 -273 -353 0
-118 -274 -354 0
-119 -275 -355 0
-120 -276 -356 0
-117 -277 -357 0
-118 -278 -358 0
-119 -279 -359 0
-120 -280 -360 0
-117 -281 -361 0
-118 -282 -362 0
-119 -283 -363 0
-120 -284 -364 0
-117 -285 -365 0
-118 -286 -366 0
-119 -287 -367 0
-120 -288 -368 0
-117 -289 -369 0
-118 -290 -370 0
-119 -291 -371 0
-120 -292 -372 0
-117 -293 -373 0
-118 -294 -374 0
-119 -295 -375 0
-120 -296 -376 0
-117 -297 -377 0
-118 -298 -378 0
-119 -299 -379 0
-120 -300 -380 0
-117 -301 -381 0
-118 -302 -382 0
-119 -303 -383 0
-120 -304 -384 0
-117 -305 -385 0
-118 -306 -386 0
-119 -307 -387 0
-120 -308 -388 0
-117 -309 -389 0
-118 -310 -390 0
-119 -311 -391 0
-120 -312 -392 0
-117 -313 -393 0
-118 -314 -394 0
-119 -315 -395 0
-120 -316 -396 0
-117 -317 -397 0
-118 -318 -398 0
-119 -319 -399 0
-120 -320 -400 0
-117 -321 -401 0
-118 -322 -402 0
-119 -323 -403 0
-120 -324 -404 0
-117 -325 -405 0
-118 -326 -406 0
-119 -327 -407 0
-120 -328 -408 0
-117 -329 -409 0
-118 -330 -410 0
-119 -331 -411 0
-120 -332 -412 0
-1 -89 -129 0
-2 -90 -130 0
-3 -91 -131 0
-4 -92 -132 0
-5 -93 -129 0
-6 -94 -130 0
-7 -95 -131 0
-8 -96 -132 0
-9 -97 -129 0
-10 -98 -130 0
-11 -99 -131 0
-12 -100 -132 0
-13 -101 -129 0
-14 -102 -130 0
-15 -103 -131 0
-16 -104 -132 0
-17 -105 -129 0
-18 -106 -130 0
-19 -107 -131 0
-20 -108 -132 0
-21 -109 -129 0
-22 -110 -130 0
-23 -111 -131 0
-24 -112 -132 0
-25 -113 -129 0
-26 -114 -130 0
-27 -115 -131 0
-28 -116 -132 0
-29 -117 -129 0
-30 -118 -130 0
-31 -119 -131 0
-32 -120 -132 0
-33 -121 -129 0
-34 -122 -130 0
-35 -123 -131 0
-36 -124 -132 0
-37 -125 -129 0
-38 -126 -130 0
-39 -127 -131 0
-40 -128 -132 0
-41 -129 0
-42 -130 0
-43 -131 0
-44 -132 0
-45 -129 -133 0
-46 -130 -134 0
-47 -131 -135 0
-48 -132 -136 0
-49 -129 -137 0
-50 -130 -138 0
-51 -131 -139 0
-52 -132 -140 0
-53 -129 -141 0
-54 -130 -142 0
-55 -131 -143 0
-56 -132 -144 0
-57 -129 -145 0
-58 -130 -146 0
-59 -131 -147 0
-60 -132 -148 0
-61 -129 -149 0
-62 -130 -150 0
-63 -131 -151 0
-64 -132 -152 0
-65 -129 -153 0
-66 -130 -154 0
-67 -131 -155 0
-68 -132 -156 0
-69 -129 -157 0
-70 -130 -158 0
-71 -131 -159 0
-72 -132 -160 0
-73 -129 -161 0
-74 -130 -162 0
-75 -131 -163 0
-76 -132 -164 0
-77 -129 -165 0
-78 -130 -166 0
-79 -131 -167 0
-80 -132 -168 0
-81 -129 -169 0
-82 -130 -170 0
-83 -131 -171 0
-84 -132 -172 0
-85 -129 -173 0
-86 -130 -174 0
-87 -131 -175 0
-88 -132 -176 0
-89 -129 -177 0
-90 -130 -178 0
-91 -131 -179 0
-92 -132 -180 0
-93 -129 -181 0
-94 -130 -182 0
-95 -131 -183 0
-96 -132 -184 0
-97 -129 -185 0
-98 -130 -186 0
-99 -131 -187 0
-100 -132 -188 0
-101 -129 -189 0
-102 -130 -190 0
-103 -131 -191 0
-104 -132 -192 0
-105 -129 -193 0
-106 -130 -194 0
-107 -131 -195 0
-108 -132 -196 0
-109 -129 -197 0
-110 -130 -198 0
-111 -131 -199 0
-112 -132 -200 0
-113 -129 -201 0
-114 -130 -202 0
-115 -131 -203 0
-116 -132 -204 0
-117 -129 -205 0
-118 -130 -206 0
-119 -131 -207 0
-120 -132 -208 0
-121 -129 -209 0
-122 -130 -210 0
-123 -131 -211 0
-124 -132 -212 0
-125 -129 -213 0
-126 -130 -214 0
-127 -131 -215 0
-128 -132 -216 0
-129 -217 0
-130 -218 0
-131 -219 0
-132 -220 0
-129 -133 -221 0
-130 -134 -222 0
-131 -135 -223 0
-132 -136 -224 0
-129 -137 -225 0
-130 -138 -226 0
-131 -139 -227 0
-132 -140 -228 0
-129 -141 -229 0
-130 -142 -230 0
-131 -143 -231 0
-132 -144 -232 0
-129 -145 -233 0
-130 -146 -234 0
-131 -147 -235 0
-132 -148 -236 0
-129 -149 -237 0
-130 -150 -238 0
-131 -151 -239 0
-132 -152 -240 0
-129 -153 -241 0
-130 -154 -242 0
-131 -155 -243 0
-132 -156 -244 0
-129 -157 -245 0
-130 -158 -246 0
-131 -159 -247 0
-132 -160 -248 0
-129 -161 -249 0
-130 -162 -250 0
-131 -163 -251 0
-132 -164 -252 0
-129 -165 -253 0
-130 -166 -254 0
-131 -167 -255 0
-132 -168 -256 0
-129 -169 -257 0
-130 -170 -258 0
-131 -171 -259 0
-132 -172 -260 0
-129 -173 -261 0
-130 -174 -262 0
-131 -175 -263 0
-132 -176 -264 0
-129 -177 -265 0
-130 -178 -266 0
-131 -179 -267 0
-132 -180 -268 0
-129 -181 -269 0
-130 -182 -270 0
-131 -183 -271 0
-132 -184 -272 0
-129 -185 -273 0
-130 -186 -274 0
-131 -187 -275 0
-132 -188 -276 0
-129 -189 -277 0
-130 -190 -278 0
-131 -191 -279 0
-132 -192 -280 0
-129 -193 -281 0
-130 -194 -282 0
-131 -195 -283 0
-132 -196 -284 0
-129 -197 -285 0
-130 -198 -286 0
-131 -199 -287 0
-132 -200 -288 0
-129 -201 -289 0
-130 -202 -290 0
-131 -203 -291 0
-132 -204 -292 0
-129 -205 -293 0
-130 -206 -294 0
-131 -207 -295 0
-132 -208 -296 0
-129 -209 -297 0
-130 -210 -298 0
-131 -211 -299 0
-132 -212 -300 0
-129 -213 -301 0
-130 -214 -302 0
-131 -215 -303 0
-132 -216 -304 0
-129 -217 -305 0
-130 -218 -306 0
-131 -219 -307 0
-132 -220 -308 0
-129 -221 -309 0
-130 -222 -310 0
-131 -223 -311 0
-132 -224 -312 0
-129 -225 -313 0
-130 -226 -314 0
-131 -227 -315 0
-132 -228 -316 0
-129 -229 -317 0
-130 -230 -318 0
-131 -231 -319 0
-132 -232 -320 0
-129 -233 -321 0
-130 -234 -322 0
-131 -235 -323 0
-132 -236 -324 0
-129 -237 -325 0
-130 -238 -326 0
-131 -239 -327 0
-132 -240 -328 0
-129 -241 -329 0
-130 -242 -330 0
-131 -243 -331 0
-132 -244 -332 0
-129 -245 -333 0
-130 -246 -334 0
-131 -247 -335 0
-132 -248 -336 0
-129 -249 -337 0
-130 -250 -338 0
-131 -251 -339 0
-132 -252 -340 0
-129 -253 -341 0
-130 -254 -342 0
-131 -255 -343 0
-132 -256 -344 0
-129 -257 -345 0
-130 -258 -346 0
-131 -259 -347 0
-132 -260 -348 0
-129 -261 -349 0
-130 -262 -350 0
-131 -263 -351 0
-132 -264 -352 0
-129 -265 -353 0
-130 -266 -354 0
-131 -267 -355 0
-132 -268 -356 0
-129 -269 -357 0
-130 -270 -358 0
-131 -271 -359 0
-132 -272 -360 0
-129 -273 -361 0
-130 -274 -362 0
-131 -275 -363 0
-132 -276 -364 0
-129 -277 -365 0
-130 -278 -366 0
-131 -279 -367 0
-132 -280 -368 0
-129 -281 -369 0
-130 -282 -370 0
-131 -283 -371 0
-132 -284 -372 0
-129 -285 -373 0
-130 -286 -374 0
-131 -287 -375 0
-132 -288 -376 0
-129 -289 -377 0
-130 -290 -378 0
-131 -291 -379 0
-132 -292 -380 0
-129 -293 -381 0
-130 -294 -382 0
-131 -295 -383 0
-132 -296 -384 0
-129 -297 -385 0
-130 -298 -386 0
-131 -299 -387 0
-132 -300 -388 0
-129 -301 -389 0
-130 -302 -390 0
-131 -303 -391 0
-132 -304 -392 0
-129 -305 -393 0
-130 -306 -394 0
-131 -307 -395 0
-132 -308 -396 0
-129 -309 -397 0
-130 -310 -398 0
-131 -311 -399 0
-132 -312 -400 0
-129 -313 -401 0
-130 -314 -402 0
-131 -315 -403 0
-132 -316 -404 0
-129 -317 -405 0
-130 -318 -406 0
-131 -319 -407 0
-132 -320 -408 0
-129 -321 -409 0
-130 -322 -410 0
-131 -323 -411 0
-132 -324 -412 0
-1 -97 -141 0
-2 -98 -142 0
-3 -99 -143 0
-4 -100 -144 0
-5 -101 -141 0
-6 -102 -142 0
-7 -103 -143 0
-8 -104 -144 0
-9 -105 -141 0
-10 -106 -142 0
-11 -107 -143 0
-12 -108 -144 0
-13 -109 -141 0
-14 -110 -142 0
-15 -111 -143 0
-16 -112 -144 0
-17 -113 -141 0
-18 -114 -142 0
-19 -115 -143 0
-20 -116 -144 0
-21 -117 -141 0
-22 -118 -142 0
-23 -119 -143 0
-24 -120 -144 0
-25 -121 -141 0
-26 -122 -142 0
-27 -123 -143 0
-28 -124 -144 0
-29 -125 -141 0
-30 -126 -142 0
-31 -127 -143 0
-32 -128 -144 0
-33 -129 -141 0
-34 -130 -142 0
-35 -131 -143 0
-36 -132 -144 0
-37 -133 -141 0
-38 -134 -142 0
-39 -135 -143 0
-40 -136 -144 0
-41 -137 -141 0
-42 -138 -142 0
-43 -139 -143 0
-44 -140 -144 0
-45 -141 0
-46 -142 0
-47 -143 0
-48 -144 0
-49 -141 -145 0
-50 -142 -146 0
-51 -143 -147 0
-52 -144 -148 0
-53 -141 -149 0
-54 -142 -150 0
-55 -143 -151 0
-56 -144 -152 0
-57 -141 -153 0
-58 -142 -154 0
-59 -143 -155 0
-60 -144 -156 0
-61 -141 -157 0
-62 -142 -158 0
-63 -143 -159 0
-64 -144 -160 0
-65 -141 -161 0
-66 -142 -162 0
-67 -143 -163 0
-68 -144 -164 0
-69 -141 -165 0
-70 -142 -166 0
-71 -143 -167 0
-72 -144 -168 0
-73 -141 -169 0
-74 -142 -170 0
-75 -143 -171 0
-76 -144 -172 0
-77 -141 -173 0
-78 -142 -174 0
-79 -143 -175 0
-80 -144 -176 0
-81 -141 -177 0
-82 -142 -178 0
-83 -143 -179 0
-84 -144 -180 0
-85 -141 -181 0
-86 -142 -182 0
-87 -143 -183 0
-88 -144 -184 0
-89 -141 -185 0
-90 -142 -186 0
-91 -143 -187 0
-92 -144 -188 0
-93 -141 -189 0
-94 -142 -190 0
-95 -143 -191 0
-96 -144 -192 0
-97 -141 -193 0
-98 -142 -194 0
-99 -143 -195 0
-100 -144 -196 0
-101 -141 -197 0
-102 -142 -198 0
-103 -143 -199 0
-104 -144 -200 0
-105 -141 -201 0
-106 -142 -202 0
-107 -143 -203 0
-108 -144 -204 0
-109 -141 -205 0
-110 -142 -206 0
-111 -143 -207 0
-112 -144 -208 0
-113 -141 -209 0
-114 -142 -210 0
-115 -143 -211 0
-116 -144 -212 0
-117 -141 -213 0
-118 -142 -214 0
-119 -143 -215 0
-120 -144 -216 0
-121 -141 -217 0
-122 -142 -218 0
-123 -143 -219 0
-124 -144 -220 0
-125 -141 -221 0
-126 -142 -222 0
-127 -143 -223 0
-128 -144 -224 0
-129 -141 -225 0
-130 -142 -226 0
-131 -143 -227 0
-132 -144 -228 0
-133 -141 -229 0
-134 -142 -230 0
-135 -143 -231 0
-136 -144 -232 0
-137 -141 -233 0
-138 -142 -234 0
-139 -143 -235 0
-140 -144 -236 0
-141 -237 0
-142 -238 0
-143 -239 0
-144 -240 0
-141 -145 -241 0
-142 -146 -242 0
-143 -147 -243 0
-144 -148 -244 0
-141 -149 -245 0
-142 -150 -246 0
-143 -151 -247 0
-144 -152 -248 0
-141 -153 -249 0
-142 -154 -250 0
-143 -155 -251 0
-144 -156 -252 0
-141 -157 -253 0
-142 -158 -254 0
-143 -159 -255 0
-144 -160 -256 0
-141 -161 -257 0
-142 -162 -258 0
-143 -163 -259 0
-144 -164 -260 0
-141 -165 -261 0
-142 -166 -262 0
-143 -167 -263 0
-144 -168 -264 0
-141 -169 -265 0
-142 -170 -266 0
-143 -171 -267 0
-144 -172 -268 0
-141 -173 -269 0
-142 -174 -270 0
-143 -175 -271 0
-144 -176 -272 0
-141 -177 -273 0
-142 -178 -274 0
-143 -179 -275 0
-144 -180 -276 0
-141 -181 -277 0
-142 -182 -278 0
-143 -183 -279 0
-144 -184 -280 0
-141 -185 -281 0
-142 -186 -282 0
-143 -187 -283 0
-144 -188 -284 0
-141 -189 -285 0
-142 -190 -286 0
-143 -191 -287 0
-144 -192 -288 0
-141 -193 -289 0
-142 -194 -290 0
-143 -195 -291 0
-144 -196 -292 0
-141 -197 -293 0
-142 -198 -294 0
-143 -199 -295 0
-144 -200 -296 0
-141 -201 -297 0
-142 -202 -298 0
-143 -203 -299 0
-144 -204 -300 0
-141 -205 -301 0
-142 -206 -302 0
-143 -207 -303 0
-144 -208 -304 0
-141 -209 -305 0
-142 -210 -306 0
-143 -211 -307 0
-144 -212 -308 0
-141 -213 -309 0
-142 -214 -310 0
-143 -215 -311 0
-144 -216 -312 0
-141 -217 -313 0
-142 -218 -314 0
-143 -219 -315 0
-144 -220 -316 0
-141 -221 -317 0
-142 -222 -318 0
-143 -223 -319 0
-144 -224 -320 0
-141 -225 -321 0
-142 -226 -322 0
-143 -227 -323 0
-144 -228 -324 0
-141 -229 -325 0
-142 -230 -326 0
-143 -231 -327 0
-144 -232 -328 0
-141 -233 -329 0
-142 -234 -330 0
-143 -235 -331 0
-144 -236 -332 0
-141 -237 -333 0
-142 -238 -334 0
-143 -239 -335 0
-144 -240 -336 0
-141 -241 -337 0
-142 -242 -338 0
-143 -243 -339 0
-144 -244 -340 0
-141 -245 -341 0
-142 -246 -342 0
-143 -247 -343 0
-144 -248 -344 0
-141 -249 -345 0
-142 -250 -346 0
-143 -251 -347 0
-144 -252 -348 0
-141 -253 -349 0
-142 -254 -350 0
-143 -255 -351 0
-144 -256 -352 0
-141 -257 -353 0
-142 -258 -354 0
-143 -259 -355 0
-144 -260 -356 0
-141 -261 -357 0
-142 -262 -358 0
-143 -263 -359 0
-144 -264 -360 0
-141 -265 -361 0
-142 -266 -362 0
-143 -267 -363 0
-144 -268 -364 0
-141 -269 -365 0
-142 -270 -366 0
-143 -271 -367 0
-144 -272 -368 0
-141 -273 -369 0
-142 -274 -370 0
-143 -275 -371 0
-144 -276 -372 0
-141 -277 -373 0
-142 -278 -374 0
-143 -279 -375 0
-144 -280 -376 0
-141 -281 -377 0
-142 -282 -378 0
-143 -283 -379 0
-144 -284 -380 0
-141 -285 -381 0
-142 -286 -382 0
-143 -287 -383 0
-144 -288 -384 0
-141 -289 -385 0
-142 -290 -386 0
-143 -291 -387 0
-144 -292 -388 0
-141 -293 -389 0
-142 -294 -390 0
-143 -295 -391 0
-144 -296 -392 0
-141 -297 -393 0
-142 -298 -394 0
-143 -299 -395 0
-144 -300 -396 0
-141 -301 -397 0
-142 -302 -398 0
-143 -303 -399 0
-144 -304 -400 0
-141 -305 -401 0
-142 -306 -402 0
-143 -307 -403 0
-144 -308 -404 0
-141 -309 -405 0
-142 -310 -406 0
-143 -311 -407 0
-144 -312 -408 0
-141 -313 -409 0
-142 -314 -410 0
-143 -315 -411 0
-144 -316 -412 0
-1 -105 -153 0
-2 -106 -154 0
-3 -107 -155 0
-4 -108 -156 0
-5 -109 -153 0
-6 -110 -154 0
-7 -111 -155 0
-8 -112 -156 0
-9 -113 -153 0
-10 -114 -154 0
-11 -115 -155 0
-12 -116 -156 0
-13 -117 -153 0
-14 -118 -154 0
-15 -119 -155 0
-16 -120 -156 0
-17 -121 -153 0
-18 -122 -154 0
-19 -123 -155 0
-20 -124 -156 0
-21 -125 -153 0
-22 -126 -154 0
-23 -127 -155 0
-24 -128 -156 0
-25 -129 -153 0
-26 -130 -154 0
-27 -131 -155 0
-28 -132 -156 0
-29 -133 -153 0
-30 -134 -154 0
-31 -135 -155 0
-32 -136 -156 0
-33 -137 -153 0
-34 -138 -154 0
-35 -139 -155 0
-36 -140 -156 0
-37 -141 -153 0
-38 -142 -154 0
-39 -143 -155 0
-40 -144 -156 0
-41 -145 -153 0
-42 -146 -154 0
-43 -147 -155 0
-44 -148 -156 0
-45 -149 -153 0
-46 -150 -154 0
-47 -151 -155 0
-48 -152 -156 0
-49 -153 0
-50 -154 0
-51 -155 0
-52 -156 0
-53 -153 -157 0
-54 -154 -158 0
-55 -155 -159 0
-56 -156 -160 0
-57 -153 -161 0
-58 -154 -162 0
-59 -155 -163 0
-60 -156 -164 0
-61 -153 -165 0
-62 -154 -166 0
-63 -155 -167 0
-64 -156 -168 0
-65 -153 -169 0
-66 -154 -170 0
-67 -155 -171 0
-68 -156 -172 0
-69 -153 -173 0
-70 -154 -174 0
-71 -155 -175 0
-72 -156 -176 0
-73 -153 -177 0
-74 -154 -178 0
-75 -155 -179 0
-76 -156 -180 0
-77 -153 -181 0
-78 -154 -182 0
-79 -155 -183 0
-80 -156 -184 0
-81 -153 -185 0
-82 -154 -186 0
-83 -155 -187 0
-84 -156 -188 0
-85 -153 -189 0
-86 -154 -190 0
-87 -155 -191 0
-88 -156 -192 0
-89 -153 -193 0
-90 -154 -194 0
-91 -155 -195 0
-92 -156 -196 0
-93 -153 -197 0
-94 -154 -198 0
-95 -155 -199 0
-96 -156 -200 0
-97 -153 -201 0
-98 -154 -202 0
-99 -155 -203 0
-100 -156 -204 0
-101 -153 -205 0
-102 -154 -206 0
-103 -155 -207 0
-104 -156 -208 0
-105 -153 -209 0
-106 -154 -210 0
-107 -155 -211 0
-108 -156 -212 0
-109 -153 -213 0
-110 -154 -214 0
-111 -155 -215 0
-112 -156 -216 0
-113 -153 -217 0
-114 -154 -218 0
-115 -155 -219 0
-116 -156 -220 0
-117 -153 -221 0
-118 -154 -222 0
-119 -155 -223 0
-120 -156 -224 0
-121 -153 -225 0
-122 -154 -226 0
-123 -155 -227 0
-124 -156 -228 0
-125 -153 -229 0
-126 -154 -230 0
-127 -155 -231 0
-128 -156 -232 0
-129 -153 -233 0
-130 -154 -234 0
-131 -155 -235 0
-132 -156 -236 0
-133 -153 -237 0
-134 -154 -238 0
-135 -155 -239 0
-136 -156 -240 0
-137 -153 -241 0
-138 -154 -242 0
-139 -155 -243 0
-140 -156 -244 0
-141 -153 -245 0
-142 -154 -246 0
-143 -155 -247 0
-144 -156 -248 0
-145 -153 -249 0
-146 -154 -250 0
-147 -155 -251 0
-148 -156 -252 0
-149 -153 -253 0
-150 -154 -254 0
-151 -155 -255 0
-152 -156 -256 0
-153 -257 0
-154 -258 0
-155 -259 0
-156 -260 0
-153 -157 -261 0
-154 -158 -262 0
-155 -159 -263 0
-156 -160 -264 0
-153 -161 -265 0
-154 -162 -266 0
-155 -163 -267 0
-156 -164 -268 0
-153 -165 -269 0
-154 -166 -270 0
-155 -167 -271 0
-156 -168 -272 0
-153 -169 -273 0
-154 -170 -274 0
-155 -171 -275 0
-156 -172 -276 0
-153 -173 -277 0
-154 -174 -278 0
-155 -175 -279 0
-156 -176 -280 0
-153 -177 -281 0
-154 -178 -282 0
-155 -179 -283 0
-156 -180 -284 0
-153 -181 -285 0
-154 -182 -286 0
-155 -183 -287 0
-156 -184 -288 0
-153 -185 -289 0
-154 -186 -290 0
-155 -187 -291 0
-156 -188 -292 0
-153 -189 -293 0
-154 -190 -294 0
-155 -191 -295 0
-156 -192 -296 0
-153 -193 -297 0
-154 -194 -298 0
-155 -195 -299 0
-156 -196 -300 0
-153 -197 -301 0
-154 -198 -302 0
-155 -199 -303 0
-156 -200 -304 0
-153 -201 -305 0
-154 -202 -306 0
-155 -203 -307 0
-156 -204 -308 0
-153 -205 -309 0
-154 -206 -310 0
-155 -207 -311 0
-156 -208 -312 0
-153 -209 -313 0
-154 -210 -314 0
-155 -211 -315 0
-156 -212 -316 0
-153 -213 -317 0
-154 -214 -318 0
-155 -215 -319 0
-156 -216 -320 0
-153 -217 -321 0
-154 -218 -322 0
-155 -219 -323 0
-156 -220 -324 0
-153 -221 -325 0
-154 -222 -326 0
-155 -223 -327 0
-156 -224 -328 0
-153 -225 -329 0
-154 -226 -330 0
-155 -227 -331 0
-156 -228 -332 0
-153 -229 -333 0
-154 -230 -334 0
-155 -231 -335 0
-156 -232 -336 0
-153 -233 -337 0
-154 -234 -338 0
-155 -235 -339 0
-156 -236 -340 0
-153 -237 -341 0
-154 -238 -342 0
-155 -239 -343 0
-156 -240 -344 0
-153 -241 -345 0
-154 -242 -346 0
-155 -243 -347 0
-156 -244 -348 0
-153 -245 -349 0
-154 -246 -350 0
-155 -247 -351 0
-156 -248 -352 0
-153 -249 -353 0
-154 -250 -354 0
-155 -251 -355 0
-156 -252 -356 0
-153 -253 -357 0
-154 -254 -358 0
-155 -255 -359 0
-156 -256 -360 0
-153 -257 -361 0
-154 -258 -362 0
-155 -259 -363 0
-156 -260 -364 0
-153 -261 -365 0
-154 -262 -366 0
-155 -263 -367 0
-156 -264 -368 0
-153 -265 -369 0
-154 -266 -370 0
-155 -267 -371 0
-156 -268 -372 0
-153 -269 -373 0
-154 -270 -374 0
-155 -271 -375 0
-156 -272 -376 0
-153 -273 -377 0
-154 -274 -378 0
-155 -275 -379 0
-156 -276 -380 0
-153 -277 -381 0
-154 -278 -382 0
-155 -279 -383 0
-156 -280 -384 0
-153 -281 -385 0
-154 -282 -386 0
-155 -283 -387 0
-156 -284 -388 0
-153 -285 -389 0
-154 -286 -390 0
-155 -287 -391 0
-156 -288 -392 0
-153 -289 -393 0
-154 -290 -394 0
-155 -291 -395 0
-156 -292 -396 0
-153 -293 -397 0
-154 -294 -398 0
-155 -295 -399 0
-156 -296 -400 0
-153 -297 -401 0
-154 -298 -402 0
-155 -299 -403 0
-156 -300 -404 0
-153 -301 -405 0
-154 -302 -406 0
-155 -303 -407 0
-156 -304 -408 0
-153 -305 -409 0
-154 -306 -410 0
-155 -307 -411 0
-156 -308 -412 0
-1 -113 -165 0
-2 -114 -166 0
-3 -115 -167 0
-4 -116 -168 0
-5 -117 -165 0
-6 -118 -166 0
-7 -119 -167 0
-8 -120 -168 0
-9 -121 -165 0
-10 -122 -166 0
-11 -123 -167 0
-12 -124 -168 0
-13 -125 -165 0
-14 -126 -166 0
-15 -127 -167 0
-16 -128 -168 0
-17 -129 -165 0
-18 -130 -166 0
-19 -131 -167 0
-20 -132 -168 0
-21 -133 -165 0
-22 -134 -166 0
-23 -135 -167 0
-24 -136 -168 0
-25 -137 -165 0
-26 -138 -166 0
-27 -139 -167 0
-28 -140 -168 0
-29 -141 -165 0
-30 -142 -166 0
-31 -143 -167 0
-32 -144 -168 0
-33 -145 -165 0
-34 -146 -166 0
-35 -147 -167 0
-36 -148 -168 0
-37 -149 -165 0
-38 -150 -166 0
-39 -151 -167 0
-40 -152 -168 0
-41 -153 -165 0
-42 -154 -166 0
-43 -155 -167 0
-44 -156 -168 0
-45 -157 -165 0
-46 -158 -166 0
-47 -159 -167 0
-48 -160 -168 0
-49 -161 -165 0
-50 -162 -166 0
-51 -163 -167 0
-52 -164 -168 0
-53 -165 0
-54 -166 0
-55 -167 0
-56 -168 0
-57 -165 -169 0
-58 -166 -170 0
-59 -167 -171 0
-60 -168 -172 0
-61 -165 -173 0
-62 -166 -174 0
-63 -167 -175 0
-64 -168 -176 0
-65 -165 -177 0
-66 -166 -178 0
-67 -167 -179 0
-68 -168 -180 0
-69 -165 -181 0
-70 -166 -182 0
-71 -167 -183 0
-72 -168 -184 0
-73 -165 -185 0
-74 -166 -186 0
-75 -167 -187 0
-76 -168 -188 0
-77 -165 -189 0
-78 -166 -190 0
-79 -167 -191 0
-80 -168 -192 0
-81 -165 -193 0
-82 -166 -194 0
-83 -167 -195 0
-84 -168 -196 0
-85 -165 -197 0
-86 -166 -198 0
-87 -167 -199 0
-88 -168 -200 0
-89 -165 -201 0
-90 -166 -202 0
-91 -167 -203 0
-92 -168 -204 0
-93 -165 -205 0
-94 -166 -206 0
-95 -167 -207 0
-96 -168 -208 0
-97 -165 -209 0
-98 -166 -210 0
-99 -167 -211 0
-100 -168 -212 0
-101 -165 -213 0
-102 -166 -214 0
-103 -167 -215 0
-104 -168 -216 0
-105 -165 -217 0
-106 -166 -218 0
-107 -167 -219 0
-108 -168 -220 0
-109 -165 -221 0
-110 -166 -222 0
-111 -167 -223 0
-112 -168 -224 0
-113 -165 -225 0
-114 -166 -226 0
-115 -167 -227 0
-116 -168 -228 0
-117 -165 -229 0
-118 -166 -230 0
-119 -167 -231 0
-120 -168 -232 0
-121 -165 -233 0
-122 -166 -234 0
-123 -167 -235 0
-124 -168 -236 0
-125 -165 -237 0
-126 -166 -238 0
-127 -167 -239 0
-128 -168 -240 0
-129 -165 -241 0
-130 -166 -242 0
-131 -167 -243 0
-132 -168 -244 0
-133 -165 -245 0
-134 -166 -246 0
-135 -167 -247 0
-136 -168 -248 0
-137 -165 -249 0
-138 -166 -250 0
-139 -167 -251 0
-140 -168 -252 0
-141 -165 -253 0
-142 -166 -254 0
-143 -167 -255 0
-144 -168 -256 0
-145 -165 -257 0
-146 -166 -258 0
-147 -167 -259 0
-148 -168 -260 0
-149 -165 -261 0
-150 -166 -262 0
-151 -167 -263 0
-152 -168 -264 0
-153 -165 -265 0
-154 -166 -266 0
-155 -167 -267 0
-156 -168 -268 0
-157 -165 -269 0
-158 -166 -270 0
-159 -167 -271 0
-160 -168 -272 0
-161 -165 -273 0
-162 -166 -274 0
-163 -167 -275 0
-164 -168 -276 0
-165 -277 0
-166 -278 0
-167 -279 0
-168 -280 0
-165 -169 -281 0
-166 -170 -282 0
-167 -171 -283 0
-168 -172 -284 0
-165 -173 -285 0
-166 -174 -286 0
-167 -175 -287 0
-168 -176 -288 0
-165 -177 -289 0
-166 -178 -290 0
-167 -179 -291 0
-168 -180 -292 0
-165 -181 -293 0
-166 -182 -294 0
-167 -183 -295 0
-168 -184 -296 0
-165 -185 -297 0
-166 -186 -298 0
-167 -187 -299 0
-168 -188 -300 0
-165 -189 -301 0
-166 -190 -302 0
-167 -191 -303 0
-168 -192 -304 0
-165 -193 -305 0
-166 -194 -306 0
-167 -195 -307 0
-168 -196 -308 0
-165 -197 -309 0
-166 -198 -310 0
-167 -199 -311 0
-168 -200 -312 0
-165 -201 -313 0
-166 -202 -314 0
-167 -203 -315 0
-168 -204 -316 0
-165 -205 -317 0
-166 -206 -318 0
-167 -207 -319 0
-168 -208 -320 0
-165 -209 -321 0
-166 -210 -322 0
-167 -211 -323 0
-168 -212 -324 0
-165 -213 -325 0
-166 -214 -326 0
-167 -215 -327 0
-168 -216 -328 0
-165 -217 -329 0
-166 -218 -330 0
-167 -219 -331 0
-168 -220 -332 0
-165 -221 -333 0
-166 -222 -334 0
-167 -223 -335 0
-168 -224 -336 0
-165 -225 -337 0
-166 -226 -338 0
-167 -227 -339 0
-168 -228 -340 0
-165 -229 -341 0
-166 -230 -342 0
-167 -231 -343 0
-168 -232 -344 0
-165 -233 -345 0
-166 -234 -346 0
-167 -235 -347 0
-168 -236 -348 0
-165 -237 -349 0
-166 -238 -350 0
-167 -239 -351 0
-168 -240 -352 0
-165 -241 -353 0
-166 -242 -354 0
-167 -243 -355 0
-168 -244 -356 0
-165 -245 -357 0
-166 -246 -358 0
-167 -247 -359 0
-168 -248 -360 0
-165 -249 -361 0
-166 -250 -362 0
-167 -251 -363 0
-168 -252 -364 0
-165 -253 -365 0
-166 -254 -366 0
-167 -255 -367 0
-168 -256 -368 0
-165 -257 -369 0
-166 -258 -370 0
-167 -259 -371 0
-168 -260 -372 0
-165 -261 -373 0
-166 -262 -374 0
-167 -263 -375 0
-168 -264 -376 0
-165 -265 -377 0
-166 -266 -378 0
-167 -267 -379 0
-168 -268 -380 0
-165 -269 -381 0
-166 -270 -382 0
-167 -271 -383 0
-168 -272 -384 0
-165 -273 -385 0
-166 -274 -386 0
-167 -275 -387 0
-168 -276 -388 0
-165 -277 -389 0
-166 -278 -390 0
-167 -279 -391 0
-168 -280 -392 0
-165 -281 -393 0
-166 -282 -394 0
-167 -283 -395 0
-168 -284 -396 0
-165 -285 -397 0
-166 -286 -398 0
-167 -287 -399 0
-168 -288 -400 0
-165 -289 -401 0
-166 -290 -402 0
-167 -291 -403 0
-168 -292 -404 0
-165 -293 -405 0
-166 -294 -406 0
-167 -295 -407 0
-168 -296 -408 0
-165 -297 -409 0
-166 -298 -410 0
-167 -299 -411 0
-168 -300 -412 0
-1 -121 -177 0
-2 -122 -178 0
-3 -123 -179 0
-4 -124 -180 0
-5 -125 -177 0
-6 -126 -178 0
-7 -127 -179 0
-8 -128 -180 0
-9 -129 -177 0
-10 -130 -178 0
-11 -131 -179 0
-12 -132 -180 0
-13 -133 -177 0
-14 -134 -178 0
-15 -135 -179 0
-16 -136 -180 0
-17 -137 -177 0
-18 -138 -178 0
-19 -139 -179 0
-20 -140 -180 0
-21 -141 -177 0
-22 -142 -178 0
-23 -143 -179 0
-24 -144 -180 0
-25 -145 -177 0
-26 -146 -178 0
-27 -147 -179 0
-28 -148 -180 0
-29 -149 -177 0
-30 -150 -178 0
-31 -151 -179 0
-32 -152 -180 0
-33 -153 -177 0
-34 -154 -178 0
-35 -155 -179 0
-36 -156 -180 0
-37 -157 -177 0
-38 -158 -178 0
-39 -159 -179 0
-40 -160 -180 0
-41 -161 -177 0
-42 -162 -178 0
-43 -163 -179 0
-44 -164 -180 0
-45 -165 -177 0
-46 -166 -178 0
-47 -167 -179 0
-48 -168 -180 0
-49 -169 -177 0
-50 -170 -178 0
-51 -171 -179 0
-52 -172 -180 0
-53 -173 -177 0
-54 -174 -178 0
-55 -175 -179 0
-56 -176 -180 0
-57 -177 0
-58 -178 0
-59 -179 0
-60 -180 0
-61 -177 -181 0
-62 -178 -182 0
-63 -179 -183 0
-64 -180 -184 0
-65 -177 -185 0
-66 -178 -186 0
-67 -179 -187 0
-68 -180 -188 0
-69 -177 -189 0
-70 -178 -190 0
-71 -179 -191 0
-72 -180 -192 0
-73 -177 -193 0
-74 -178 -194 0
-75 -179 -195 0
-76 -180 -196 0
-77 -177 -197 0
-78 -178 -198 0
-79 -179 -199 0
-80 -180 -200 0
-81 -177 -201 0
-82 -178 -202 0
-83 -179 -203 0
-84 -180 -204 0
-85 -177 -205 0
-86 -178 -206 0
-87 -179 -207 0
-88 -180 -208 0
-89 -177 -209 0
-90 -178 -210 0
-91 -179 -211 0
-92 -180 -212 0
-93 -177 -213 0
-94 -178 -214 0
-95 -179 -215 0
-96 -180 -216 0
-97 -177 -217 0
-98 -178 -218 0
-99 -179 -219 0
-100 -180 -220 0
-101 -177 -221 0
-102 -178 -222 0
-103 -179 -223 0
-104 -180 -224 0
-105 -177 -225 0
-106 -178 -226 0
-107 -179 -227 0
-108 -180 -228 0
-109 -177 -229 0
-110 -178 -230 0
-111 -179 -231 0
-112 -180 -232 0
-113 -177 -233 0
-114 -178 -234 0
-115 -179 -235 0
-116 -180 -236 0
-117 -177 -237 0
-118 -178 -238 0
-119 -179 -239 0
-120 -180 -240 0
-121 -177 -241 0
-122 -178 -242 0
-123 -179 -243 0
-124 -180 -244 0
-125 -177 -245 0
-126 -178 -246 0
-127 -179 -247 0
-128 -180 -248 0
-129 -177 -249 0
-130 -178 -250 0
-131 -179 -251 0
-132 -180 -252 0
-133 -177 -253 0
-134 -178 -254 0
-135 -179 -255 0
-136 -180 -256 0
-137 -177 -257 0
-138 -178 -258 0
-139 -179 -259 0
-140 -180 -260 0
-141 -177 -261 0
-142 -178 -262 0
-143 -179 -263 0
-144 -180 -264 0
-145 -177 -265 0
-146 -178 -266 0
-147 -179 -267 0
-148 -180 -268 0
-149 -177 -269 0
-150 -178 -270 0
-151 -179 -271 0
-152 -180 -272 0
-153 -177 -273 0
-154 -178 -274 0
-155 -179 -275 0
-156 -180 -276 0
-157 -177 -277 0
-158 -178 -278 0
-159 -179 -279 0
-160 -180 -280 0
-161 -177 -281 0
-162 -178 -282 0
-163 -179 -283 0
-164 -180 -284 0
-165 -177 -285 0
-166 -178 -286 0
-167 -179 -287 0
-168 -180 -288 0
-169 -177 -289 0
-170 -178 -290 0
-171 -179 -291 0
-172 -180 -292 0
-173 -177 -293 0
-174 -178 -294 0
-175 -179 -295 0
-176 -180 -296 0
-177 -297 0
-178 -298 0
-179 -299 0
-180 -300 0
-177 -181 -301 0
-178 -182 -302 0
-179 -183 -303 0
-180 -184 -304 0
-177 -185 -305 0
-178 -186 -306 0
-179 -187 -307 0
-180 -188 -308 0
-177 -189 -309 0
-178 -190 -310 0
-179 -191 -311 0
-180 -192 -312 0
-177 -193 -313 0
-178 -194 -314 0
-179 -195 -315 0
-180 -196 -316 0
-177 -197 -317 0
-178 -198 -318 0
-179 -199 -319 0
-180 -200 -320 0
-177 -201 -321 0
-178 -202 -322 0
-179 -203 -323 0
-180 -204 -324 0
-177 -205 -325 0
-178 -206 -326 0
-179 -207 -327 0
-180 -208 -328 0
-177 -209 -329 0
-178 -210 -330 0
-179 -211 -331 0
-180 -212 -332 0
-177 -213 -333 0
-178 -214 -334 0
-179 -215 -335 0
-180 -216 -336 0
-177 -217 -337 0
-178 -218 -338 0
-179 -219 -339 0
-180 -220 -340 0
-177 -221 -341 0
-178 -222 -342 0
-179 -223 -343 0
-180 -224 -344 0
-177 -225 -345 0
-178 -226 -346 0
-179 -227 -347 0
-180 -228 -348 0
-177 -229 -349 0
-178 -230 -350 0
-179 -231 -351 0
-180 -232 -352 0
-177 -233 -353 0
-178 -234 -354 0
-179 -235 -355 0
-180 -236 -356 0
-177 -237 -357 0
-178 -238 -358 0
-179 -239 -359 0
-180 -240 -360 0
-177 -241 -361 0
-178 -242 -362 0
-179 -243 -363 0
-180 -244 -364 0
-177 -245 -365 0
-178 -246 -366 0
-179 -247 -367 0
-180 -248 -368 0
-177 -249 -369 0
-178 -250 -370 0
-179 -251 -371 0
-180 -252 -372 0
-177 -253 -373 0
-178 -254 -374 0
-179 -255 -375 0
-180 -256 -376 0
-177 -257 -377 0
-178 -258 -378 0
-179 -259 -379 0
-180 -260 -380 0
-177 -261 -381 0
-178 -262 -382 0
-179 -263 -383 0
-180 -264 -384 0
-177 -265 -385 0
-178 -266 -386 0
-179 -267 -387 0
-180 -268 -388 0
-177 -269 -389 0
-178 -270 -390 0
-179 -271 -391 0
-180 -272 -392 0
-177 -273 -393 0
-178 -274 -394 0
-179 -275 -395 0
-180 -276 -396 0
-177 -277 -397 0
-178 -278 -398 0
-179 -279 -399 0
-180 -280 -400 0
-177 -281 -401 0
-178 -282 -402 0
-179 -283 -403 0
-180 -284 -404 0
-177 -285 -405 0
-178 -286 -406 0
-179 -287 -407 0
-180 -288 -408 0
-177 -289 -409 0
-178 -290 -410 0
-179 -291 -411 0
-180 -292 -412 0
-1 -129 -189 0
-2 -130 -190 0
-3 -131 -191 0
-4 -132 -192 0
-5 -133 -189 0
-6 -134 -190 0
-7 -135 -191 0
-8 -136 -192 0
-9 -137 -189 0
-10 -138 -190 0
-11 -139 -191 0
-12 -140 -192 0
-13 -141 -189 0
-14 -142 -190 0
-15 -143 -191 0
-16 -144 -192 0
-17 -145 -189 0
-18 -146 -190 0
-19 -147 -191 0
-20 -148 -192 0
-21 -149 -189 0
-22 -150 -190 0
-23 -151 -191 0
-24 -152 -192 0
-25 -153 -189 0
-26 -154 -190 0
-27 -155 -191 0
-28 -156 -192 0
-29 -157 -189 0
-30 -158 -190 0
-31 -159 -191 0
-32 -160 -192 0
-33 -161 -189 0
-34 -162 -190 0
-35 -163 -191 0
-36 -164 -192 0
-37 -165 -189 0
-38 -166 -190 0
-39 -167 -191 0
-40 -168 -192 0
-41 -169 -189 0
-42 -170 -190 0
-43 -171 -191 0
-44 -172 -192 0
-45 -173 -189 0
-46 -174 -190 0
-47 -175 -191 0
-48 -176 -192 0
-49 -177 -189 0
-50 -178 -190 0
-51 -179 -191 0
-52 -180 -192 0
-53 -181 -189 0
-54 -182 -190 0
-55 -183 -191 0
-56 -184 -192 0
-57 -185 -189 0
-58 -186 -190 0
-59 -187 -191 0
-60 -188 -192 0
-61 -189 0
-62 -190 0
-63 -191 0
-64 -192 0
-65 -189 -193 0
-66 -190 -194 0
-67 -191 -195 0
-68 -192 -196 0
-69 -189 -197 0
-70 -190 -198 0
-71 -191 -199 0
-72 -192 -200 0
-73 -189 -201 0
-74 -190 -202 0
-75 -191 -203 0
-76 -192 -204 0
-77 -189 -205 0
-78 -190 -206 0
-79 -191 -207 0
-80 -192 -208 0
-81 -189 -209 0
-82 -190 -210 0
-83 -191 -211 0
-84 -192 -212 0
-85 -189 -213 0
-86 -190 -214 0
-87 -191 -215 0
-88 -192 -216 0
-89 -189 -217 0
-90 -190 -218 0
-91 -191 -219 0
-92 -192 -220 0
-93 -189 -221 0
-94 -190 -222 0
-95 -191 -223 0
-96 -192 -224 0
-97 -189 -225 0
-98 -190 -226 0
-99 -191 -227 0
-100 -192 -228 0
-101 -189 -229 0
-102 -190 -230 0
-103 -191 -231 0
-104 -192 -232 0
-105 -189 -233 0
-106 -190 -234 0
-107 -191 -235 0
-108 -192 -236 0
-109 -189 -237 0
-110 -190 -238 0
-111 -191 -239 0
-112 -192 -240 0
-113 -189 -241 0
-114 -190 -242 0
-115 -191 -243 0
-116 -192 -244 0
-117 -189 -245 0
-118 -190 -246 0
-119 -191 -247 0
-120 -192 -248 0
-121 -189 -249 0
-122 -190 -250 0
-123 -191 -251 0
-124 -192 -252 0
-125 -189 -253 0
-126 -190 -254 0
-127 -191 -255 0
-128 -192 -256 0
-129 -189 -257 0
-130 -190 -258 0
-131 -191 -259 0
-132 -192 -260 0
-133 -189 -261 0
-134 -190 -262 0
-135 -191 -263 0
-136 -192 -264 0
-137 -189 -265 0
-138 -190 -266 0
-139 -191 -267 0
-140 -192 -268 0
-141 -189 -269 0
-142 -190 -270 0
-143 -191 -271 0
-144 -192 -272 0
-145 -189 -273 0
-146 -190 -274 0
-147 -191 -275 0
-148 -192 -276 0
-149 -189 -277 0
-150 -190 -278 0
-151 -191 -279 0
-152 -192 -280 0
-153 -189 -281 0
-154 -190 -282 0
-155 -191 -283 0
-156 -192 -284 0
-157 -189 -285 0
-158 -190 -286 0
-159 -191 -287 0
-160 -192 -288 0
-161 -189 -289 0
-162 -190 -290 0
-163 -191 -291 0
-164 -192 -292 0
-165 -189 -293 0
-166 -190 -294 0
-167 -191 -295 0
-168 -192 -296 0
-169 -189 -297 0
-170 -190 -298 0
-171 -191 -299 0
-172 -192 -300 0
-173 -189 -301 0
-174 -190 -302 0
-175 -191 -303 0
-176 -192 -304 0
-177 -189 -305 0
-178 -190 -306 0
-179 -191 -307 0
-180 -192 -308 0
-181 -189 -309 0
-182 -190 -310 0
-183 -191 -311 0
-184 -192 -312 0
-185 -189 -313 0
-186 -190 -314 0
-187 -191 -315 0
-188 -192 -316 0
-189 -317 0
-190 -318 0
-191 -319 0
-192 -320 0
-189 -193 -321 0
-190 -194 -322 0
-191 -195 -323 0
-192 -196 -324 0
-189 -197 -325 0
-190 -198 -326 0
-191 -199 -327 0
-192 -200 -328 0
-189 -201 -329 0
-190 -202 -330 0
-191 -203 -331 0
-192 -204 -332 0
-189 -205 -333 0
-190 -206 -334 0
-191 -207 -335 0
-192 -208 -336 0
-189 -209 -337 0
-190 -210 -338 0
-191 -211 -339 0
-192 -212 -340 0
-189 -213 -341 0
-190 -214 -342 0
-191 -215 -343 0
-192 -216 -344 0
-189 -217 -345 0
-190 -218 -346 0
-191 -219 -347 0
-192 -220 -348 0
-189 -221 -349 0
-190 -222 -350 0
-191 -223 -351 0
-192 -224 -352 0
-189 -225 -353 0
-190 -226 -354 0
-191 -227 -355 0
-192 -228 -356 0
-189 -229 -357 0
-190 -230 -358 0
-191 -231 -359 0
-192 -232 -360 0
-189 -233 -361 0
-190 -234 -362 0
-191 -235 -363 0
-192 -236 -364 0
-189 -237 -365 0
-190 -238 -366 0
-191 -239 -367 0
-192 -240 -368 0
-189 -241 -369 0
-190 -242 -370 0
-191 -243 -371 0
-192 -244 -372 0
-189 -245 -373 0
-190 -246 -374 0
-191 -247 -375 0
-192 -248 -376 0
-189 -249 -377 0
-190 -250 -378 0
-191 -251 -379 0
-192 -252 -380 0
-189 -253 -381 0
-190 -254 -382 0
-191 -255 -383 0
-192 -256 -384 0
-189 -257 -385 0
-190 -258 -386 0
-191 -259 -387 0
-192 -260 -388 0
-189 -261 -389 0
-190 -262 -390 0
-191 -263 -391 0
-192 -264 -392 0
-189 -265 -393 0
-190 -266 -394 0
-191 -267 -395 0
-192 -268 -396 0
-189 -269 -397 0
-190 -270 -398 0
-191 -271 -399 0
-192 -272 -400 0
-189 -273 -401 0
-190 -274 -402 0
-191 -275 -403 0
-192 -276 -404 0
-189 -277 -405 0
-190 -278 -406 0
-191 -279 -407 0
-192 -280 -408 0
-189 -281 -409 0
-190 -282 -410 0
-191 -283 -411 0
-192 -284 -412 0
-1 -137 -201 0
-2 -138 -202 0
-3 -139 -203 0
-4 -140 -204 0
-5 -141 -201 0
-6 -142 -202 0
-7 -143 -203 0
-8 -144 -204 0
-9 -145 -201 0
-10 -146 -202 0
-11 -147 -203 0
-12 -148 -204 0
-13 -149 -201 0
-14 -150 -202 0
-15 -151 -203 0
-16 -152 -204 0
-17 -153 -201 0
-18 -154 -202 0
-19 -155 -203 0
-20 -156 -204 0
-21 -157 -201 0
-22 -158 -202 0
-23 -159 -203 0
-24 -160 -204 0
-25 -161 -201 0
-26 -162 -202 0
-27 -163 -203 0
-28 -164 -204 0
-29 -165 -201 0
-30 -166 -202 0
-31 -167 -203 0
-32 -168 -204 0
-33 -169 -201 0
-34 -170 -202 0
-35 -171 -203 0
-36 -172 -204 0
-37 -173 -201 0
-38 -174 -202 0
-39 -175 -203 0
-40 -176 -204 0
-41 -177 -201 0
-42 -178 -202 0
-43 -179 -203 0
-44 -180 -204 0
-45 -181 -201 0
-46 -182 -202 0
-47 -183 -203 0
-48 -184 -204 0
-49 -185 -201 0
-50 -186 -202 0
-51 -187 -203 0
-52 -188 -204 0
-53 -189 -201 0
-54 -190 -202 0
-55 -191 -203 0
-56 -192 -204 0
-57 -193 -201 0
-58 -194 -202 0
-59 -195 -203 0
-60 -196 -204 0
-61 -197 -201 0
-62 -198 -202 0
-63 -199 -203 0
-64 -200 -204 0
-65 -201 0
-66 -202 0
-67 -203 0
-68 -204 0
-69 -201 -205 0
-70 -202 -206 0
-71 -203 -207 0
-72 -204 -208 0
-73 -201 -209 0
-74 -202 -210 0
-75 -203 -211 0
-76 -204 -212 0
-77 -201 -213 0
-78 -202 -214 0
-79 -203 -215 0
-80 -204 -216 0
-81 -201 -217 0
-82 -202 -218 0
-83 -203 -219 0
-84 -204 -220 0
-85 -201 -221 0
-86 -202 -222 0
-87 -203 -223 0
-88 -204 -224 0
-89 -201 -225 0
-90 -202 -226 0
-91 -203 -227 0
-92 -204 -228 0
-93 -201 -229 0
-94 -202 -230 0
-95 -203 -231 0
-96 -204 -232 0
-97 -201 -233 0
-98 -202 -234 0
-99 -203 -235 0
-100 -204 -236 0
-101 -201 -237 0
-102 -202 -238 0
-103 -203 -239 0
-104 -204 -240 0
-105 -201 -241 0
-106 -202 -242 0
-107 -203 -243 0
-108 -204 -244 0
-109 -201 -245 0
-110 -202 -246 0
-111 -203 -247 0
-112 -204 -248 0
-113 -201 -249 0
-114 -202 -250 0
-115 -203 -251 0
-116 -204 -252 0
-117 -201 -253 0
-118 -202 -254 0
-119 -203 -255 0
-120 -204 -256 0
-121 -201 -257 0
-122 -202 -258 0
-123 -203 -259 0
-124 -204 -260 0
-125 -201 -261 0
-126 -202 -262 0
-127 -203 -263 0
-128 -204 -264 0
-129 -201 -265 0
-130 -202 -266 0
-131 -203 -267 0
-132 -204 -268 0
-133 -201 -269 0
-134 -202 -270 0
-135 -203 -271 0
-136 -204 -272 0
-137 -201 -273 0
-138 -202 -274 0
-139 -203 -275 0
-140 -204 -276 0
-141 -201 -277 0
-142 -202 -278 0
-143 -203 -279 0
-144 -204 -280 0
-145 -201 -281 0
-146 -202 -282 0
-147 -203 -283 0
-148 -204 -284 0
-149 -201 -285 0
-150 -202 -286 0
-151 -203 -287 0
-152 -204 -288 0
-153 -201 -289 0
-154 -202 -290 0
-155 -203 -291 0
-156 -204 -292 0
-157 -201 -293 0
-158 -202 -294 0
-159 -203 -295 0
-160 -204 -296 0
-161 -201 -297 0
-162 -202 -298 0
-163 -203 -299 0
-164 -204 -300 0
-165 -201 -301 0
-166 -202 -302 0
-167 -203 -303 0
-168 -204 -304 0
-169 -201 -305 0
-170 -202 -306 0
-171 -203 -307 0
-172 -204 -308 0
-173 -201 -309 0
-174 -202 -310 0
-175 -203 -311 0
-176 -204 -312 0
-177 -201 -313 0
-178 -202 -314 0
-179 -203 -315 0
-180 -204 -316 0
-181 -201 -317 0
-182 -202 -318 0
-183 -203 -319 0
-184 -204 -320 0
-185 -201 -321 0
-186 -202 -322 0
-187 -203 -323 0
-188 -204 -324 0
-189 -201 -325 0
-190 -202 -326 0
-191 -203 -327 0
-192 -204 -328 0
-193 -201 -329 0
-194 -202 -330 0
-195 -203 -331 0
-196 -204 -332 0
-197 -201 -333 0
-198 -202 -334 0
-199 -203 -335 0
-200 -204 -336 0
-201 -337 0
-202 -338 0
-203 -339 0
-204 -340 0
-201 -205 -341 0
-202 -206 -342 0
-203 -207 -343 0
-204 -208 -344 0
-201 -209 -345 0
-202 -210 -346 0
-203 -211 -347 0
-204 -212 -348 0
-201 -213 -349 0
-202 -214 -350 0
-203 -215 -351 0
-204 -216 -352 0
-201 -217 -353 0
-202 -218 -354 0
-203 -219 -355 0
-204 -220 -356 0
-201 -221 -357 0
-202 -222 -358 0
-203 -223 -359 0
-204 -224 -360 0
-201 -225 -361 0
-202 -226 -362 0
-203 -227 -363 0
-204 -228 -364 0
-201 -229 -365 0
-202 -230 -366 0
-203 -231 -367 0
-204 -232 -368 0
-201 -233 -369 0
-202 -234 -370 0
-203 -235 -371 0
-204 -236 -372 0
-201 -237 -373 0
-202 -238 -374 0
-203 -239 -375 0
-204 -240 -376 0
-201 -241 -377 0
-202 -242 -378 0
-203 -243 -379 0
-204 -244 -380 0
-201 -245 -381 0
-202 -246 -382 0
-203 -247 -383 0
-204 -248 -384 0
-201 -249 -385 0
-202 -250 -386 0
-203 -251 -387 0
-204 -252 -388 0
-201 -253 -389 0
-202 -254 -390 0
-203 -255 -391 0
-204 -256 -392 0
-201 -257 -393 0
-202 -258 -394 0
-203 -259 -395 0
-204 -260 -396 0
-201 -261 -397 0
-202 -262 -398 0
-203 -263 -399 0
-204 -264 -400 0
-201 -265 -401 0
-202 -266 -402 0
-203 -267 -403 0
-204 -268 -404 0
-201 -269 -405 0
-202 -270 -406 0
-203 -271 -407 0
-204 -272 -408 0
-201 -273 -409 0
-202 -274 -410 0
-203 -275 -411 0
-204 -276 -412 0
-1 -145 -213 0
-2 -146 -214 0
-3 -147 -215 0
-4 -148 -216 0
-5 -149 -213 0
-6 -150 -214 0
-7 -151 -215 0
-8 -152 -216 0
-9 -153 -213 0
-10 -154 -214 0
-11 -155 -215 0
-12 -156 -216 0
-13 -157 -213 0
-14 -158 -214 0
-15 -159 -215 0
-16 -160 -216 0
-17 -161 -213 0
-18 -162 -214 0
-19 -163 -215 0
-20 -164 -216 0
-21 -165 -213 0
-22 -166 -214 0
-23 -167 -215 0
-24 -168 -216 0
-25 -169 -213 0
-26 -170 -214 0
-27 -171 -215 0
-28 -172 -216 0
-29 -173 -213 0
-30 -174 -214 0
-31 -175 -215 0
-32 -176 -216 0
-33 -177 -213 0
-34 -178 -214 0
-35 -179 -215 0
-36 -180 -216 0
-37 -181 -213 0
-38 -182 -214 0
-39 -183 -215 0
-40 -184 -216 0
-41 -185 -213 0
-42 -186 -214 0
-43 -187 -215 0
-44 -188 -216 0
-45 -189 -213 0
-46 -190 -214 0
-47 -191 -215 0
-48 -192 -216 0
-49 -193 -213 0
-50 -194 -214 0
-51 -195 -215 0
-52 -196 -216 0
-53 -197 -213 0
-54 -198 -214 0
-55 -199 -215 0
-56 -200 -216 0
-57 -201 -213 0
-58 -202 -214 0
-59 -203 -215 0
-60 -204 -216 0
-61 -205 -213 0
-62 -206 -214 0
-63 -207 -215 0
-64 -208 -216 0
-65 -209 -213 0
-66 -210 -214 0
-67 -211 -215 0
-68 -212 -216 0
-69 -213 0
-70 -214 0
-71 -215 0
-72 -216 0
-73 -213 -217 0
-74 -214 -218 0
-75 -215 -219 0
-76 -216 -220 0
-77 -213 -221 0
-78 -214 -222 0
-79 -215 -223 0
-80 -216 -224 0
-81 -213 -225 0
-82 -214 -226 0
-83 -215 -227 0
-84 -216 -228 0
-85 -213 -229 0
-86 -214 -230 0
-87 -215 -231 0
-88 -216 -232 0
-89 -213 -233 0
-90 -214 -234 0
-91 -215 -235 0
-92 -216 -236 0
-93 -213 -237 0
-94 -214 -238 0
-95 -215 -239 0
-96 -216 -240 0
-97 -213 -241 0
-98 -214 -242 0
-99 -215 -243 0
-100 -216 -244 0
-101 -213 -245 0
-102 -214 -246 0
-103 -215 -247 0
-104 -216 -248 0
-105 -213 -249 0
-106 -214 -250 0
-107 -215 -251 0
-108 -216 -252 0
-109 -213 -253 0
-110 -214 -254 0
-111 -215 -255 0
-112 -216 -256 0
-113 -213 -257 0
-114 -214 -258 0
-115 -215 -259 0
-116 -216 -260 0
-117 -213 -261 0
-118 -214 -262 0
-119 -215 -263 0
-120 -216 -264 0
-121 -213 -265 0
-122 -214 -266 0
-123 -215 -267 0
-124 -216 -268 0
-125 -213 -269 0
-126 -214 -270 0
-127 -215 -271 0
-128 -216 -272 0
-129 -213 -273 0
-130 -214 -274 0
-131 -215 -275 0
-132 -216 -276 0
-133 -213 -277 0
-134 -214 -278 0
-135 -215 -279 0
-136 -216 -280 0
-137 -213 -281 0
-138 -214 -282 0
-139 -215 -283 0
-140 -216 -284 0
-141 -213 -285 0
-142 -214 -286 0
-143 -215 -287 0
-144 -216 -288 0
-145 -213 -289 0
-146 -214 -290 0
-147 -215 -291 0
-148 -216 -292 0
-149 -213 -293 0
-150 -214 -294 0
-151 -215 -295 0
-152 -216 -296 0
-153 -213 -297 0
-154 -214 -298 0
-155 -215 -299 0
-156 -216 -300 0
-157 -213 -301 0
-158 -214 -302 0
-159 -215 -303 0
-160 -216 -304 0
-161 -213 -305 0
-162 -214 -306 0
-163 -215 -307 0
-164 -216 -308 0
-165 -213 -309 0
-166 -214 -310 0
-167 -215 -311 0
-168 -216 -312 0
-169 -213 -313 0
-170 -214 -314 0
-171 -215 -315 0
-172 -216 -316 0
-173 -213 -317 0
-174 -214 -318 0
-175 -215 -319 0
-176 -216 -320 0
-177 -213 -321 0
-178 -214 -322 0
-179 -215 -323 0
-180 -216 -324 0
-181 -213 -325 0
-182 -214 -326 0
-183 -215 -327 0
-184 -216 -328 0
-185 -213 -329 0
-186 -214 -330 0
-187 -215 -331 0
-188 -216 -332 0
-189 -213 -333 0
-190 -214 -334 0
-191 -215 -335 0
-192 -216 -336 0
-193 -213 -337 0
-194 -214 -338 0
-195 -215 -339 0
-196 -216 -340 0
-197 -213 -341 0
-198 -214 -342 0
-199 -215 -343 0
-200 -216 -344 0
-201 -213 -345 0
-202 -214 -346 0
-203 -215 -347 0
-204 -216 -348 0
-205 -213 -349 0
-206 -214 -350 0
-207 -215 -351 0
-208 -216 -352 0
-209 -213 -353 0
-210 -214 -354 0
-211 -215 -355 0
-212 -216 -356 0
-213 -357 0
-214 -358 0
-215 -359 0
-216 -360 0
-213 -217 -361 0
-214 -218 -362 0
-215 -219 -363 0
-216 -220 -364 0
-213 -221 -365 0
-214 -222 -366 0
-215 -223 -367 0
-216 -224 -368 0
-213 -225 -369 0
-214 -226 -370 0
-215 -227 -371 0
-216 -228 -372 0
-213 -229 -373 0
-214 -230 -374 0
-215 -231 -375 0
-216 -232 -376 0
-213 -233 -377 0
-214 -234 -378 0
-215 -235 -379 0
-216 -236 -380 0
-213 -237 -381 0
-214 -238 -382 0
-215 -239 -383 0
-216 -240 -384 0
-213 -241 -385 0
-214 -242 -386 0
-215 -243 -387 0
-216 -244 -388 0
-213 -245 -389 0
-214 -246 -390 0
-215 -247 -391 0
-216 -248 -392 0
-213 -249 -393 0
-214 -250 -394 0
-215 -251 -395 0
-216 -252 -396 0
-213 -253 -397 0
-214 -254 -398 0
-215 -255 -399 0
-216 -256 -400 0
-213 -257 -401 0
-214 -258 -402 0
-215 -259 -403 0
-216 -260 -404 0
-213 -261 -405 0
-214 -262 -406 0
-215 -263 -407 0
-216 -264 -408 0
-213 -265 -409 0
-214 -266 -410 0
-215 -267 -411 0
-216 -268 -412 0
-1 -153 -225 0
-2 -154 -226 0
-3 -155 -227 0
-4 -156 -228 0
-5 -157 -225 0
-6 -158 -226 0
-7 -159 -227 0
-8 -160 -228 0
-9 -161 -225 0
-10 -162 -226 0
-11 -163 -227 0
-12 -164 -228 0
-13 -165 -225 0
-14 -166 -226 0
-15 -167 -227 0
-16 -168 -228 0
-17 -169 -225 0
-18 -170 -226 0
-19 -171 -227 0
-20 -172 -228 0
-21 -173 -225 0
-22 -174 -226 0
-23 -175 -227 0
-24 -176 -228 0
-25 -177 -225 0
-26 -178 -226 0
-27 -179 -227 0
-28 -180 -228 0
-29 -181 -225 0
-30 -182 -226 0
-31 -183 -227 0
-32 -184 -228 0
-33 -185 -225 0
-34 -186 -226 0
-35 -187 -227 0
-36 -188 -228 0
-37 -189 -225 0
-38 -190 -226 0
-39 -191 -227 0
-40 -192 -228 0
-41 -193 -225 0
-42 -194 -226 0
-43 -195 -227 0
-44 -196 -228 0
-45 -197 -225 0
-46 -198 -226 0
-47 -199 -227 0
-48 -200 -228 0
-49 -201 -225 0
-50 -202 -226 0
-51 -203 -227 0
-52 -204 -228 0
-53 -205 -225 0
-54 -206 -226 0
-55 -207 -227 0
-56 -208 -228 0
-57 -209 -225 0
-58 -210 -226 0
-59 -211 -227 0
-60 -212 -228 0
-61 -213 -225 0
-62 -214 -226 0
-63 -215 -227 0
-64 -216 -228 0
-65 -217 -225 0
-66 -218 -226 0
-67 -219 -227 0
-68 -220 -228 0
-69 -221 -225 0
-70 -222 -226 0
-71 -223 -227 0
-72 -224 -228 0
-73 -225 0
-74 -226 0
-75 -227 0
-76 -228 0
-77 -225 -229 0
-78 -226 -230 0
-79 -227 -231 0
-80 -228 -232 0
-81 -225 -233 0
-82 -226 -234 0
-83 -227 -235 0
-84 -228 -236 0
-85 -225 -237 0
-86 -226 -238 0
-87 -227 -239 0
-88 -228 -240 0
-89 -225 -241 0
-90 -226 -242 0
-91 -227 -243 0
-92 -228 -244 0
-93 -225 -245 0
-94 -226 -246 0
-95 -227 -247 0
-96 -228 -248 0
-97 -225 -249 0
-98 -226 -250 0
-99 -227 -251 0
-100 -228 -252 0
-101 -225 -253 0
-102 -226 -254 0
-103 -227 -255 0
-104 -228 -256 0
-105 -225 -257 0
-106 -226 -258 0
-107 -227 -259 0
-108 -228 -260 0
-109 -225 -261 0
-110 -226 -262 0
-111 -227 -263 0
-112 -228 -264 0
-113 -225 -265 0
-114 -226 -266 0
-115 -227 -267 0
-116 -228 -268 0
-117 -225 -269 0
-118 -226 -270 0
-119 -227 -271 0
-120 -228 -272 0
-121 -225 -273 0
-122 -226 -274 0
-123 -227 -275 0
-124 -228 -276 0
-125 -225 -277 0
-126 -226 -278 0
-127 -227 -279 0
-128 -228 -280 0
-129 -225 -281 0
-130 -226 -282 0
-131 -227 -283 0
-132 -228 -284 0
-133 -225 -285 0
-134 -226 -286 0
-135 -227 -287 0
-136 -228 -288 0
-137 -225 -289 0
-138 -226 -290 0
-139 -227 -291 0
-140 -228 -292 0
-141 -225 -293 0
-142 -226 -294 0
-143 -227 -295 0
-144 -228 -296 0
-145 -225 -297 0
-146 -226 -298 0
-147 -227 -299 0
-148 -228 -300 0
-149 -225 -301 0
-150 -226 -302 0
-151 -227 -303 0
-152 -228 -304 0
-153 -225 -305 0
-154 -226 -306 0
-155 -227 -307 0
-156 -228 -308 0
-157 -225 -309 0
-158 -226 -310 0
-159 -227 -311 0
-160 -228 -312 0
-161 -225 -313 0
-162 -226 -314 0
-163 -227 -315 0
-164 -228 -316 0
-165 -225 -317 0
-166 -226 -318 0
-167 -227 -319 0
-168 -228 -320 0
-169 -225 -321 0
-170 -226 -322 0
-171 -227 -323 0
-172 -228 -324 0
-173 -225 -325 0
-174 -226 -326 0
-175 -227 -327 0
-176 -228 -328 0
-177 -225 -329 0
-178 -226 -330 0
-179 -227 -331 0
-180 -228 -332 0
-181 -225 -333 0
-182 -226 -334 0
-183 -227 -335 0
-184 -228 -336 0
-185 -225 -337 0
-186 -226 -338 0
-187 -227 -339 0
-188 -228 -340 0
-189 -225 -341 0
-190 -226 -342 0
-191 -227 -343 0
-192 -228 -344 0
-193 -225 -345 0
-194 -226 -346 0
-195 -227 -347 0
-196 -228 -348 0
-197 -225 -349 0
-198 -226 -350 0
-199 -227 -351 0
-200 -228 -352 0
-201 -225 -353 0
-202 -226 -354 0
-203 -227 -355 0
-204 -228 -356 0
-205 -225 -357 0
-206 -226 -358 0
-207 -227 -359 0
-208 -228 -360 0
-209 -225 -361 0
-210 -226 -362 0
-211 -227 -363 0
-212 -228 -364 0
-213 -225 -365 0
-214 -226 -366 0
-215 -227 -367 0
-216 -228 -368 0
-217 -225 -369 0
-218 -226 -370 0
-219 -227 -371 0
-220 -228 -372 0
-221 -225 -373 0
-222 -226 -374 0
-223 -227 -375 0
-224 -228 -376 0
-225 -377 0
-226 -378 0
-227 -379 0
-228 -380 0
-225 -229 -381 0
-226 -230 -382 0
-227 -231 -383 0
-228 -232 -384 0
-225 -233 -385 0
-226 -234 -386 0
-227 -235 -387 0
-228 -236 -388 0
-225 -237 -389 0
-226 -238 -390 0
-227 -239 -391 0
-228 -240 -392 0
-225 -241 -393 0
-226 -242 -394 0
-227 -243 -395 0
-228 -244 -396 0
-225 -245 -397 0
-226 -246 -398 0
-227 -247 -399 0
-228 -248 -400 0
-225 -249 -401 0
-226 -250 -402 0
-227 -251 -403 0
-228 -252 -404 0
-225 -253 -405 0
-226 -254 -406 0
-227 -255 -407 0
-228 -256 -408 0
-225 -257 -409 0
-226 -258 -410 0
-227 -259 -411 0
-228 -260 -412 0
-1 -161 -237 0
-2 -162 -238 0
-3 -163 -239 0
-4 -164 -240 0
-5 -165 -237 0
-6 -166 -238 0
-7 -167 -239 0
-8 -168 -240 0
-9 -169 -237 0
-10 -170 -238 0
-11 -171 -239 0
-12 -172 -240 0
-13 -173 -237 0
-14 -174 -238 0
-15 -175 -239 0
-16 -176 -240 0
-17 -177 -237 0
-18 -178 -238 0
-19 -179 -239 0
-20 -180 -240 0
-21 -181 -237 0
-22 -182 -238 0
-23 -183 -239 0
-24 -184 -240 0
-25 -185 -237 0
-26 -186 -238 0
-27 -187 -239 0
-28 -188 -240 0
-29 -189 -237 0
-30 -190 -238 0
-31 -191 -239 0
-32 -192 -240 0
-33 -193 -237 0
-34 -194 -238 0
-35 -195 -239 0
-36 -196 -240 0
-37 -197 -237 0
-38 -198 -238 0
-39 -199 -239 0
-40 -200 -240 0
-41 -201 -237 0
-42 -202 -238 0
-43 -203 -239 0
-44 -204 -240 0
-45 -205 -237 0
-46 -206 -238 0
-47 -207 -239 0
-48 -208 -240 0
-49 -209 -237 0
-50 -210 -238 0
-51 -211 -239 0
-52 -212 -240 0
-53 -213 -237 0
-54 -214 -238 0
-55 -215 -239 0
-56 -216 -240 0
-57 -217 -237 0
-58 -218 -238 0
-59 -219 -239 0
-60 -220 -240 0
-61 -221 -237 0
-62 -222 -238 0
-63 -223 -239 0
-64 -224 -240 0
-65 -225 -237 0
-66 -226 -238 0
-67 -227 -239 0
-68 -228 -240 0
-69 -229 -237 0
-70 -230 -238 0
-71 -231 -239 0
-72 -232 -240 0
-73 -233 -237 0
-74 -234 -238 0
-75 -235 -239 0
-76 -236 -240 0
-77 -237 0
-78 -238 0
-79 -239 0
-80 -240 0
-81 -237 -241 0
-82 -238 -242 0
-83 -239 -243 0
-84 -240 -244 0
-85 -237 -245 0
-86 -238 -246 0
-87 -239 -247 0
-88 -240 -248 0
-89 -237 -249 0
-90 -238 -250 0
-91 -239 -251 0
-92 -240 -252 0
-93 -237 -253 0
-94 -238 -254 0
-95 -239 -255 0
-96 -240 -256 0
-97 -237 -257 0
-98 -238 -258 0
-99 -239 -259 0
-100 -240 -260 0
-101 -237 -261 0
-102 -238 -262 0
-103 -239 -263 0
-104 -240 -264 0
-105 -237 -265 0
-106 -238 -266 0
-107 -239 -267 0
-108 -240 -268 0
-109 -237 -269 0
-110 -238 -270 0
-111 -239 -271 0
-112 -240 -272 0
-113 -237 -273 0
-114 -238 -274 0
-115 -239 -275 0
-116 -240 -276 0
-117 -237 -277 0
-118 -238 -278 0
-119 -239 -279 0
-120 -240 -280 0
-121 -237 -281 0
-122 -238 -282 0
-123 -239 -283 0
-124 -240 -284 0
-125 -237 -285 0
-126 -238 -286 0
-127 -239 -287 0
-128 -240 -288 0
-129 -237 -289 0
-130 -238 -290 0
-131 -239 -291 0
-132 -240 -292 0
-133 -237 -293 0
-134 -238 -294 0
-135 -239 -295 0
-136 -240 -296 0
-137 -237 -297 0
-138 -238 -298 0
-139 -239 -299 0
-140 -240 -300 0
-141 -237 -301 0
-142 -238 -302 0
-143 -239 -303 0
-144 -240 -304 0
-145 -237 -305 0
-146 -238 -306 0
-147 -239 -307 0
-148 -240 -308 0
-149 -237 -309 0
-150 -238 -310 0
-151 -239 -311 0
-152 -240 -312 0
-153 -237 -313 0
-154 -238 -314 0
-155 -239 -315 0
-156 -240 -316 0
-157 -237 -317 0
-158 -238 -318 0
-159 -239 -319 0
-160 -240 -320 0
-161 -237 -321 0
-162 -238 -322 0
-163 -239 -323 0
-164 -240 -324 0
-165 -237 -325 0
-166 -238 -326 0
-167 -239 -327 0
-168 -240 -328 0
-169 -237 -329 0
-170 -238 -330 0
-171 -239 -331 0
-172 -240 -332 0
-173 -237 -333 0
-174 -238 -334 0
-175 -239 -335 0
-176 -240 -336 0
-177 -237 -337 0
-178 -238 -338 0
-179 -239 -339 0
-180 -240 -340 0
-181 -237 -341 0
-182 -238 -342 0
-183 -239 -343 0
-184 -240 -344 0
-185 -237 -345 0
-186 -238 -346 0
-187 -239 -347 0
-188 -240 -348 0
-189 -237 -349 0
-190 -238 -350 0
-191 -239 -351 0
-192 -240 -352 0
-193 -237 -353 0
-194 -238 -354 0
-195 -239 -355 0
-196 -240 -356 0
-197 -237 -357 0
-198 -238 -358 0
-199 -239 -359 0
-200 -240 -360 0
-201 -237 -361 0
-202 -238 -362 0
-203 -239 -363 0
-204 -240 -364 0
-205 -237 -365 0
-206 -238 -366 0
-207 -239 -367 0
-208 -240 -368 0
-209 -237 -369 0
-210 -238 -370 0
-211 -239 -371 0
-212 -240 -372 0
-213 -237 -373 0
-214 -238 -374 0
-215 -239 -375 0
-216 -240 -376 0
-217 -237 -377 0
-218 -238 -378 0
-219 -239 -379 0
-220 -240 -380 0
-221 -237 -381 0
-222 -238 -382 0
-223 -239 -383 0
-224 -240 -384 0
-225 -237 -385 0
-226 -238 -386 0
-227 -239 -387 0
-228 -240 -388 0
-229 -237 -389 0
-230 -238 -390 0
-231 -239 -391 0
-232 -240 -392 0
-233 -237 -393 0
-234 -238 -394 0
-235 -239 -395 0
-236 -240 -396 0
-237 -397 0
-238 -398 0
-239 -399 0
-240 -400 0
-237 -241 -401 0
-238 -242 -402 0
-239 -243 -403 0
-240 -244 -404 0
-237 -245 -405 0
-238 -246 -406 0
-239 -247 -407 0
-240 -248 -408 0
-237 -249 -409 0
-238 -250 -410 0
-239 -251 -411 0
-240 -252 -412 0
-1 -169 -249 0
-2 -170 -250 0
-3 -171 -251 0
-4 -172 -252 0
-5 -173 -249 0
-6 -174 -250 0
-7 -175 -251 0
-8 -176 -252 0
-9 -177 -249 0
-10 -178 -250 0
-11 -179 -251 0
-12 -180 -252 0
-13 -181 -249 0
-14 -182 -250 0
-15 -183 -251 0
-16 -184 -252 0
-17 -185 -249 0
-18 -186 -250 0
-19 -187 -251 0
-20 -188 -252 0
-21 -189 -249 0
-22 -190 -250 0
-23 -191 -251 0
-24 -192 -252 0
-25 -193 -249 0
-26 -194 -250 0
-27 -195 -251 0
-28 -196 -252 0
-29 -197 -249 0
-30 -198 -250 0
-31 -199 -251 0
-32 -200 -252 0
-33 -201 -249 0
-34 -202 -250 0
-35 -203 -251 0
-36 -204 -252 0
-37 -205 -249 0
-38 -206 -250 0
-39 -207 -251 0
-40 -208 -252 0
-41 -209 -249 0
-42 -210 -250 0
-43 -211 -251 0
-44 -212 -252 0
-45 -213 -249 0
-46 -214 -250 0
-47 -215 -251 0
-48 -216 -252 0
-49 -217 -249 0
-50 -218 -250 0
-51 -219 -251 0
-52 -220 -252 0
-53 -221 -249 0
-54 -222 -250 0
-55 -223 -251 0
-56 -224 -252 0
-57 -225 -249 0
-58 -226 -250 0
-59 -227 -251 0
-60 -228 -252 0
-61 -229 -249 0
-62 -230 -250 0
-63 -231 -251 0
-64 -232 -252 0
-65 -233 -249 0
-66 -234 -250 0
-67 -235 -251 0
-68 -236 -252 0
-69 -237 -249 0
-70 -238 -250 0
-71 -239 -251 0
-72 -240 -252 0
-73 -241 -249 0
-74 -242 -250 0
-75 -243 -251 0
-76 -244 -252 0
-77 -245 -249 0
-78 -246 -250 0
-79 -247 -251 0
-80 -248 -252 0
-81 -249 0
-82 -250 0
-83 -251 0
-84 -252 0
-85 -249 -253 0
-86 -250 -254 0
-87 -251 -255 0
-88 -252 -256 0
-89 -249 -257 0
-90 -250 -258 0
-91 -251 -259 0
-92 -252 -260 0
-93 -249 -261 0
-94 -250 -262 0
-95 -251 -263 0
-96 -252 -264 0
-97 -249 -265 0
-98 -250 -266 0
-99 -251 -267 0
-100 -252 -268 0
-101 -249 -269 0
-102 -250 -270 0
-103 -251 -271 0
-104 -252 -272 0
-105 -249 -273 0
-106 -250 -274 0
-107 -251 -275 0
-108 -252 -276 0
-109 -249 -277 0
-110 -250 -278 0
-111 -251 -279 0
-112 -252 -280 0
-113 -249 -281 0
-114 -250 -282 0
-115 -251 -283 0
-116 -252 -284 0
-117 -249 -285 0
-118 -250 -286 0
-119 -251 -287 0
-120 -252 -288 0
-121 -249 -289 0
-122 -250 -290 0
-123 -251 -291 0
-124 -252 -292 0
-125 -249 -293 0
-126 -250 -294 0
-127 -251 -295 0
-128 -252 -296 0
-129 -249 -297 0
-130 -250 -298 0
-131 -251 -299 0
-132 -252 -300 0
-133 -249 -301 0
-134 -250 -302 0
-135 -251 -303 0
-136 -252 -304 0
-137 -249 -305 0
-138 -250 -306 0
-139 -251 -307 0
-140 -252 -308 0
-141 -249 -309 0
-142 -250 -310 0
-143 -251 -311 0
-144 -252 -312 0
-145 -249 -313 0
-146 -250 -314 0
-147 -251 -315 0
-148 -252 -316 0
-149 -249 -317 0
-150 -250 -318 0
-151 -251 -319 0
-152 -252 -320 0
-153 -249 -321 0
-154 -250 -322 0
-155 -251 -323 0
-156 -252 -324 0
-157 -249 -325 0
-158 -250 -326 0
-159 -251 -327 0
-160 -252 -328 0
-161 -249 -329 0
-162 -250 -330 0
-163 -251 -331 0
-164 -252 -332 0
-165 -249 -333 0
-166 -250 -334 0
-167 -251 -335 0
-168 -252 -336 0
-169 -249 -337 0
-170 -250 -338 0
-171 -251 -339 0
-172 -252 -340 0
-173 -249 -341 0
-174 -250 -342 0
-175 -251 -343 0
-176 -252 -344 0
-177 -249 -345 0
-178 -250 -346 0
-179 -251 -347 0
-180 -252 -348 0
-181 -249 -349 0
-182 -250 -350 0
-183 -251 -351 0
-184 -252 -352 0
-185 -249 -353 0
-186 -250 -354 0
-187 -251 -355 0
-188 -252 -356 0
-189 -249 -357 0
-190 -250 -358 0
-191 -251 -359 0
-192 -252 -360 0
-193 -249 -361 0
-194 -250 -362 0
-195 -251 -363 0
-196 -252 -364 0
-197 -249 -365 0
-198 -250 -366 0
-199 -251 -367 0
-200 -252 -368 0
-201 -249 -369 0
-202 -250 -370 0
-203 -251 -371 0
-204 -252 -372 0
-205 -249 -373 0
-206 -250 -374 0
-207 -251 -375 0
-208 -252 -376 0
-209 -249 -377 0
-210 -250 -378 0
-211 -251 -379 0
-212 -252 -380 0
-213 -249 -381 0
-214 -250 -382 0
-215 -251 -383 0
-216 -252 -384 0
-217 -249 -385 0
-218 -250 -386 0
-219 -251 -387 0
-220 -252 -388 0
-221 -249 -389 0
-222 -250 -390 0
-223 -251 -391 0
-224 -252 -392 0
-225 -249 -393 0
-226 -250 -394 0
-227 -251 -395 0
-228 -252 -396 0
-229 -249 -397 0
-230 -250 -398 0
-231 -251 -399 0
-232 -252 -400 0
-233 -249 -401 0
-234 -250 -402 0
-235 -251 -403 0
-236 -252 -404 0
-237 -249 -405 0
-238 -250 -406 0
-239 -251 -407 0
-240 -252 -408 0
-241 -249 -409 0
-242 -250 -410 0
-243 -251 -411 0
-244 -252 -412 0
-1 -177 -261 0
-2 -178 -262 0
-3 -179 -263 0
-4 -180 -264 0
-5 -181 -261 0
-6 -182 -262 0
-7 -183 -263 0
-8 -184 -264 0
-9 -185 -261 0
-10 -186 -262 0
-11 -187 -263 0
-12 -188 -264 0
-13 -189 -261 0
-14 -190 -262 0
-15 -191 -263 0
-16 -192 -264 0
-17 -193 -261 0
-18 -194 -262 0
-19 -195 -263 0
-20 -196 -264 0
-21 -197 -261 0
-22 -198 -262 0
-23 -199 -263 0
-24 -200 -264 0
-25 -201 -261 0
-26 -202 -262 0
-27 -203 -263 0
-28 -204 -264 0
-29 -205 -261 0
-30 -206 -262 0
-31 -207 -263 0
-32 -208 -264 0
-33 -209 -261 0
-34 -210 -262 0
-35 -211 -263 0
-36 -212 -264 0
-37 -213 -261 0
-38 -214 -262 0
-39 -215 -263 0
-40 -216 -264 0
-41 -217 -261 0
-42 -218 -262 0
-43 -219 -263 0
-44 -220 -264 0
-45 -221 -261 0
-46 -222 -262 0
-47 -223 -263 0
-48 -224 -264 0
-49 -225 -261 0
-50 -226 -262 0
-51 -227 -263 0
-52 -228 -264 0
-53 -229 -261 0
-54 -230 -262 0
-55 -231 -263 0
-56 -232 -264 0
-57 -233 -261 0
-58 -234 -262 0
-59 -235 -263 0
-60 -236 -264 0
-61 -237 -261 0
-62 -238 -262 0
-63 -239 -263 0
-64 -240 -264 0
-65 -241 -261 0
-66 -242 -262 0
-67 -243 -263 0
-68 -244 -264 0
-69 -245 -261 0
-70 -246 -262 0
-71 -247 -263 0
-72 -248 -264 0
-73 -249 -261 0
-74 -250 -262 0
-75 -251 -263 0
-76 -252 -264 0
-77 -253 -261 0
-78 -254 -262 0
-79 -255 -263 0
-80 -256 -264 0
-81 -257 -261 0
-82 -258 -262 0
-83 -259 -263 0
-84 -260 -264 0
-85 -261 0
-86 -262 0
-87 -263 0
-88 -264 0
-89 -261 -265 0
-90 -262 -266 0
-91 -263 -267 0
-92 -264 -268 0
-93 -261 -269 0
-94 -262 -270 0
-95 -263 -271 0
-96 -264 -272 0
-97 -261 -273 0
-98 -262 -274 0
-99 -263 -275 0
-100 -264 -276 0
-101 -261 -277 0
-102 -262 -278 0
-103 -263 -279 0
-104 -264 -280 0
-105 -261 -281 0
-106 -262 -282 0
-107 -263 -283 0
-108 -264 -284 0
-109 -261 -285 0
-110 -262 -286 0
-111 -263 -287 0
-112 -264 -288 0
-113 -261 -289 0
-114 -262 -290 0
-115 -263 -291 0
-116 -264 -292 0
-117 -261 -293 0
-118 -262 -294 0
-119 -263 -295 0
-120 -264 -296 0
-121 -261 -297 0
-122 -262 -298 0
-123 -263 -299 0
-124 -264 -300 0
-125 -261 -301 0
-126 -262 -302 0
-127 -263 -303 0
-128 -264 -304 0
-129 -261 -305 0
-130 -262 -306 0
-131 -263 -307 0
-132 -264 -308 0
-133 -261 -309 0
-134 -262 -310 0
-135 -263 -311 0
-136 -264 -312 0
-137 -261 -313 0
-138 -262 -314 0
-139 -263 -315 0
-140 -264 -316 0
-141 -261 -317 0
-142 -262 -318 0
-143 -263 -319 0
-144 -264 -320 0
-145 -261 -321 0
-146 -262 -322 0
-147 -263 -323 0
-148 -264 -324 0
-149 -261 -325 0
-150 -262 -326 0
-151 -263 -327 0
-152 -264 -328 0
-153 -261 -329 0
-154 -262 -330 0
-155 -263 -331 0
-156 -264 -332 0
-157 -261 -333 0
-158 -262 -334 0
-159 -263 -335 0
-160 -264 -336 0
-161 -261 -337 0
-162 -262 -338 0
-163 -263 -339 0
-164 -264 -340 0
-165 -261 -341 0
-166 -262 -342 0
-167 -263 -343 0
-168 -264 -344 0
-169 -261 -345 0
-170 -262 -346 0
-171 -263 -347 0
-172 -264 -348 0
-173 -261 -349 0
-174 -262 -350 0
-175 -263 -351 0
-176 -264 -352 0
-177 -261 -353 0
-178 -262 -354 0
-179 -263 -355 0
-180 -264 -356 0
-181 -261 -357 0
-182 -262 -358 0
-183 -263 -359 0
-184 -264 -360 0
-185 -261 -361 0
-186 -262 -362 0
-187 -263 -363 0
-188 -264 -364 0
-189 -261 -365 0
-190 -262 -366 0
-191 -263 -367 0
-192 -264 -368 0
-193 -261 -369 0
-194 -262 -370 0
-195 -263 -371 0
-196 -264 -372 0
-197 -261 -373 0
-198 -262 -374 0
-199 -263 -375 0
-200 -264 -376 0
-201 -261 -377 0
-202 -262 -378 0
-203 -263 -379 0
-204 -264 -380 0
-205 -261 -381 0
-206 -262 -382 0
-207 -263 -383 0
-208 -264 -384 0
-209 -261 -385 0
-210 -262 -386 0
-211 -263 -387 0
-212 -264 -388 0
-213 -261 -389 0
-214 -262 -390 0
-215 -263 -391 0
-216 -264 -392 0
-217 -261 -393 0
-218 -262 -394 0
-219 -263 -395 0
-220 -264 -396 0
-221 -261 -397 0
-222 -262 -398 0
-223 -263 -399 0
-224 -264 -400 0
-225 -261 -401 0
-226 -262 -402 0
-227 -263 -403 0
-228 -264 -404 0
-229 -261 -405 0
-230 -262 -406 0
-231 -263 -407 0
-232 -264 -408 0
-233 -261 -409 0
-234 -262 -410 0
-235 -263 -411 0
-236 -264 -412 0
-1 -185 -273 0
-2 -186 -274 0
-3 -187 -275 0
-4 -188 -276 0
-5 -189 -273 0
-6 -190 -274 0
-7 -191 -275 0
-8 -192 -276 0
-9 -193 -273 0
-10 -194 -274 0
-11 -195 -275 0
-12 -196 -276 0
-13 -197 -273 0
-14 -198 -274 0
-15 -199 -275 0
-16 -200 -276 0
-17 -201 -273 0
-18 -202 -274 0
-19 -203 -275 0
-20 -204 -276 0
-21 -205 -273 0
-22 -206 -274 0
-23 -207 -275 0
-24 -208 -276 0
-25 -209 -273 0
-26 -210 -274 0
-27 -211 -275 0
-28 -212 -276 0
-29 -213 -273 0
-30 -214 -274 0
-31 -215 -275 0
-32 -216 -276 0
-33 -217 -273 0
-34 -218 -274 0
-35 -219 -275 0
-36 -220 -276 0
-37 -221 -273 0
-38 -222 -274 0
-39 -223 -275 0
-40 -224 -276 0
-41 -225 -273 0
-42 -226 -274 0
-43 -227 -275 0
-44 -228 -276 0
-45 -229 -273 0
-46 -230 -274 0
-47 -231 -275 0
-48 -232 -276 0
-49 -233 -273 0
-50 -234 -274 0
-51 -235 -275 0
-52 -236 -276 0
-53 -237 -273 0
-54 -238 -274 0
-55 -239 -275 0
-56 -240 -276 0
-57 -241 -273 0
-58 -242 -274 0
-59 -243 -275 0
-60 -244 -276 0
-61 -245 -273 0
-62 -246 -274 0
-63 -247 -275 0
-64 -248 -276 0
-65 -249 -273 0
-66 -250 -274 0
-67 -251 -275 0
-68 -252 -276 0
-69 -253 -273 0
-70 -254 -274 0
-71 -255 -275 0
-72 -256 -276 0
-73 -257 -273 0
-74 -258 -274 0
-75 -259 -275 0
-76 -260 -276 0
-77 -261 -273 0
-78 -262 -274 0
-79 -263 -275 0
-80 -264 -276 0
-81 -265 -273 0
-82 -266 -274 0
-83 -267 -275 0
-84 -268 -276 0
-85 -269 -273 0
-86 -270 -274 0
-87 -271 -275 0
-88 -272 -276 0
-89 -273 0
-90 -274 0
-91 -275 0
-92 -276 0
-93 -273 -277 0
-94 -274 -278 0
-95 -275 -279 0
-96 -276 -280 0
-97 -273 -281 0
-98 -274 -282 0
-99 -275 -283 0
-100 -276 -284 0
-101 -273 -285 0
-102 -274 -286 0
-103 -275 -287 0
-104 -276 -288 0
-105 -273 -289 0
-106 -274 -290 0
-107 -275 -291 0
-108 -276 -292 0
-109 -273 -293 0
-110 -274 -294 0
-111 -275 -295 0
-112 -276 -296 0
-113 -273 -297 0
-114 -274 -298 0
-115 -275 -299 0
-116 -276 -300 0
-117 -273 -301 0
-118 -274 -302 0
-119 -275 -303 0
-120 -276 -304 0
-121 -273 -305 0
-122 -274 -306 0
-123 -275 -307 0
-124 -276 -308 0
-125 -273 -309 0
-126 -274 -310 0
-127 -275 -311 0
-128 -276 -312 0
-129 -273 -313 0
-130 -274 -314 0
-131 -275 -315 0
-132 -276 -316 0
-133 -273 -317 0
-134 -274 -318 0
-135 -275 -319 0
-136 -276 -320 0
-137 -273 -321 0
-138 -274 -322 0
-139 -275 -323 0
-140 -276 -324 0
-141 -273 -325 0
-142 -274 -326 0
-143 -275 -327 0
-144 -276 -328 0
-145 -273 -329 0
-146 -274 -330 0
-147 -275 -331 0
-148 -276 -332 0
-149 -273 -333 0
-150 -274 -334 0
-151 -275 -335 0
-152 -276 -336 0
-153 -273 -337 0
-154 -274 -338 0
-155 -275 -339 0
-156 -276 -340 0
-157 -273 -341 0
-158 -274 -342 0
-159 -275 -343 0
-160 -276 -344 0
-161 -273 -345 0
-162 -274 -346 0
-163 -275 -347 0
-164 -276 -348 0
-165 -273 -349 0
-166 -274 -350 0
-167 -275 -351 0
-168 -276 -352 0
-169 -273 -353 0
-170 -274 -354 0
-171 -275 -355 0
-172 -276 -356 0
-173 -273 -357 0
-174 -274 -358 0
-175 -275 -359 0
-176 -276 -360 0
-177 -273 -361 0
-178 -274 -362 0
-179 -275 -363 0
-180 -276 -364 0
-181 -273 -365 0
-182 -274 -366 0
-183 -275 -367 0
-184 -276 -368 0
-185 -273 -369 0
-186 -274 -370 0
-187 -275 -371 0
-188 -276 -372 0
-189 -273 -373 0
-190 -274 -374 0
-191 -275 -375 0
-192 -276 -376 0
-193 -273 -377 0
-194 -274 -378 0
-195 -275 -379 0
-196 -276 -380 0
-197 -273 -381 0
-198 -274 -382 0
-199 -275 -383 0
-200 -276 -384 0
-201 -273 -385 0
-202 -274 -386 0
-203 -275 -387 0
-204 -276 -388 0
-205 -273 -389 0
-206 -274 -390 0
-207 -275 -391 0
-208 -276 -392 0
-209 -273 -393 0
-210 -274 -394 0
-211 -275 -395 0
-212 -276 -396 0
-213 -273 -397 0
-214 -274 -398 0
-215 -275 -399 0
-216 -276 -400 0
-217 -273 -401 0
-218 -274 -402 0
-219 -275 -403 0
-220 -276 -404 0
-221 -273 -405 0
-222 -274 -406 0
-223 -275 -407 0
-224 -276 -408 0
-225 -273 -409 0
-226 -274 -410 0
-227 -275 -411 0
-228 -276 -412 0
-1 -193 -285 0
-2 -194 -286 0
-3 -195 -287 0
-4 -196 -288 0
-5 -197 -285 0
-6 -198 -286 0
-7 -199 -287 0
-8 -200 -288 0
-9 -201 -285 0
-10 -202 -286 0
-11 -203 -287 0
-12 -204 -288 0
-13 -205 -285 0
-14 -206 -286 0
-15 -207 -287 0
-16 -208 -288 0
-17 -209 -285 0
-18 -210 -286 0
-19 -211 -287 0
-20 -212 -288 0
-21 -213 -285 0
-22 -214 -286 0
-23 -215 -287 0
-24 -216 -288 0
-25 -217 -285 0
-26 -218 -286 0
-27 -219 -287 0
-28 -220 -288 0
-29 -221 -285 0
-30 -222 -286 0
-31 -223 -287 0
-32 -224 -288 0
-33 -225 -285 0
-34 -226 -286 0
-35 -227 -287 0
-36 -228 -288 0
-37 -229 -285 0
-38 -230 -286 0
-39 -231 -287 0
-40 -232 -288 0
-41 -233 -285 0
-42 -234 -286 0
-43 -235 -287 0
-44 -236 -288 0
-45 -237 -285 0
-46 -238 -286 0
-47 -239 -287 0
-48 -240 -288 0
-49 -241 -285 0
-50 -242 -286 0
-51 -243 -287 0
-52 -244 -288 0
-53 -245 -285 0
-54 -246 -286 0
-55 -247 -287 0
-56 -248 -288 0
-57 -249 -285 0
-58 -250 -286 0
-59 -251 -287 0
-60 -252 -288 0
-61 -253 -285 0
-62 -254 -286 0
-63 -255 -287 0
-64 -256 -288 0
-65 -257 -285 0
-66 -258 -286 0
-67 -259 -287 0
-68 -260 -288 0
-69 -261 -285 0
-70 -262 -286 0
-71 -263 -287 0
-72 -264 -288 0
-73 -265 -285 0
-74 -266 -286 0
-75 -267 -287 0
-76 -268 -288 0
-77 -269 -285 0
-78 -270 -286 0
-79 -271 -287 0
-80 -272 -288 0
-81 -273 -285 0
-82 -274 -286 0
-83 -275 -287 0
-84 -276 -288 0
-85 -277 -285 0
-86 -278 -286 0
-87 -279 -287 0
-88 -280 -288 0
-89 -281 -285 0
-90 -282 -286 0
-91 -283 -287 0
-92 -284 -288 0
-93 -285 0
-94 -286 0
-95 -287 0
-96 -288 0
-97 -285 -289 0
-98 -286 -290 0
-99 -287 -291 0
-100 -288 -292 0
-101 -285 -293 0
-102 -286 -294 0
-103 -287 -295 0
-104 -288 -296 0
-105 -285 -297 0
-106 -286 -298 0
-107 -287 -299 0
-108 -288 -300 0
-109 -285 -301 0
-110 -286 -302 0
-111 -287 -303 0
-112 -288 -304 0
-113 -285 -305 0
-114 -286 -306 0
-115 -287 -307 0
-116 -288 -308 0
-117 -285 -309 0
-118 -286 -310 0
-119 -287 -311 0
-120 -288 -312 0
-121 -285 -313 0
-122 -286 -314 0
-123 -287 -315 0
-124 -288 -316 0
-125 -285 -317 0
-126 -286 -318 0
-127 -287 -319 0
-128 -288 -320 0
-129 -285 -321 0
-130 -286 -322 0
-131 -287 -323 0
-132 -288 -324 0
-133 -285 -325 0
-134 -286 -326 0
-135 -287 -327 0
-136 -288 -328 0
-137 -285 -329 0
-138 -286 -330 0
-139 -287 -331 0
-140 -288 -332 0
-141 -285 -333 0
-142 -286 -334 0
-143 -287 -335 0
-144 -288 -336 0
-145 -285 -337 0
-146 -286 -338 0
-147 -287 -339 0
-148 -288 -340 0
-149 -285 -341 0
-150 -286 -342 0
-151 -287 -343 0
-152 -288 -344 0
-153 -285 -345 0
-154 -286 -346 0
-155 -287 -347 0
-156 -288 -348 0
-157 -285 -349 0
-158 -286 -350 0
-159 -287 -351 0
-160 -288 -352 0
-161 -285 -353 0
-162 -286 -354 0
-163 -287 -355 0
-164 -288 -356 0
-165 -285 -357 0
-166 -286 -358 0
-167 -287 -359 0
-168 -288 -360 0
-169 -285 -361 0
-170 -286 -362 0
-171 -287 -363 0
-172 -288 -364 0
-173 -285 -365 0
-174 -286 -366 0
-175 -287 -367 0
-176 -288 -368 0
-177 -285 -369 0
-178 -286 -370 0
-179 -287 -371 0
-180 -288 -372 0
-181 -285 -373 0
-182 -286 -374 0
-183 -287 -375 0
-184 -288 -376 0
-185 -285 -377 0
-186 -286 -378 0
-187 -287 -379 0
-188 -288 -380 0
-189 -285 -381 0
-190 -286 -382 0
-191 -287 -383 0
-192 -288 -384 0
-193 -285 -385 0
-194 -286 -386 0
-195 -287 -387 0
-196 -288 -388 0
-197 -285 -389 0
-198 -286 -390 0
-199 -287 -391 0
-200 -288 -392 0
-201 -285 -393 0
-202 -286 -394 0
-203 -287 -395 0
-204 -288 -396 0
-205 -285 -397 0
-206 -286 -398 0
-207 -287 -399 0
-208 -288 -400 0
-209 -285 -401 0
-210 -286 -402 0
-211 -287 -403 0
-212 -288 -404 0
-213 -285 -405 0
-214 -286 -406 0
-215 -287 -407 0
-216 -288 -408 0
-217 -285 -409 0
-218 -286 -410 0
-219 -287 -411 0
-220 -288 -412 0
-1 -201 -297 0
-2 -202 -298 0
-3 -203 -299 0
-4 -204 -300 0
-5 -205 -297 0
-6 -206 -298 0
-7 -207 -299 0
-8 -208 -300 0
-9 -209 -297 0
-10 -210 -298 0
-11 -211 -299 0
-12 -212 -300 0
-13 -213 -297 0
-14 -214 -298 0
-15 -215 -299 0
-16 -216 -300 0
-17 -217 -297 0
-18 -218 -298 0
-19 -219 -299 0
-20 -220 -300 0
-21 -221 -297 0
-22 -222 -298 0
-23 -223 -299 0
-24 -224 -300 0
-25 -225 -297 0
-26 -226 -298 0
-27 -227 -299 0
-28 -228 -300 0
-29 -229 -297 0
-30 -230 -298 0
-31 -231 -299 0
-32 -232 -300 0
-33 -233 -297 0
-34 -234 -298 0
-35 -235 -299 0
-36 -236 -300 0
-37 -237 -297 0
-38 -238 -298 0
-39 -239 -299 0
-40 -240 -300 0
-41 -241 -297 0
-42 -242 -298 0
-43 -243 -299 0
-44 -244 -300 0
-45 -245 -297 0
-46 -246 -298 0
-47 -247 -299 0
-48 -248 -300 0
-49 -249 -297 0
-50 -250 -298 0
-51 -251 -299 0
-52 -252 -300 0
-53 -253 -297 0
-54 -254 -298 0
-55 -255 -299 0
-56 -256 -300 0
-57 -257 -297 0
-58 -258 -298 0
-59 -259 -299 0
-60 -260 -300 0
-61 -261 -297 0
-62 -262 -298 0
-63 -263 -299 0
-64 -264 -300 0
-65 -265 -297 0
-66 -266 -298 0
-67 -267 -299 0
-68 -268 -300 0
-69 -269 -297 0
-70 -270 -298 0
-71 -271 -299 0
-72 -272 -300 0
-73 -273 -297 0
-74 -274 -298 0
-75 -275 -299 0
-76 -276 -300 0
-77 -277 -297 0
-78 -278 -298 0
-79 -279 -299 0
-80 -280 -300 0
-81 -281 -297 0
-82 -282 -298 0
-83 -283 -299 0
-84 -284 -300 0
-85 -285 -297 0
-86 -286 -298 0
-87 -287 -299 0
-88 -288 -300 0
-89 -289 -297 0
-90 -290 -298 0
-91 -291 -299 0
-92 -292 -300 0
-93 -293 -297 0
-94 -294 -298 0
-95 -295 -299 0
-96 -296 -300 0
-97 -297 0
-98 -298 0
-99 -299 0
-100 -300 0
-101 -297 -301 0
-102 -298 -302 0
-103 -299 -303 0
-104 -300 -304 0
-105 -297 -305 0
-106 -298 -306 0
-107 -299 -307 0
-108 -300 -308 0
-109 -297 -309 0
-110 -298 -310 0
-111 -299 -311 0
-112 -300 -312 0
-113 -297 -313 0
-114 -298 -314 0
-115 -299 -315 0
-116 -300 -316 0
-117 -297 -317 0
-118 -298 -318 0
-119 -299 -319 0
-120 -300 -320 0
-121 -297 -321 0
-122 -298 -322 0
-123 -299 -323 0
-124 -300 -324 0
-125 -297 -325 0
-126 -298 -326 0
-127 -299 -327 0
-128 -300 -328 0
-129 -297 -329 0
-130 -298 -330 0
-131 -299 -331 0
-132 -300 -332 0
-133 -297 -333 0
-134 -298 -334 0
-135 -299 -335 0
-136 -300 -336 0
-137 -297 -337 0
-138 -298 -338 0
-139 -299 -339 0
-140 -300 -340 0
-141 -297 -341 0
-142 -298 -342 0
-143 -299 -343 0
-144 -300 -344 0
-145 -297 -345 0
-146 -298 -346 0
-147 -299 -347 0
-148 -300 -348 0
-149 -297 -349 0
-150 -298 -350 0
-151 -299 -351 0
-152 -300 -352 0
-153 -297 -353 0
-154 -298 -354 0
-155 -299 -355 0
-156 -300 -356 0
-157 -297 -357 0
-158 -298 -358 0
-159 -299 -359 0
-160 -300 -360 0
-161 -297 -361 0
-162 -298 -362 0
-163 -299 -363 0
-164 -300 -364 0
-165 -297 -365 0
-166 -298 -366 0
-167 -299 -367 0
-168 -300 -368 0
-169 -297 -369 0
-170 -298 -370 0
-171 -299 -371 0
-172 -300 -372 0
-173 -297 -373 0
-174 -298 -374 0
-175 -299 -375 0
-176 -300 -376 0
-177 -297 -377 0
-178 -298 -378 0
-179 -299 -379 0
-180 -300 -380 0
-181 -297 -381 0
-182 -298 -382 0
-183 -299 -383 0
-184 -300 -384 0
-185 -297 -385 0
-186 -298 -386 0
-187 -299 -387 0
-188 -300 -388 0
-189 -297 -389 0
-190 -298 -390 0
-191 -299 -391 0
-192 -300 -392 0
-193 -297 -393 0
-194 -298 -394 0
-195 -299 -395 0
-196 -300 -396 0
-197 -297 -397 0
-198 -298 -398 0
-199 -299 -399 0
-200 -300 -400 0
-201 -297 -401 0
-202 -298 -402 0
-203 -299 -403 0
-204 -300 -404 0
-205 -297 -405 0
-206 -298 -406 0
-207 -299 -407 0
-208 -300 -408 0
-209 -297 -409 0
-210 -298 -410 0
-211 -299 -411 0
-212 -300 -412 0
-1 -209 -309 0
-2 -210 -310 0
-3 -211 -311 0
-4 -212 -312 0
-5 -213 -309 0
-6 -214 -310 0
-7 -215 -311 0
-8 -216 -312 0
-9 -217 -309 0
-10 -218 -310 0
-11 -219 -311 0
-12 -220 -312 0
-13 -221 -309 0
-14 -222 -310 0
-15 -223 -311 0
-16 -224 -312 0
-17 -225 -309 0
-18 -226 -310 0
-19 -227 -311 0
-20 -228 -312 0
-21 -229 -309 0
-22 -230 -310 0
-23 -231 -311 0
-24 -232 -312 0
-25 -233 -309 0
-26 -234 -310 0
-27 -235 -311 0
-28 -236 -312 0
-29 -237 -309 0
-30 -238 -310 0
-31 -239 -311 0
-32 -240 -312 0
-33 -241 -309 0
-34 -242 -310 0
-35 -243 -311 0
-36 -244 -312 0
-37 -245 -309 0
-38 -246 -310 0
-39 -247 -311 0
-40 -248 -312 0
-41 -249 -309 0
-42 -250 -310 0
-43 -251 -311 0
-44 -252 -312 0
-45 -253 -309 0
-46 -254 -310 0
-47 -255 -311 0
-48 -256 -312 0
-49 -257 -309 0
-50 -258 -310 0
-51 -259 -311 0
-52 -260 -312 0
-53 -261 -309 0
-54 -262 -310 0
-55 -263 -311 0
-56 -264 -312 0
-57 -265 -309 0
-58 -266 -310 0
-59 -267 -311 0
-60 -268 -312 0
-61 -269 -309 0
-62 -270 -310 0
-63 -271 -311 0
-64 -272 -312 0
-65 -273 -309 0
-66 -274 -310 0
-67 -275 -311 0
-68 -276 -312 0
-69 -277 -309 0
-70 -278 -310 0
-71 -279 -311 0
-72 -280 -312 0
-73 -281 -309 0
-74 -282 -310 0
-75 -283 -311 0
-76 -284 -312 0
-77 -285 -309 0
-78 -286 -310 0
-79 -287 -311 0
-80 -288 -312 0
-81 -289 -309 0
-82 -290 -310 0
-83 -291 -311 0
-84 -292 -312 0
-85 -293 -309 0
-86 -294 -310 0
-87 -295 -311 0
-88 -296 -312 0
-89 -297 -309 0
-90 -298 -310 0
-91 -299 -311 0
-92 -300 -312 0
-93 -301 -309 0
-94 -302 -310 0
-95 -303 -311 0
-96 -304 -312 0
-97 -305 -309 0
-98 -306 -310 0
-99 -307 -311 0
-100 -308 -312 0
-101 -309 0
-102 -310 0
-103 -311 0
-104 -312 0
-105 -309 -313 0
-106 -310 -314 0
-107 -311 -315 0
-108 -312 -316 0
-109 -309 -317 0
-110 -310 -318 0
-111 -311 -319 0
-112 -312 -320 0
-113 -309 -321 0
-114 -310 -322 0
-115 -311 -323 0
-116 -312 -324 0
-117 -309 -325 0
-118 -310 -326 0
-119 -311 -327 0
-120 -312 -328 0
-121 -309 -329 0
-122 -310 -330 0
-123 -311 -331 0
-124 -312 -332 0
-125 -309 -333 0
-126 -310 -334 0
-127 -311 -335 0
-128 -312 -336 0
-129 -309 -337 0
-130 -310 -338 0
-131 -311 -339 0
-132 -312 -340 0
-133 -309 -341 0
-134 -310 -342 0
-135 -311 -343 0
-136 -312 -344 0
-137 -309 -345 0
-138 -310 -346 0
-139 -311 -347 0
-140 -312 -348 0
-141 -309 -349 0
-142 -310 -350 0
-143 -311 -351 0
-144 -312 -352 0
-145 -309 -353 0
-146 -310 -354 0
-147 -311 -355 0
-148 -312 -356 0
-149 -309 -357 0
-150 -310 -358 0
-151 -311 -359 0
-152 -312 -360 0
-153 -309 -361 0
-154 -310 -362 0
-155 -311 -363 0
-156 -312 -364 0
-157 -309 -365 0
-158 -310 -366 0
-159 -311 -367 0
-160 -312 -368 0
-161 -309 -369 0
-162 -310 -370 0
-163 -311 -371 0
-164 -312 -372 0
-165 -309 -373 0
-166 -310 -374 0
-167 -311 -375 0
-168 -312 -376 0
-169 -309 -377 0
-170 -310 -378 0
-171 -311 -379 0
-172 -312 -380 0
-173 -309 -381 0
-174 -310 -382 0
-175 -311 -383 0
-176 -312 -384 0
-177 -309 -385 0
-178 -310 -386 0
-179 -311 -387 0
-180 -312 -388 0
-181 -309 -389 0
-182 -310 -390 0
-183 -311 -391 0
-184 -312 -392 0
-185 -309 -393 0
-186 -310 -394 0
-187 -311 -395 0
-188 -312 -396 0
-189 -309 -397 0
-190 -310 -398 0
-191 -311 -399 0
-192 -312 -400 0
-193 -309 -401 0
-194 -310 -402 0
-195 -311 -403 0
-196 -312 -404 0
-197 -309 -405 0
-198 -310 -406 0
-199 -311 -407 0
-200 -312 -408 0
-201 -309 -409 0
-202 -310 -410 0
-203 -311 -411 0
-204 -312 -412 0
-1 -217 -321 0
-2 -218 -322 0
-3 -219 -323 0
-4 -220 -324 0
-5 -221 -321 0
-6 -222 -322 0
-7 -223 -323 0
-8 -224 -324 0
-9 -225 -321 0
-10 -226 -322 0
-11 -227 -323 0
-12 -228 -324 0
-13 -229 -321 0
-14 -230 -322 0
-15 -231 -323 0
-16 -232 -324 0
-17 -233 -321 0
-18 -234 -322 0
-19 -235 -323 0
-20 -236 -324 0
-21 -237 -321 0
-22 -238 -322 0
-23 -239 -323 0
-24 -240 -324 0
-25 -241 -321 0
-26 -242 -322 0
-27 -243 -323 0
-28 -244 -324 0
-29 -245 -321 0
-30 -246 -322 0
-31 -247 -323 0
-32 -248 -324 0
-33 -249 -321 0
-34 -250 -322 0
-35 -251 -323 0
-36 -252 -324 0
-37 -253 -321 0
-38 -254 -322 0
-39 -255 -323 0
-40 -256 -324 0
-41 -257 -321 0
-42 -258 -322 0
-43 -259 -323 0
-44 -260 -324 0
-45 -261 -321 0
-46 -262 -322 0
-47 -263 -323 0
-48 -264 -324 0
-49 -265 -321 0
-50 -266 -322 0
-51 -267 -323 0
-52 -268 -324 0
-53 -269 -321 0
-54 -270 -322 0
-55 -271 -323 0
-56 -272 -324 0
-57 -273 -321 0
-58 -274 -322 0
-59 -275 -323 0
-60 -276 -324 0
-61 -277 -321 0
-62 -278 -322 0
-63 -279 -323 0
-64 -280 -324 0
-65 -281 -321 0
-66 -282 -322 0
-67 -283 -323 0
-68 -284 -324 0
-69 -285 -321 0
-70 -286 -322 0
-71 -287 -323 0
-72 -288 -324 0
-73 -289 -321 0
-74 -290 -322 0
-75 -291 -323 0
-76 -292 -324 0
-77 -293 -321 0
-78 -294 -322 0
-79 -295 -323 0
-80 -296 -324 0
-81 -297 -321 0
-82 -298 -322 0
-83 -299 -323 0
-84 -300 -324 0
-85 -301 -321 0
-86 -302 -322 0
-87 -303 -323 0
-88 -304 -324 0
-89 -305 -321 0
-90 -306 -322 0
-91 -307 -323 0
-92 -308 -324 0
-93 -309 -321 0
-94 -310 -322 0
-95 -311 -323 0
-96 -312 -324 0
-97 -313 -321 0
-98 -314 -322 0
-99 -315 -323 0
-100 -316 -324 0
-101 -317 -321 0
-102 -318 -322 0
-103 -319 -323 0
-104 -320 -324 0
-105 -321 0
-106 -322 0
-107 -323 0
-108 -324 0
-109 -321 -325 0
-110 -322 -326 0
-111 -323 -327 0
-112 -324 -328 0
-113 -321 -329 0
-114 -322 -330 0
-115 -323 -331 0
-116 -324 -332 0
-117 -321 -333 0
-118 -322 -334 0
-119 -323 -335 0
-120 -324 -336 0
-121 -321 -337 0
-122 -322 -338 0
-123 -323 -339 0
-124 -324 -340 0
-125 -321 -341 0
-126 -322 -342 0
-127 -323 -343 0
-128 -324 -344 0
-129 -321 -345 0
-130 -322 -346 0
-131 -323 -347 0
-132 -324 -348 0
-133 -321 -349 0
-134 -322 -350 0
-135 -323 -351 0
-136 -324 -352 0
-137 -321 -353 0
-138 -322 -354 0
-139 -323 -355 0
-140 -324 -356 0
-141 -321 -357 0
-142 -322 -358 0
-143 -323 -359 0
-144 -324 -360 0
-145 -321 -361 0
-146 -322 -362 0
-147 -323 -363 0
-148 -324 -364 0
-149 -321 -365 0
-150 -322 -366 0
-151 -323 -367 0
-152 -324 -368 0
-153 -321 -369 0
-154 -322 -370 0
-155 -323 -371 0
-156 -324 -372 0
-157 -321 -373 0
-158 -322 -374 0
-159 -323 -375 0
-160 -324 -376 0
-161 -321 -377 0
-162 -322 -378 0
-163 -323 -379 0
-164 -324 -380 0
-165 -321 -381 0
-166 -322 -382 0
-167 -323 -383 0
-168 -324 -384 0
-169 -321 -385 0
-170 -322 -386 0
-171 -323 -387 0
-172 -324 -388 0
-173 -321 -389 0
-174 -322 -390 0
-175 -323 -391 0
-176 -324 -392 0
-177 -321 -393 0
-178 -322 -394 0
-179 -323 -395 0
-180 -324 -396 0
-181 -321 -397 0
-182 -322 -398 0
-183 -323 -399 0
-184 -324 -400 0
-185 -321 -401 0
-186 -322 -402 0
-187 -323 -403 0
-188 -324 -404 0
-189 -321 -405 0
-190 -322 -406 0
-191 -323 -407 0
-192 -324 -408 0
-193 -321 -409 0
-194 -322 -410 0
-195 -323 -411 0
-196 -324 -412 0
-1 -225 -333 0
-2 -226 -334 0
-3 -227 -335 0
-4 -228 -336 0
-5 -229 -333 0
-6 -230 -334 0
-7 -231 -335 0
-8 -232 -336 0
-9 -233 -333 0
-10 -234 -334 0
-11 -235 -335 0
-12 -236 -336 0
-13 -237 -333 0
-14 -238 -334 0
-15 -239 -335 0
-16 -240 -336 0
-17 -241 -333 0
-18 -242 -334 0
-19 -243 -335 0
-20 -244 -336 0
-21 -245 -333 0
-22 -246 -334 0
-23 -247 -335 0
-24 -248 -336 0
-25 -249 -333 0
-26 -250 -334 0
-27 -251 -335 0
-28 -252 -336 0
-29 -253 -333 0
-30 -254 -334 0
-31 -255 -335 0
-32 -256 -336 0
-33 -257 -333 0
-34 -258 -334 0
-35 -259 -335 0
-36 -260 -336 0
-37 -261 -333 0
-38 -262 -334 0
-39 -263 -335 0
-40 -264 -336 0
-41 -265 -333 0
-42 -266 -334 0
-43 -267 -335 0
-44 -268 -336 0
-45 -269 -333 0
-46 -270 -334 0
-47 -271 -335 0
-48 -272 -336 0
-49 -273 -333 0
-50 -274 -334 0
-51 -275 -335 0
-52 -276 -336 0
-53 -277 -333 0
-54 -278 -334 0
-55 -279 -335 0
-56 -280 -336 0
-57 -281 -333 0
-58 -282 -334 0
-59 -283 -335 0
-60 -284 -336 0
-61 -285 -333 0
-62 -286 -334 0
-63 -287 -335 0
-64 -288 -336 0
-65 -289 -333 0
-66 -290 -334 0
-67 -291 -335 0
-68 -292 -336 0
-69 -293 -333 0
-70 -294 -334 0
-71 -295 -335 0
-72 -296 -336 0
-73 -297 -333 0
-74 -298 -334 0
-75 -299 -335 0
-76 -300 -336 0
-77 -301 -333 0
-78 -302 -334 0
-79 -303 -335 0
-80 -304 -336 0
-81 -305 -333 0
-82 -306 -334 0
-83 -307 -335 0
-84 -308 -336 0
-85 -309 -333 0
-86 -310 -334 0
-87 -311 -335 0
-88 -312 -336 0
-89 -313 -333 0
-90 -314 -334 0
-91 -315 -335 0
-92 -316 -336 0
-93 -317 -333 0
-94 -318 -334 0
-95 -319 -335 0
-96 -320 -336 0
-97 -321 -333 0
-98 -322 -334 0
-99 -323 -335 0
-100 -324 -336 0
-101 -325 -333 0
-102 -326 -334 0
-103 -327 -335 0
-104 -328 -336 0
-105 -329 -333 0
-106 -330 -334 0
-107 -331 -335 0
-108 -332 -336 0
-109 -333 0
-110 -334 0
-111 -335 0
-112 -336 0
-113 -333 -337 0
-114 -334 -338 0
-115 -335 -339 0
-116 -336 -340 0
-117 -333 -341 0
-118 -334 -342 0
-119 -335 -343 0
-120 -336 -344 0
-121 -333 -345 0
-122 -334 -346 0
-123 -335 -347 0
-124 -336 -348 0
-125 -333 -349 0
-126 -334 -350 0
-127 -335 -351 0
-128 -336 -352 0
-129 -333 -353 0
-130 -334 -354 0
-131 -335 -355 0
-132 -336 -356 0
-133 -333 -357 0
-134 -334 -358 0
-135 -335 -359 0
-136 -336 -360 0
-137 -333 -361 0
-138 -334 -362 0
-139 -335 -363 0
-140 -336 -364 0
-141 -333 -365 0
-142 -334 -366 0
-143 -335 -367 0
-144 -336 -368 0
-145 -333 -369 0
-146 -334 -370 0
-147 -335 -371 0
-148 -336 -372 0
-149 -333 -373 0
-150 -334 -374 0
-151 -335 -375 0
-152 -336 -376 0
-153 -333 -377 0
-154 -334 -378 0
-155 -335 -379 0
-156 -336 -380 0
-157 -333 -381 0
-158 -334 -382 0
-159 -335 -383 0
-160 -336 -384 0
-161 -333 -385 0
-162 -334 -386 0
-163 -335 -387 0
-164 -336 -388 0
-165 -333 -389 0
-166 -334 -390 0
-167 -335 -391 0
-168 -336 -392 0
-169 -333 -393 0
-170 -334 -394 0
-171 -335 -395 0
-172 -336 -396 0
-173 -333 -397 0
-174 -334 -398 0
-175 -335 -399 0
-176 -336 -400 0
-177 -333 -401 0
-178 -334 -402 0
-179 -335 -403 0
-180 -336 -404 0
-181 -333 -405 0
-182 -334 -406 0
-183 -335 -407 0
-184 -336 -408 0
-185 -333 -409 0
-186 -334 -410 0
-187 -335 -411 0
-188 -336 -412 0
-1 -233 -345 0
-2 -234 -346 0
-3 -235 -347 0
-4 -236 -348 0
-5 -237 -345 0
-6 -238 -346 0
-7 -239 -347 0
-8 -240 -348 0
-9 -241 -345 0
-10 -242 -346 0
-11 -243 -347 0
-12 -244 -348 0
-13 -245 -345 0
-14 -246 -346 0
-15 -247 -347 0
-16 -248 -348 0
-17 -249 -345 0
-18 -250 -346 0
-19 -251 -347 0
-20 -252 -348 0
-21 -253 -345 0
-22 -254 -346 0
-23 -255 -347 0
-24 -256 -348 0
-25 -257 -345 0
-26 -258 -346 0
-27 -259 -347 0
-28 -260 -348 0
-29 -261 -345 0
-30 -262 -346 0
-31 -263 -347 0
-32 -264 -348 0
-33 -265 -345 0
-34 -266 -346 0
-35 -267 -347 0
-36 -268 -348 0
-37 -269 -345 0
-38 -270 -346 0
-39 -271 -347 0
-40 -272 -348 0
-41 -273 -345 0
-42 -274 -346 0
-43 -275 -347 0
-44 -276 -348 0
-45 -277 -345 0
-46 -278 -346 0
-47 -279 -347 0
-48 -280 -348 0
-49 -281 -345 0
-50 -282 -346 0
-51 -283 -347 0
-52 -284 -348 0
-53 -285 -345 0
-54 -286 -346 0
-55 -287 -347 0
-56 -288 -348 0
-57 -289 -345 0
-58 -290 -346 0
-59 -291 -347 0
-60 -292 -348 0
-61 -293 -345 0
-62 -294 -346 0
-63 -295 -347 0
-64 -296 -348 0
-65 -297 -345 0
-66 -298 -346 0
-67 -299 -347 0
-68 -300 -348 0
-69 -301 -345 0
-70 -302 -346 0
-71 -303 -347 0
-72 -304 -348 0
-73 -305 -345 0
-74 -306 -346 0
-75 -307 -347 0
-76 -308 -348 0
-77 -309 -345 0
-78 -310 -346 0
-79 -311 -347 0
-80 -312 -348 0
-81 -313 -345 0
-82 -314 -346 0
-83 -315 -347 0
-84 -316 -348 0
-85 -317 -345 0
-86 -318 -346 0
-87 -319 -347 0
-88 -320 -348 0
-89 -321 -345 0
-90 -322 -346 0
-91 -323 -347 0
-92 -324 -348 0
-93 -325 -345 0
-94 -326 -346 0
-95 -327 -347 0
-96 -328 -348 0
-97 -329 -345 0
-98 -330 -346 0
-99 -331 -347 0
-100 -332 -348 0
-101 -333 -345 0
-102 -334 -346 0
-103 -335 -347 0
-104 -336 -348 0
-105 -337 -345 0
-106 -338 -346 0
-107 -339 -347 0
-108 -340 -348 0
-109 -341 -345 0
-110 -342 -346 0
-111 -343 -347 0
-112 -344 -348 0
-113 -345 0
-114 -346 0
-115 -347 0
-116 -348 0
-117 -345 -349 0
-118 -346 -350 0
-119 -347 -351 0
-120 -348 -352 0
-121 -345 -353 0
-122 -346 -354 0
-123 -347 -355 0
-124 -348 -356 0
-125 -345 -357 0
-126 -346 -358 0
-127 -347 -359 0
-128 -348 -360 0
-129 -345 -361 0
-130 -346 -362 0
-131 -347 -363 0
-132 -348 -364 0
-133 -345 -365 0
-134 -346 -366 0
-135 -347 -367 0
-136 -348 -368 0
-137 -345 -369 0
-138 -346 -370 0
-139 -347 -371 0
-140 -348 -372 0
-141 -345 -373 0
-142 -346 -374 0
-143 -347 -375 0
-144 -348 -376 0
-145 -345 -377 0
-146 -346 -378 0
-147 -347 -379 0
-148 -348 -380 0
-149 -345 -381 0
-150 -346 -382 0
-151 -347 -383 0
-152 -348 -384 0
-153 -345 -385 0
-154 -346 -386 0
-155 -347 -387 0
-156 -348 -388 0
-157 -345 -389 0
-158 -346 -390 0
-159 -347 -391 0
-160 -348 -392 0
-161 -345 -393 0
-162 -346 -394 0
-163 -347 -395 0
-164 -348 -396 0
-165 -345 -397 0
-166 -346 -398 0
-167 -347 -399 0
-168 -348 -400 0
-169 -345 -401 0
-170 -346 -402 0
-171 -347 -403 0
-172 -348 -404 0
-173 -345 -405 0
-174 -346 -406 0
-175 -347 -407 0
-176 -348 -408 0
-177 -345 -409 0
-178 -346 -410 0
-179 -347 -411 0
-180 -348 -412 0
-1 -241 -357 0
-2 -242 -358 0
-3 -243 -359 0
-4 -244 -360 0
-5 -245 -357 0
-6 -246 -358 0
-7 -247 -359 0
-8 -248 -360 0
-9 -249 -357 0
-10 -250 -358 0
-11 -251 -359 0
-12 -252 -360 0
-13 -253 -357 0
-14 -254 -358 0
-15 -255 -359 0
-16 -256 -360 0
-17 -257 -357 0
-18 -258 -358 0
-19 -259 -359 0
-20 -260 -360 0
-21 -261 -357 0
-22 -262 -358 0
-23 -263 -359 0
-24 -264 -360 0
-25 -265 -357 0
-26 -266 -358 0
-27 -267 -359 0
-28 -268 -360 0
-29 -269 -357 0
-30 -270 -358 0
-31 -271 -359 0
-32 -272 -360 0
-33 -273 -357 0
-34 -274 -358 0
-35 -275 -359 0
-36 -276 -360 0
-37 -277 -357 0
-38 -278 -358 0
-39 -279 -359 0
-40 -280 -360 0
-41 -281 -357 0
-42 -282 -358 0
-43 -283 -359 0
-44 -284 -360 0
-45 -285 -357 0
-46 -286 -358 0
-47 -287 -359 0
-48 -288 -360 0
-49 -289 -357 0
-50 -290 -358 0
-51 -291 -359 0
-52 -292 -360 0
-53 -293 -357 0
-54 -294 -358 0
-55 -295 -359 0
-56 -296 -360 0
-57 -297 -357 0
-58 -298 -358 0
-59 -299 -359 0
-60 -300 -360 0
-61 -301 -357 0
-62 -302 -358 0
-63 -303 -359 0
-64 -304 -360 0
-65 -305 -357 0
-66 -306 -358 0
-67 -307 -359 0
-68 -308 -360 0
-69 -309 -357 0
-70 -310 -358 0
-71 -311 -359 0
-72 -312 -360 0
-73 -313 -357 0
-74 -314 -358 0
-75 -315 -359 0
-76 -316 -360 0
-77 -317 -357 0
-78 -318 -358 0
-79 -319 -359 0
-80 -320 -360 0
-81 -321 -357 0
-82 -322 -358 0
-83 -323 -359 0
-84 -324 -360 0
-85 -325 -357 0
-86 -326 -358 0
-87 -327 -359 0
-88 -328 -360 0
-89 -329 -357 0
-90 -330 -358 0
-91 -331 -359 0
-92 -332 -360 0
-93 -333 -357 0
-94 -334 -358 0
-95 -335 -359 0
-96 -336 -360 0
-97 -337 -357 0
-98 -338 -358 0
-99 -339 -359 0
-100 -340 -360 0
-101 -341 -357 0
-102 -342 -358 0
-103 -343 -359 0
-104 -344 -360 0
-105 -345 -357 0
-106 -346 -358 0
-107 -347 -359 0
-108 -348 -360 0
-109 -349 -357 0
-110 -350 -358 0
-111 -351 -359 0
-112 -352 -360 0
-113 -353 -357 0
-114 -354 -358 0
-115 -355 -359 0
-116 -356 -360 0
-117 -357 0
-118 -358 0
-119 -359 0
-120 -360 0
-121 -357 -361 0
-122 -358 -362 0
-123 -359 -363 0
-124 -360 -364 0
-125 -357 -365 0
-126 -358 -366 0
-127 -359 -367 0
-128 -360 -368 0
-129 -357 -369 0
-130 -358 -370 0
-131 -359 -371 0
-132 -360 -372 0
-133 -357 -373 0
-134 -358 -374 0
-135 -359 -375 0
-136 -360 -376 0
-137 -357 -377 0
-138 -358 -378 0
-139 -359 -379 0
-140 -360 -380 0
-141 -357 -381 0
-142 -358 -382 0
-143 -359 -383 0
-144 -360 -384 0
-145 -357 -385 0
-146 -358 -386 0
-147 -359 -387 0
-148 -360 -388 0
-149 -357 -389 0
-150 -358 -390 0
-151 -359 -391 0
-152 -360 -392 0
-153 -357 -393 0
-154 -358 -394 0
-155 -359 -395 0
-156 -360 -396 0
-157 -357 -397 0
-158 -358 -398 0
-159 -359 -399 0
-160 -360 -400 0
-161 -357 -401 0
-162 -358 -402 0
-163 -359 -403 0
-164 -360 -404 0
-165 -357 -405 0
-166 -358 -406 0
-167 -359 -407 0
-168 -360 -408 0
-169 -357 -409 0
-170 -358 -410 0
-171 -359 -411 0
-172 -360 -412 0
-1 -249 -369 0
-2 -250 -370 0
-3 -251 -371 0
-4 -252 -372 0
-5 -253 -369 0
-6 -254 -370 0
-7 -255 -371 0
-8 -256 -372 0
-9 -257 -369 0
-10 -258 -370 0
-11 -259 -371 0
-12 -260 -372 0
-13 -261 -369 0
-14 -262 -370 0
-15 -263 -371 0
-16 -264 -372 0
-17 -265 -369 0
-18 -266 -370 0
-19 -267 -371 0
-20 -268 -372 0
-21 -269 -369 0
-22 -270 -370 0
-23 -271 -371 0
-24 -272 -372 0
-25 -273 -369 0
-26 -274 -370 0
-27 -275 -371 0
-28 -276 -372 0
-29 -277 -369 0
-30 -278 -370 0
-31 -279 -371 0
-32 -280 -372 0
-33 -281 -369 0
-34 -282 -370 0
-35 -283 -371 0
-36 -284 -372 0
-37 -285 -369 0
-38 -286 -370 0
-39 -287 -371 0
-40 -288 -372 0
-41 -289 -369 0
-42 -290 -370 0
-43 -291 -371 0
-44 -292 -372 0
-45 -293 -369 0
-46 -294 -370 0
-47 -295 -371 0
-48 -296 -372 0
-49 -297 -369 0
-50 -298 -370 0
-51 -299 -371 0
-52 -300 -372 0
-53 -301 -369 0
-54 -302 -370 0
-55 -303 -371 0
-56 -304 -372 0
-57 -305 -369 0
-58 -306 -370 0
-59 -307 -371 0
-60 -308 -372 0
-61 -309 -369 0
-62 -310 -370 0
-63 -311 -371 0
-64 -312 -372 0
-65 -313 -369 0
-66 -314 -370 0
-67 -315 -371 0
-68 -316 -372 0
-69 -317 -369 0
-70 -318 -370 0
-71 -319 -371 0
-72 -320 -372 0
-73 -321 -369 0
-74 -322 -370 0
-75 -323 -371 0
-76 -324 -372 0
-77 -325 -369 0
-78 -326 -370 0
-79 -327 -371 0
-80 -328 -372 0
-81 -329 -369 0
-82 -330 -370 0
-83 -331 -371 0
-84 -332 -372 0
-85 -333 -369 0
-86 -334 -370 0
-87 -335 -371 0
-88 -336 -372 0
-89 -337 -369 0
-90 -338 -370 0
-91 -339 -371 0
-92 -340 -372 0
-93 -341 -369 0
-94 -342 -370 0
-95 -343 -371 0
-96 -344 -372 0
-97 -345 -369 0
-98 -346 -370 0
-99 -347 -371 0
-100 -348 -372 0
-101 -349 -369 0
-102 -350 -370 0
-103 -351 -371 0
-104 -352 -372 0
-105 -353 -369 0
-106 -354 -370 0
-107 -355 -371 0
-108 -356 -372 0
-109 -357 -369 0
-110 -358 -370 0
-111 -359 -371 0
-112 -360 -372 0
-113 -361 -369 0
-114 -362 -370 0
-115 -363 -371 0
-116 -364 -372 0
-117 -365 -369 0
-118 -366 -370 0
-119 -367 -371 0
-120 -368 -372 0
-121 -369 0
-122 -370 0
-123 -371 0
-124 -372 0
-125 -369 -373 0
-126 -370 -374 0
-127 -371 -375 0
-128 -372 -376 0
-129 -369 -377 0
-130 -370 -378 0
-131 -371 -379 0
-132 -372 -380 0
-133 -369 -381 0
-134 -370 -382 0
-135 -371 -383 0
-136 -372 -384 0
-137 -369 -385 0
-138 -370 -386 0
-139 -371 -387 0
-140 -372 -388 0
-141 -369 -389 0
-142 -370 -390 0
-143 -371 -391 0
-144 -372 -392 0
-145 -369 -393 0
-146 -370 -394 0
-147 -371 -395 0
-148 -372 -396 0
-149 -369 -397 0
-150 -370 -398 0
-151 -371 -399 0
-152 -372 -400 0
-153 -369 -401 0
-154 -370 -402 0
-155 -371 -403 0
-156 -372 -404 0
-157 -369 -405 0
-158 -370 -406 0
-159 -371 -407 0
-160 -372 -408 0
-161 -369 -409 0
-162 -370 -410 0
-163 -371 -411 0
-164 -372 -412 0
-1 -257 -381 0
-2 -258 -382 0
-3 -259 -383 0
-4 -260 -384 0
-5 -261 -381 0
-6 -262 -382 0
-7 -263 -383 0
-8 -264 -384 0
-9 -265 -381 0
-10 -266 -382 0
-11 -267 -383 0
-12 -268 -384 0
-13 -269 -381 0
-14 -270 -382 0
-15 -271 -383 0
-16 -272 -384 0
-17 -273 -381 0
-18 -274 -382 0
-19 -275 -383 0
-20 -276 -384 0
-21 -277 -381 0
-22 -278 -382 0
-23 -279 -383 0
-24 -280 -384 0
-25 -281 -381 0
-26 -282 -382 0
-27 -283 -383 0
-28 -284 -384 0
-29 -285 -381 0
-30 -286 -382 0
-31 -287 -383 0
-32 -288 -384 0
-33 -289 -381 0
-34 -290 -382 0
-35 -291 -383 0
-36 -292 -384 0
-37 -293 -381 0
-38 -294 -382 0
-39 -295 -383 0
-40 -296 -384 0
-41 -297 -381 0
-42 -298 -382 0
-43 -299 -383 0
-44 -300 -384 0
-45 -301 -381 0
-46 -302 -382 0
-47 -303 -383 0
-48 -304 -384 0
-49 -305 -381 0
-50 -306 -382 0
-51 -307 -383 0
-52 -308 -384 0
-53 -309 -381 0
-54 -310 -382 0
-55 -311 -383 0
-56 -312 -384 0
-57 -313 -381 0
-58 -314 -382 0
-59 -315 -383 0
-60 -316 -384 0
-61 -317 -381 0
-62 -318 -382 0
-63 -319 -383 0
-64 -320 -384 0
-65 -321 -381 0
-66 -322 -382 0
-67 -323 -383 0
-68 -324 -384 0
-69 -325 -381 0
-70 -326 -382 0
-71 -327 -383 0
-72 -328 -384 0
-73 -329 -381 0
-74 -330 -382 0
-75 -331 -383 0
-76 -332 -384 0
-77 -333 -381 0
-78 -334 -382 0
-79 -335 -383 0
-80 -336 -384 0
-81 -337 -381 0
-82 -338 -382 0
-83 -339 -383 0
-84 -340 -384 0
-85 -341 -381 0
-86 -342 -382 0
-87 -343 -383 0
-88 -344 -384 0
-89 -345 -381 0
-90 -346 -382 0
-91 -347 -383 0
-92 -348 -384 0
-93 -349 -381 0
-94 -350 -382 0
-95 -351 -383 0
-96 -352 -384 0
-97 -353 -381 0
-98 -354 -382 0
-99 -355 -383 0
-100 -356 -384 0
-101 -357 -381 0
-102 -358 -382 0
-103 -359 -383 0
-104 -360 -384 0
-105 -361 -381 0
-106 -362 -382 0
-107 -363 -383 0
-108 -364 -384 0
-109 -365 -381 0
-110 -366 -382 0
-111 -367 -383 0
-112 -368 -384 0
-113 -369 -381 0
-114 -370 -382 0
-115 -371 -383 0
-116 -372 -384 0
-117 -373 -381 0
-118 -374 -382 0
-119 -375 -383 0
-120 -376 -384 0
-121 -377 -381 0
-122 -378 -382 0
-123 -379 -383 0
-124 -380 -384 0
-125 -381 0
-126 -382 0
-127 -383 0
-128 -384 0
-129 -381 -385 0
-130 -382 -386 0
-131 -383 -387 0
-132 -384 -388 0
-133 -381 -389 0
-134 -382 -390 0
-135 -383 -391 0
-136 -384 -392 0
-137 -381 -393 0
-138 -382 -394 0
-139 -383 -395 0
-140 -384 -396 0
-141 -381 -397 0
-142 -382 -398 0
-143 -383 -399 0
-144 -384 -400 0
-145 -381 -401 0
-146 -382 -402 0
-147 -383 -403 0
-148 -384 -404 0
-149 -381 -405 0
-150 -382 -406 0
-151 -383 -407 0
-152 -384 -408 0
-153 -381 -409 0
-154 -382 -410 0
-155 -383 -411 0
-156 -384 -412 0
-1 -265 -393 0
-2 -266 -394 0
-3 -267 -395 0
-4 -268 -396 0
-5 -269 -393 0
-6 -270 -394 0
-7 -271 -395 0
-8 -272 -396 0
-9 -273 -393 0
-10 -274 -394 0
-11 -275 -395 0
-12 -276 -396 0
-13 -277 -393 0
-14 -278 -394 0
-15 -279 -395 0
-16 -280 -396 0
-17 -281 -393 0
-18 -282 -394 0
-19 -283 -395 0
-20 -284 -396 0
-21 -285 -393 0
-22 -286 -394 0
-23 -287 -395 0
-24 -288 -396 0
-25 -289 -393 0
-26 -290 -394 0
-27 -291 -395 0
-28 -292 -396 0
-29 -293 -393 0
-30 -294 -394 0
-31 -295 -395 0
-32 -296 -396 0
-33 -297 -393 0
-34 -298 -394 0
-35 -299 -395 0
-36 -300 -396 0
-37 -301 -393 0
-38 -302 -394 0
-39 -303 -395 0
-40 -304 -396 0
-41 -305 -393 0
-42 -306 -394 0
-43 -307 -395 0
-44 -308 -396 0
-45 -309 -393 0
-46 -310 -394 0
-47 -311 -395 0
-48 -312 -396 0
-49 -313 -393 0
-50 -314 -394 0
-51 -315 -395 0
-52 -316 -396 0
-53 -317 -393 0
-54 -318 -394 0
-55 -319 -395 0
-56 -320 -396 0
-57 -321 -393 0
-58 -322 -394 0
-59 -323 -395 0
-60 -324 -396 0
-61 -325 -393 0
-62 -326 -394 0
-63 -327 -395 0
-64 -328 -396 0
-65 -329 -393 0
-66 -330 -394 0
-67 -331 -395 0
-68 -332 -396 0
-69 -333 -393 0
-70 -334 -394 0
-71 -335 -395 0
-72 -336 -396 0
-73 -337 -393 0
-74 -338 -394 0
-75 -339 -395 0
-76 -340 -396 0
-77 -341 -393 0
-78 -342 -394 0
-79 -343 -395 0
-80 -344 -396 0
-81 -345 -393 0
-82 -346 -394 0
-83 -347 -395 0
-84 -348 -396 0
-85 -349 -393 0
-86 -350 -394 0
-87 -351 -395 0
-88 -352 -396 0
-89 -353 -393 0
-90 -354 -394 0
-91 -355 -395 0
-92 -356 -396 0
-93 -357 -393 0
-94 -358 -394 0
-95 -359 -395 0
-96 -360 -396 0
-97 -361 -393 0
-98 -362 -394 0
-99 -363 -395 0
-100 -364 -396 0
-101 -365 -393 0
-102 -366 -394 0
-103 -367 -395 0
-104 -368 -396 0
-105 -369 -393 0
-106 -370 -394 0
-107 -371 -395 0
-108 -372 -396 0
-109 -373 -393 0
-110 -374 -394 0
-111 -375 -395 0
-112 -376 -396 0
-113 -377 -393 0
-114 -378 -394 0
-115 -379 -395 0
-116 -380 -396 0
-117 -381 -393 0
-118 -382 -394 0
-119 -383 -395 0
-120 -384 -396 0
-121 -385 -393 0
-122 -386 -394 0
-123 -387 -395 0
-124 -388 -396 0
-125 -389 -393 0
-126 -390 -394 0
-127 -391 -395 0
-128 -392 -396 0
-129 -393 0
-130 -394 0
-131 -395 0
-132 -396 0
-133 -393 -397 0
-134 -394 -398 0
-135 -395 -399 0
-136 -396 -400 0
-137 -393 -401 0
-138 -394 -402 0
-139 -395 -403 0
-140 -396 -404 0
-141 -393 -405 0
-142 -394 -406 0
-143 -395 -407 0
-144 -396 -408 0
-145 -393 -409 0
-146 -394 -410 0
-147 -395 -411 0
-148 -396 -412 0
-1 -273 -405 0
-2 -274 -406 0
-3 -275 -407 0
-4 -276 -408 0
-5 -277 -405 0
-6 -278 -406 0
-7 -279 -407 0
-8 -280 -408 0
-9 -281 -405 0
-10 -282 -406 0
-11 -283 -407 0
-12 -284 -408 0
-13 -285 -405 0
-14 -286 -406 0
-15 -287 -407 0
-16 -288 -408 0
-17 -289 -405 0
-18 -290 -406 0
-19 -291 -407 0
-20 -292 -408 0
-21 -293 -405 0
-22 -294 -406 0
-23 -295 -407 0
-24 -296 -408 0
-25 -297 -405 0
-26 -298 -406 0
-27 -299 -407 0
-28 -300 -408 0
-29 -301 -405 0
-30 -302 -406 0
-31 -303 -407 0
-32 -304 -408 0
-33 -305 -405 0
-34 -306 -406 0
-35 -307 -407 0
-36 -308 -408 0
-37 -309 -405 0
-38 -310 -406 0
-39 -311 -407 0
-40 -312 -408 0
-41 -313 -405 0
-42 -314 -406 0
-43 -315 -407 0
-44 -316 -408 0
-45 -317 -405 0
-46 -318 -406 0
-47 -319 -407 0
-48 -320 -408 0
-49 -321 -405 0
-50 -322 -406 0
-51 -323 -407 0
-52 -324 -408 0
-53 -325 -405 0
-54 -326 -406 0
-55 -327 -407 0
-56 -328 -408 0
-57 -329 -405 0
-58 -330 -406 0
-59 -331 -407 0
-60 -332 -408 0
-61 -333 -405 0
-62 -334 -406 0
-63 -335 -407 0
-64 -336 -408 0
-65 -337 -405 0
-66 -338 -406 0
-67 -339 -407 0
-68 -340 -408 0
-69 -341 -405 0
-70 -342 -406 0
-71 -343 -407 0
-72 -344 -408 0
-73 -345 -405 0
-74 -346 -406 0
-75 -347 -407 0
-76 -348 -408 0
-77 -349 -405 0
-78 -350 -406 0
-79 -351 -407 0
-80 -352 -408 0
-81 -353 -405 0
-82 -354 -406 0
-83 -355 -407 0
-84 -356 -408 0
-85 -357 -405 0
-86 -358 -406 0
-87 -359 -407 0
-88 -360 -408 0
-89 -361 -405 0
-90 -362 -406 0
-91 -363 -407 0
-92 -364 -408 0
-93 -365 -405 0
-94 -366 -406 0
-95 -367 -407 0
-96 -368 -408 0
-97 -369 -405 0
-98 -370 -406 0
-99 -371 -407 0
-100 -372 -408 0
-101 -373 -405 0
-102 -374 -406 0
-103 -375 -407 0
-104 -376 -408 0
-105 -377 -405 0
-106 -378 -406 0
-107 -379 -407 0
-108 -380 -408 0
-109 -381 -405 0
-110 -382 -406 0
-111 -383 -407 0
-112 -384 -408 0
-113 -385 -405 0
-114 -386 -406 0
-115 -387 -407 0
-116 -388 -408 0
-117 -389 -405 0
-118 -390 -406 0
-119 -391 -407 0
-120 -392 -408 0
-121 -393 -405 0
-122 -394 -406 0
-123 -395 -407 0
-124 -396 -408 0
-125 -397 -405 0
-126 -398 -406 0
-127 -399 -407 0
-128 -400 -408 0
-129 -401 -405 0
-130 -402 -406 0
-131 -403 -407 0
-132 -404 -408 0
-133 -405 0
-134 -406 0
-135 -407 0
-136 -408 0
-137 -405 -409 0
-138 -406 -410 0
-139 -407 -411 0
-140 -408 -412 0
-1 -2 0
-1 -3 0
-1 -4 0
-2 -3 0
-2 -4 0
-3 -4 0
-5 -6 0
-5 -7 0
-5 -8 0
-6 -7 0
-6 -8 0
-7 -8 0
-9 -10 0
-9 -11 0
-9 -12 0
-10 -11 0
-10 -12 0
-11 -12 0
-13 -14 0
-13 -15 0
-13 -16 0
-14 -15 0
-14 -16 0
-15 -16 0
-17 -18 0
-17 -19 0
-17 -20 0
-18 -19 0
-18 -20 0
-19 -20 0
-21 -22 0
-21 -23 0
-21 -24 0
-22 -23 0
-22 -24 0
-23 -24 0
-25 -26 0
-25 -27 0
-25 -28 0
-26 -27 0
-26 -28 0
-27 -28 0
-29 -30 0
-29 -31 0
-29 -32 0
-30 -31 0
-30 -32 0
-31 -32 0
-33 -34 0
-33 -35 0
-33 -36 0
-34 -35 0
-34 -36 0
-35 -36 0
-37 -38 0
-37 -39 0
-37 -40 0
-38 -39 0
-38 -40 0
-39 -40 0
-41 -42 0
-41 -43 0
-41 -44 0
-42 -43 0
-42 -44 0
-43 -44 0
-45 -46 0
-45 -47 0
-45 -48 0
-46 -47 0
-46 -48 0
-47 -48 0
-49 -50 0
-49 -51 0
-49 -52 0
-50 -51 0
-50 -52 0
-51 -52 0
-53 -54 0
-53 -55 0
-53 -56 0
-54 -55 0
-54 -56 0
-55 -56 0
-57 -58 0
-57 -59 0
-57 -60 0
-58 -59 0
-58 -60 0
-59 -60 0
-61 -62 0
-61 -63 0
-61 -64 0
-62 -63 0
-62 -64 0
-63 -64 0
-65 -66 0
-65 -67 0
-65 -68 0
-66 -67 0
-66 -68 0
-67 -68 0
-69 -70 0
-69 -71 0
-69 -72 0
-70 -71 0
-70 -72 0
-71 -72 0
-73 -74 0
-73 -75 0
-73 -76 0
-74 -75 0
-74 -76 0
-75 -76 0
-77 -78 0
-77 -79 0
-77 -80 0
-78 -79 0
-78 -80 0
-79 -80 0
-81 -82 0
-81 -83 0
-81 -84 0
-82 -83 0
-82 -84 0
-83 -84 0
-85 -86 0
-85 -87 0
-85 -88 0
-86 -87 0
-86 -88 0
-87 -88 0
-89 -90 0
-89 -91 0
-89 -92 0
-90 -91 0
-90 -92 0
-91 -92 0
-93 -94 0
-93 -95 0
-93 -96 0
-94 -95 0
-94 -96 0
-95 -96 0
-97 -98 0
-97 -99 0
-97 -100 0
-98 -99 0
-98 -100 0
-99 -100 0
-101 -102 0
-101 -103 0
-101 -104 0
-102 -103 0
-102 -104 0
-103 -104 0
-105 -106 0
-105 -107 0
-105 -108 0
-106 -107 0
-106 -108 0
-107 -108 0
-109 -110 0
-109 -111 0
-109 -112 0
-110 -111 0
-110 -112 0
-111 -112 0
-113 -114 0
-113 -115 0
-113 -116 0
-114 -115 0
-114 -116 0
-115 -116 0
-117 -118 0
-117 -119 0
-117 -120 0
-118 -119 0
-118 -120 0
-119 -120 0
-121 -122 0
-121 -123 0
-121 -124 0
-122 -123 0
-122 -124 0
-123 -124 0
-125 -126 0
-125 -127 0
-125 -128 0
-126 -127 0
-126 -128 0
-127 -128 0
-129 -130 0
-129 -131 0
-129 -132 0
-130 -131 0
-130 -132 0
-131 -132 0
-133 -134 0
-133 -135 0
-133 -136 0
-134 -135 0
-134 -136 0
-135 -136 0
-137 -138 0
-137 -139 0
-137 -140 0
-138 -139 0
-138 -140 0
-139 -140 0
-141 -142 0
-141 -143 0
-141 -144 0
-142 -143 0
-142 -144 0
-143 -144 0
-145 -146 0
-145 -147 0
-145 -148 0
-146 -147 0
-146 -148 0
-147 -148 0
-149 -150 0
-149 -151 0
-149 -152 0
-150 -151 0
-150 -152 0
-151 -152 0
-153 -154 0
-153 -155 0
-153 -156 0
-154 -155 0
-154 -156 0
-155 -156 0
-157 -158 0
-157 -159 0
-157 -160 0
-158 -159 0
-158 -160 0
-159 -160 0
-161 -162 0
-161 -163 0
-161 -164 0
-162 -163 0
-162 -164 0
-163 -164 0
-165 -166 0
-165 -167 0
-165 -168 0
-166 -167 0
-166 -168 0
-167 -168 0
-169 -170 0
-169 -171 0
-169 -172 0
-170 -171 0
-170 -172 0
-171 -172 0
-173 -174 0
-173 -175 0
-173 -176 0
-174 -175 0
-174 -176 0
-175 -176 0
-177 -178 0
-177 -179 0
-177 -180 0
-178 -179 0
-178 -180 0
-179 -180 0
-181 -182 0
-181 -183 0
-181 -184 0
-182 -183 0
-182 -184 0
-183 -184 0
-185 -186 0
-185 -187 0
-185 -188 0
-186 -187 0
-186 -188 0
-187 -188 0
-189 -190 0
-189 -191 0
-189 -192 0
-190 -191 0
-190 -192 0
-191 -192 0
-193 -194 0
-193 -195 0
-193 -196 0
-194 -195 0
-194 -196 0
-195 -196 0
-197 -198 0
-197 -199 0
-197 -200 0
-198 -199 0
-198 -200 0
-199 -200 0
-201 -202 0
-201 -203 0
-201 -204 0
-202 -203 0
-202 -204 0
-203 -204 0
-205 -206 0
-205 -207 0
-205 -208 0
-206 -207 0
-206 -208 0
-207 -208 0
-209 -210 0
-209 -211 0
-209 -212 0
-210 -211 0
-210 -212 0
-211 -212 0
-213 -214 0
-213 -215 0
-213 -216 0
-214 -215 0
-214 -216 0
-215 -216 0
-217 -218 0
-217 -219 0
-217 -220 0
-218 -219 0
-218 -220 0
-219 -220 0
-221 -222 0
-221 -223 0
-221 -224 0
-222 -223 0
-222 -224 0
-223 -224 0
-225 -226 0
-225 -227 0
-225 -228 0
-226 -227 0
-226 -228 0
-227 -228 0
-229 -230 0
-229 -231 0
-229 -232 0
-230 -231 0
-230 -232 0
-231 -232 0
-233 -234 0
-233 -235 0
-233 -236 0
-234 -235 0
-234 -236 0
-235 -236 0
-237 -238 0
-237 -239 0
-237 -240 0
-238 -239 0
-238 -240 0
-239 -240 0
-241 -242 0
-241 -243 0
-241 -244 0
-242 -243 0
-242 -244 0
-243 -244 0
-245 -246 0
-245 -247 0
-245 -248 0
-246 -247 0
-246 -248 0
-247 -248 0
-249 -250 0
-249 -251 0
-249 -252 0
-250 -251 0
-250 -252 0
-251 -252 0
-253 -254 0
-253 -255 0
-253 -256 0
-254 -255 0
-254 -256 0
-255 -256 0
-257 -258 0
-257 -259 0
-257 -260 0
-258 -259 0
-258 -260 0
-259 -260 0
-261 -262 0
-261 -263 0
-261 -264 0
-262 -263 0
-262 -264 0
-263 -264 0
-265 -266 0
-265 -267 0
-265 -268 0
-266 -267 0
-266 -268 0
-267 -268 0
-269 -270 0
-269 -271 0
-269 -272 0
-270 -271 0
-270 -272 0
-271 -272 0
-273 -274 0
-273 -275 0
-273 -276 0
-274 -275 0
-274 -276 0
-275 -276 0
-277 -278 0
-277 -279 0
-277 -280 0
-278 -279 0
-278 -280 0
-279 -280 0
-281 -282 0
-281 -283 0
-281 -284 0
-282 -283 0
-282 -284 0
-283 -284 0
-285 -286 0
-285 -287 0
-285 -288 0
-286 -287 0
-286 -288 0
-287 -288 0
-289 -290 0
-289 -291 0
-289 -292 0
-290 -291 0
-290 -292 0
-291 -292 0
-293 -294 0
-293 -295 0
-293 -296 0
-294 -295 0
-294 -296 0
-295 -296 0
-297 -298 0
-297 -299 0
-297 -300 0
-298 -299 0
-298 -300 0
-299 -300 0
-301 -302 0
-301 -303 0
-301 -304 0
-302 -303 0
-302 -304 0
-303 -304 0
-305 -306 0
-305 -307 0
-305 -308 0
-306 -307 0
-306 -308 0
-307 -308 0
-309 -310 0
-309 -311 0
-309 -312 0
-310 -311 0
-310 -312 0
-311 -312 0
-313 -314 0
-313 -315 0
-313 -316 0
-314 -315 0
-314 -316 0
-315 -316 0
-317 -318 0
-317 -319 0
-317 -320 0
-318 -319 0
-318 -320 0
-319 -320 0
-321 -322 0
-321 -323 0
-321 -324 0
-322 -323 0
-322 -324 0
-323 -324 0
-325 -326 0
-325 -327 0
-325 -328 0
-326 -327 0
-326 -328 0
-327 -328 0
-329 -330 0
-329 -331 0
-329 -332 0
-330 -331 0
-330 -332 0
-331 -332 0
-333 -334 0
-333 -335 0
-333 -336 0
-334 -335 0
-334 -336 0
-335 -336 0
-337 -338 0
-337 -339 0
-337 -340 0
-338 -339 0
-338 -340 0
-339 -340 0
-341 -342 0
-341 -343 0
-341 -344 0
-342 -343 0
-342 -344 0
-343 -344 0
-345 -346 0
-345 -347 0
-345 -348 0
-346 -347 0
-346 -348 0
-347 -348 0
-349 -350 0
-349 -351 0
-349 -352 0
-350 -351 0
-350 -352 0
-351 -352 0
-353 -354 0
-353 -355 0
-353 -356 0
-354 -355 0
-354 -356 0
-355 -356 0
-357 -358 0
-357 -359 0
-357 -360 0
-358 -359 0
-358 -360 0
-359 -360 0
-361 -362 0
-361 -363 0
-361 -364 0
-362 -363 0
-362 -364 0
-363 -364 0
-365 -366 0
-365 -367 0
-365 -368 0
-366 -367 0
-366 -368 0
-367 -368 0
-369 -370 0
-369 -371 0
-369 -372 0
-370 -371 0
-370 -372 0
-371 -372 0
-373 -374 0
-373 -375 0
-373 -376 0
-374 -375 0
-374 -376 0
-375 -376 0
-377 -378 0
-377 -379 0
-377 -380 0
-378 -379 0
-378 -380 0
-379 -380 0
-381 -382 0
-381 -383 0
-381 -384 0
-382 -383 0
-382 -384 0
-383 -384 0
-385 -386 0
-385 -387 0
-385 -388 0
-386 -387 0
-386 -388 0
-387 -388 0
-389 -390 0
-389 -391 0
-389 -392 0
-390 -391 0
-390 -392 0
-391 -392 0
-393 -394 0
-393 -395 0
-393 -396 0
-394 -395 0
-394 -396 0
-395 -396 0
-397 -398 0
-397 -399 0
-397 -400 0
-398 -399 0
-398 -400 0
-399 -400 0
-401 -402 0
-401 -403 0
-401 -404 0
-402 -403 0
-402 -404 0
-403 -404 0
-405 -406 0
-405 -407 0
-405 -408 0
-406 -407 0
-406 -408 0
-407 -408 0
-409 -410 0
-409 -411 0
-409 -412 0
-410 -411 0
-410 -412 0
-411 -412 0
1 0
-6 1 0
-7 0
-8 0
-10 1 5 0
-11 2 6 0
-12 0
-14 1 5 9 0
-15 2 6 10 0
-16 3 7 11 0
-18 1 5 9 13 0
-19 2 6 10 14 0
-20 3 7 11 15 0
-22 1 5 9 13 17 0
-23 2 6 10 14 18 0
-24 3 7 11 15 19 0
-26 1 5 9 13 17 21 0
-27 2 6 10 14 18 22 0
-28 3 7 11 15 19 23 0
-30 1 5 9 13 17 21 25 0
-31 2 6 10 14 18 22 26 0
-32 3 7 11 15 19 23 27 0
-34 1 5 9 13 17 21 25 29 0
-35 2 6 10 14 18 22 26 30 0
-36 3 7 11 15 19 23 27 31 0
-38 1 5 9 13 17 21 25 29 33 0
-39 2 6 10 14 18 22 26 30 34 0
-40 3 7 11 15 19 23 27 31 35 0
-42 1 5 9 13 17 21 25 29 33 37 0
-43 2 6 10 14 18 22 26 30 34 38 0
-44 3 7 11 15 19 23 27 31 35 39 0
-46 1 5 9 13 17 21 25 29 33 37 41 0
-47 2 6 10 14 18 22 26 30 34 38 42 0
-48 3 7 11 15 19 23 27 31 35 39 43 0
-50 1 5 9 13 17 21 25 29 33 37 41 45 0
-51 2 6 10 14 18 22 26 30 34 38 42 46 0
-52 3 7 11 15 19 23 27 31 35 39 43 47 0
-54 1 5 9 13 17 21 25 29 33 37 41 45 49 0
-55 2 6 10 14 18 22 26 30 34 38 42 46 50 0
-56 3 7 11 15 19 23 27 31 35 39 43 47 51 0
-58 1 5 9 13 17 21 25 29 33 37 41 45 49 53 0
-59 2 6 10 14 18 22 26 30 34 38 42 46 50 54 0
-60 3 7 11 15 19 23 27 31 35 39 43 47 51 55 0
-62 1 5 9 13 17 21 25 29 33 37 41 45 49 53 57 0
-63 2 6 10 14 18 22 26 30 34 38 42 46 50 54 58 0
-64 3 7 11 15 19 23 27 31 35 39 43 47 51 55 59 0
-66 1 5 9 13 17 21 25 29 33 37 41 45 49 53 57 61 0
-67 2 6 10 14 18 22 26 30 34 38 42 46 50 54 58 62 0
-68 3 7 11 15 19 23 27 31 35 39 43 47 51 55 59 63 0
-70 1 5 9 13 17 21 25 29 33 37 41 45 49 53 57 61 65 0
-71 2 6 10 14 18 22 26 30 34 38 42 46 50 54 58 62 66 0
-72 3 7 11 15 19 23 27 31 35 39 43 47 51 55 59 63 67 0
-74 1 5 9 13 17 21 25 29 33 37 41 45 49 53 57 61 65 69 0
-75 2 6 10 14 18 22 26 30 34 38 42 46 50 54 58 62 66 70 0
-76 3 7 11 15 19 23 27 31 35 39 43 47 51 55 59 63 67 71 0
-78 1 5 9 13 17 21 25 29 33 37 41 45 49 53 57 61 65 69 73 0
-79 2 6 10 14 18 22 26 30 34 38 42 46 50 54 58 62 66 70 74 0
-80 3 7 11 15 19 23 27 31 35 39 43 47 51 55 59 63 67 71 75 0
-82 1 5 9 13 17 21 25 29 33 37 41 45 49 53 57 61 65 69 73 77 0
-83 2 6 10 14 18 22 26 30 34 38 42 46 50 54 58 62 66 70 74 78 0
-84 3 7 11 15 19 23 27 31 35 39 43 47 51 55 59 63 67 71 75 79 0
-86 1 5 9 13 17 21 25 29 33 37 41 45 49 53 57 61 65 69 73 77 81 0
-87 2 6 10 14 18 22 26 30 34 38 42 46 50 54 58 62 66 70 74 78 82 0
-88 3 7 11 15 19 23 27 31 35 39 43 47 51 55 59 63 67 71 75 79 83 0
-90 1 5 9 13 17 21 25 29 33 37 41 45 49 53 57 61 65 69 73 77 81 85 0
-91 2 6 10 14 18 22 26 30 34 38 42 46 50 54 58 62 66 70 74 78 82 86 0
-92 3 7 11 15 19 23 27 31 35 39 43 47 51 55 59 63 67 71 75 79 83 87 0
-94 1 5 9 13 17 21 25 29 33 37 41 45 49 53 57 61 65 69 73 77 81 85 89 0
-95 2 6 10 14 18 22 26 30 34 38 42 46 50 54 58 62 66 70 74 78 82 86 90 0
-96 3 7 11 15 19 23 27 31 35 39 43 47 51 55 59 63 67 71 75 79 83 87 91 0
-98 1 5 9 13 17 21 25 29 33 37 41 45 49 53 57 61 65 69 73 77 81 85 89 93 0
-99 2 6 10 14 18 22 26 30 34 38 42 46 50 54 58 62 66 70 74 78 82 86 90 94 0
-100 3 7 11 15 19 23 27 31 35 39 43 47 51 55 59 63 67 71 75 79 83 87 91 95 0
-102 1 5 9 13 17 21 25 29 33 37 41 45 49 53 57 61 65 69 73 77 81 85 89 93 97 0
-103 2 6 10 14 18 22 26 30 34 38 42 46 50 54 58 62 66 70 74 78 82 86 90 94 98 0
-104 3 7 11 15 19 23 27 31 35 39 43 47 51 55 59 63 67 71 75 79 83 87 91 95 99 0
-106 1 5 9 13 17 21 25 29 33 37 41 45 49 53 57 61 65 69 73 77 81 85 89 93 97 101 0
-107 2 6 10 14 18 22 26 30 34 38 42 46 50 54 58 62 66 70 74 78 82 86 90 94 98 102 0
-108 3 7 11 15 19 23 27 31 35 39 43 47 51 55 59 63 67 71 75 79 83 87 91 95 99 103 0
-110 1 5 9 13 17 21 25 29 33 37 41 45 49 53 57 61 65 69 73 77 81 85 89 93 97 101 105 0
-111 2 6 10 14 18 22 26 30 34 38 42 46 50 54 58 62 66 70 74 78 82 86 90 94 98 102 106 0
-112 3 7 11 15 19 23 27 31 35 39 43 47 51 55 59 63 67 71 75 79 83 87 91 95 99 103 107 0
-114 1 5 9 13 17 21 25 29 33 37 41 45 49 53 57 61 65 69 73 77 81 85 89 93 97 101 105 109 0
-115 2 6 10 14 18 22 26 30 34 38 42 46 50 54 58 62 66 70 74 78 82 86 90 94 98 102 106 110 0
-116 3 7 11 15 19 23 27 31 35 39 43 47 51 55 59 63 67 71 75 79 83 87 91 95 99 103 107 111 0
-118 1 5 9 13 17 21 25 29 33 37 41 45 49 53 57 61 65 69 73 77 81 85 89 93 97 101 105 109 113 0
-119 2 6 10 14 18 22 26 30 34 38 42 46 50 54 58 62 66 70 74 78 82 86 90 94 98 102 106 110 114 0
-120 3 7 11 15 19 23 27 31 35 39 43 47 51 55 59 63 67 71 75 79 83 87 91 95 99 103 107 111 115 0
-122 1 5 9 13 17 21 25 29 33 37 41 45 49 53 57 61 65 69 73 77 81 85 89 93 97 101 105 109 113 117 0
-123 2 6 10 14 18 22 26 30 34 38 42 46 50 54 58 62 66 70 74 78 82 86 90 94 98 102 106 110 114 118 0
-124 3 7 11 15 19 23 27 31 35 39 43 47 51 55 59 63 67 71 75 79 83 87 91 95 99 103 107 111 115 119 0
-126 1 5 9 13 17 21 25 29 33 37 41 45 49 53 57 61 65 69 73 77 81 85 89 93 97 101 105 109 113 117 121 0
-127 2 6 10 14 18 22 26 30 34 38 42 46 50 54 58 62 66 70 74 78 82 86 90 94 98 102 106 110 114 118 122 0
-128 3 7 11 15 19 23 27 31 35 39 43 47 51 55 59 63 67 71 75 79 83 87 91 95 99 103 107 111 115 119 123 0
-130 1 5 9 13 17 21 25 29 33 37 41 45 49 53 57 61 65 69 73 77 81 85 89 93 97 101 105 109 113 117 121 125 0
-131 2 6 10 14 18 22 26 30 34 38 42 46 50 54 58 62 66 70 74 78 82 86 90 94 98 102 106 110 114 118 122 126 0
-132 3 7 11 15 19 23 27 31 35 39 43 47 51 55 59 63 67 71 75 79 83 87 91 95 99 103 107 111 115 119 123 127 0
-134 1 5 9 13 17 21 25 29 33 37 41 45 49 53 57 61 65 69 73 77 81 85 89 93 97 101 105 109 113 117 121 125 129 0
-135 2 6 10 14 18 22 26 30 34 38 42 46 50 54 58 62 66 70 74 78 82 86 90 94 98 102 106 110 114 118 122 126 130 0
-136 3 7 11 15 19 23 27 31 35 39 43 47 51 55 59 63 67 71 75 79 83 87 91 95 99 103 107 111 115 119 123 127 131 0
-138 1 5 9 13 17 21 25 29 33 37 41 45 49 53 57 61 65 69 73 77 81 85 89 93 97 101 105 109 113 117 121 125 129 133 0
-139 2 6 10 14 18 22 26 30 34 38 42 46 50 54 58 62 66 70 74 78 82 86 90 94 98 102 106 110 114 118 122 126 130 134 0
-140 3 7 11 15 19 23 27 31 35 39 43 47 51 55 59 63 67 71 75 79 83 87 91 95 99 103 107 111 115 119 123 127 131 135 0
-142 1 5 9 13 17 21 25 29 33 37 41 45 49 53 57 61 65 69 73 77 81 85 89 93 97 101 105 109 113 117 121 125 129 133 137 0
-143 2 6 10 14 18 22 26 30 34 38 42 46 50 54 58 62 66 70 74 78 82 86 90 94 98 102 106 110 114 118 122 126 130 134 138 0
-144 3 7 11 15 19 23 27 31 35 39 43 47 51 55 59 63 67 71 75 79 83 87 91 95 99 103 107 111 115 119 123 127 131 135 139 0
-146 1 5 9 13 17 21 25 29 33 37 41 45 49 53 57 61 65 69 73 77 81 85 89 93 97 101 105 109 113 117 121 125 129 133 137 141 0
-147 2 6 10 14 18 22 26 30 34 38 42 46 50 54 58 62 66 70 74 78 82 86 90 94 98 102 106 110 114 118 122 126 130 134 138 142 0
-148 3 7 11 15 19 23 27 31 35 39 43 47 51 55 59 63 67 71 75 79 83 87 91 95 99 103 107 111 115 119 123 127 131 135 139 143 0
-150 1 5 9 13 17 21 25 29 33 37 41 45 49 53 57 61 65 69 73 77 81 85 89 93 97 101 105 109 113 117 121 125 129 133 137 141 145 0
-151 2 6 10 14 18 22 26 30 34 38 42 46 50 54 58 62 66 70 74 78 82 86 90 94 98 102 106 110 114 118 122 126 130 134 138 142 146 0
-152 3 7 11 15 19 23 27 31 35 39 43 47 51 55 59 63 67 71 75 79 83 87 91 95 99 103 107 111 115 119 123 127 131 135 139 143 147 0
-154 1 5 9 13 17 21 25 29 33 37 41 45 49 53 57 61 65 69 73 77 81 85 89 93 97 101 105 109 113 117 121 125 129 133 137 141 145 149 0
-155 2 6 10 14 18 22 26 30 34 38 42 46 50 54 58 62 66 70 74 78 82 86 90 94 98 102 106 110 114 118 122 126 130 134 138 142 146 150 0
-156 3 7 11 15 19 23 27 31 35 39 43 47 51 55 59 63 67 71 75 79 83 87 91 95 99 103 107 111 115 119 123 127 131 135 139 143 147 151 0
-158 1 5 9 13 17 21 25 29 33 37 41 45 49 53 57 61 65 69 73 77 81 85 89 93 97 101 105 109 113 117 121 125 129 133 137 141 145 149 153 0
-159 2 6 10 14 18 22 26 30 34 38 42 46 50 54 58 62 66 70 74 78 82 86 90 94 98 102 106 110 114 118 122 126 130 134 138 142 146 150 154 0
-160 3 7 11 15 19 23 27 31 35 39 43 47 51 55 59 63 67 71 75 79 83 87 91 95 99 103 107 111 115 119 123 127 131 135 139 143 147 151 155 0
-162 1 5 9 13 17 21 25 29 33 37 41 45 49 53 57 61 65 69 73 77 81 85 89 93 97 101 105 109 113 117 121 125 129 133 137 141 145 149 153 157 0
-163 2 6 10 14 18 22 26 30 34 38 42 46 50 54 58 62 66 70 74 78 82 86 90 94 98 102 106 110 114 118 122 126 130 134 138 142 146 150 154 158 0
-164 3 7 11 15 19 23 27 31 35 39 43 47 51 55 59 63 67 71 75 79 83 87 91 95 99 103 107 111 115 119 123 127 131 135 139 143 147 151 155 159 0
-166 1 5 9 13 17 21 25 29 33 37 41 45 49 53 57 61 65 69 73 77 81 85 89 93 97 101 105 109 113 117 121 125 129 133 137 141 145 149 153 157 161 0
-167 2 6 10 14 18 22 26 30 34 38 42 46 50 54 58 62 66 70 74 78 82 86 90 94 98 102 106 110 114 118 122 126 130 134 138 142 146 150 154 158 162 0
-168 3 7 11 15 19 23 27 31 35 39 43 47 51 55 59 63 67 71 75 79 83 87 91 95 99 103 107 111 115 119 123 127 131 135 139 143 147 151 155 159 163 0
-170 1 5 9 13 17 21 25 29 33 37 41 45 49 53 57 61 65 69 73 77 81 85 89 93 97 101 105 109 113 117 121 125 129 133 137 141 145 149 153 157 161 165 0
-171 2 6 10 14 18 22 26 30 34 38 42 46 50 54 58 62 66 70 74 78 82 86 90 94 98 102 106 110 114 118 122 126 130 134 138 142 146 150 154 158 162 166 0
-172 3 7 11 15 19 23 27 31 35 39 43 47 51 55 59 63 67 71 75 79 83 87 91 95 99 103 107 111 115 119 123 127 131 135 139 143 147 151 155 159 163 167 0
-174 1 5 9 13 17 21 25 29 33 37 41 45 49 53 57 61 65 69 73 77 81 85 89 93 97 101 105 109 113 117 121 125 129 133 137 141 145 149 153 157 161 165 169 0
-175 2 6 10 14 18 22 26 30 34 38 42 46 50 54 58 62 66 70 74 78 82 86 90 94 98 102 106 110 114 118 122 126 130 134 138 142 146 150 154 158 162 166 170 0
-176 3 7 11 15 19 23 27 31 35 39 43 47 51 55 59 63 67 71 75 79 83 87 91 95 99 103 107 111 115 119 123 127 131 135 139 143 147 151 155 159 163 167 171 0
-178 1 5 9 13 17 21 25 29 33 37 41 45 49 53 57 61 65 69 73 77 81 85 89 93 97 101 105 109 113 117 121 125 129 133 137 141 145 149 153 157 161 165 169 173 0
-179 2 6 10 14 18 22 26 30 34 38 42 46 50 54 58 62 66 70 74 78 82 86 90 94 98 102 106 110 114 118 122 126 130 134 138 142 146 150 154 158 162 166 170 174 0
-180 3 7 11 15 19 23 27 31 35 39 43 47 51 55 59 63 67 71 75 79 83 87 91 95 99 103 107 111 115 119 123 127 131 135 139 143 147 151 155 159 163 167 171 175 0
-182 1 5 9 13 17 21 25 29 33 37 41 45 49 53 57 61 65 69 73 77 81 85 89 93 97 101 105 109 113 117 121 125 129 133 137 141 145 149 153 157 161 165 169 173 177 0
-183 2 6 10 14 18 22 26 30 34 38 42 46 50 54 58 62 66 70 74 78 82 86 90 94 98 102 106 110 114 118 122 126 130 134 138 142 146 150 154 158 162 166 170 174 178 0
-184 3 7 11 15 19 23 27 31 35 39 43 47 51 55 59 63 67 71 75 79 83 87 91 95 99 103 107 111 115 119 123 127 131 135 139 143 147 151 155 159 163 167 171 175 179 0
-186 1 5 9 13 17 21 25 29 33 37 41 45 49 53 57 61 65 69 73 77 81 85 89 93 97 101 105 109 113 117 121 125 129 133 137 141 145 149 153 157 161 165 169 173 177 181 0
-187 2 6 10 14 18 22 26 30 34 38 42 46 50 54 58 62 66 70 74 78 82 86 90 94 98 102 106 110 114 118 122 126 130 134 138 142 146 150 154 158 162 166 170 174 178 182 0
-188 3 7 11 15 19 23 27 31 35 39 43 47 51 55 59 63 67 71 75 79 83 87 91 95 99 103 107 111 115 119 123 127 131 135 139 143 147 151 155 159 163 167 171 175 179 183 0
-190 1 5 9 13 17 21 25 29 33 37 41 45 49 53 57 61 65 69 73 77 81 85 89 93 97 101 105 109 113 117 121 125 129 133 137 141 145 149 153 157 161 165 169 173 177 181 185 0
-191 2 6 10 14 18 22 26 30 34 38 42 46 50 54 58 62 66 70 74 78 82 86 90 94 98 102 106 110 114 118 122 126 130 134 138 142 146 150 154 158 162 166 170 174 178 182 186 0
-192 3 7 11 15 19 23 27 31 35 39 43 47 51 55 59 63 67 71 75 79 83 87 91 95 99 103 107 111 115 119 123 127 131 135 139 143 147 151 155 159 163 167 171 175 179 183 187 0
-194 1 5 9 13 17 21 25 29 33 37 41 45 49 53 57 61 65 69 73 77 81 85 89 93 97 101 105 109 113 117 121 125 129 133 137 141 145 149 153 157 161 165 169 173 177 181 185 189 0
-195 2 6 10 14 18 22 26 30 34 38 42 46 50 54 58 62 66 70 74 78 82 86 90 94 98 102 106 110 114 118 122 126 130 134 138 142 146 150 154 158 162 166 170 174 178 182 186 190 0
-196 3 7 11 15 19 23 27 31 35 39 43 47 51 55 59 63 67 71 75 79 83 87 91 95 99 103 107 111 115 119 123 127 131 135 139 143 147 151 155 159 163 167 171 175 179 183 187 191 0
-198 1 5 9 13 17 21 25 29 33 37 41 45 49 53 57 61 65 69 73 77 81 85 89 93 97 101 105 109 113 117 121 125 129 133 137 141 145 149 153 157 161 165 169 173 177 181 185 189 193 0
-199 2 6 10 14 18 22 26 30 34 38 42 46 50 54 58 62 66 70 74 78 82 86 90 94 98 102 106 110 114 118 122 126 130 134 138 142 146 150 154 158 162 166 170 174 178 182 186 190 194 0
-200 3 7 11 15 19 23 27 31 35 39 43 47 51 55 59 63 67 71 75 79 83 87 91 95 99 103 107 111 115 119 123 127 131 135 139 143 147 151 155 159 163 167 171 175 179 183 187 191 195 0
-202 1 5 9 13 17 21 25 29 33 37 41 45 49 53 57 61 65 69 73 77 81 85 89 93 97 101 105 109 113 117 121 125 129 133 137 141 145 149 153 157 161 165 169 173 177 181 185 189 193 197 0
-203 2 6 10 14 18 22 26 30 34 38 42 46 50 54 58 62 66 70 74 78 82 86 90 94 98 102 106 110 114 118 122 126 130 134 138 142 146 150 154 158 162 166 170 174 178 182 186 190 194 198 0
-204 3 7 11 15 19 23 27 31 35 39 43 47 51 55 59 63 67 71 75 79 83 87 91 95 99 103 107 111 115 119 123 127 131 135 139 143 147 151 155 159 163 167 171 175 179 183 187 191 195 199 0
-206 1 5 9 13 17 21 25 29 33 37 41 45 49 53 57 61 65 69 73 77 81 85 89 93 97 101 105 109 113 117 121 125 129 133 137 141 145 149 153 157 161 165 169 173 177 181 185 189 193 197 201 0
-207 2 6 10 14 18 22 26 30 34 38 42 46 50 54 58 62 66 70 74 78 82 86 90 94 98 102 106 110 114 118 122 126 130 134 138 142 146 150 154 158 162 166 170 174 178 182 186 190 194 198 202 0
-208 3 7 11 15 19 23 27 31 35 39 43 47 51 55 59 63 67 71 75 79 83 87 91 95 99 103 107 111 115 119 123 127 131 135 139 143 147 151 155 159 163 167 171 175 179 183 187 191 195 199 203 0
-210 1 5 9 13 17 21 25 29 33 37 41 45 49 53 57 61 65 69 73 77 81 85 89 93 97 101 105 109 113 117 121 125 129 133 137 141 145 149 153 157 161 165 169 173 177 181 185 189 193 197 201 205 0
-211 2 6 10 14 18 22 26 30 34 38 42 46 50 54 58 62 66 70 74 78 82 86 90 94 98 102 106 110 114 118 122 126 130 134 138 142 146 150 154 158 162 166 170 174 178 182 186 190 194 198 202 206 0
-212 3 7 11 15 19 23 27 31 35 39 43 47 51 55 59 63 67 71 75 79 83 87 91 95 99 103 107 111 115 119 123 127 131 135 139 143 147 151 155 159 163 167 171 175 179 183 187 191 195 199 203 207 0
-214 1 5 9 13 17 21 25 29 33 37 41 45 49 53 57 61 65 69 73 77 81 85 89 93 97 101 105 109 113 117 121 125 129 133 137 141 145 149 153 157 161 165 169 173 177 181 185 189 193 197 201 205 209 0
-215 2 6 10 14 18 22 26 30 34 38 42 46 50 54 58 62 66 70 74 78 82 86 90 94 98 102 106 110 114 118 122 126 130 134 138 142 146 150 154 158 162 166 170 174 178 182 186 190 194 198 202 206 210 0
-216 3 7 11 15 19 23 27 31 35 39 43 47 51 55 59 63 67 71 75 79 83 87 91 95 99 103 107 111 115 119 123 127 131 135 139 143 147 151 155 159 163 167 171 175 179 183 187 191 195 199 203 207 211 0
-218 1 5 9 13 17 21 25 29 33 37 41 45 49 53 57 61 65 69 73 77 81 85 89 93 97 101 105 109 113 117 121 125 129 133 137 141 145 149 153 157 161 165 169 173 177 181 185 189 193 197 201 205 209 213 0
-219 2 6 10 14 18 22 26 30 34 38 42 46 50 54 58 62 66 70 74 78 82 86 90 94 98 102 106 110 114 118 122 126 130 134 138 142 146 150 154 158 162 166 170 174 178 182 186 190 194 198 202 206 210 214 0
-220 3 7 11 15 19 23 27 31 35 39 43 47 51 55 59 63 67 71 75 79 83 87 91 95 99 103 107 111 115 119 123 127 131 135 139 143 147 151 155 159 163 167 171 175 179 183 187 191 195 199 203 207 211 215 0
-222 1 5 9 13 17 21 25 29 33 37 41 45 49 53 57 61 65 69 73 77 81 85 89 93 97 101 105 109 113 117 121 125 129 133 137 141 145 149 153 157 161 165 169 173 177 181 185 189 193 197 201 205 209 213 217 0
-223 2 6 10 14 18 22 26 30 34 38 42 46 50 54 58 62 66 70 74 78 82 86 90 94 98 102 106 110 114 118 122 126 130 134 138 142 146 150 154 158 162 166 170 174 178 182 186 190 194 198 202 206 210 214 218 0
-224 3 7 11 15 19 23 27 31 35 39 43 47 51 55 59 63 67 71 75 79 83 87 91 95 99 103 107 111 115 119 123 127 131 135 139 143 147 151 155 159 163 167 171 175 179 183 187 191 195 199 203 207 211 215 219 0
-226 1 5 9 13 17 21 25 29 33 37 41 45 49 53 57 61 65 69 73 77 81 85 89 93 97 101 105 109 113 117 121 125 129 133 137 141 145 149 153 157 161 165 169 173 177 181 185 189 193 197 201 205 209 213 217 221 0
-227 2 6 10 14 18 22 26 30 34 38 42 46 50 54 58 62 66 70 74 78 82 86 90 94 98 102 106 110 114 118 122 126 130 134 138 142 146 150 154 158 162 166 170 174 178 182 186 190 194 198 202 206 210 214 218 222 0
-228 3 7 11 15 19 23 27 31 35 39 43 47 51 55 59 63 67 71 75 79 83 87 91 95 99 103 107 111 115 119 123 127 131 135 139 143 147 151 155 159 163 167 171 175 179 183 187 191 195 199 203 207 211 215 219 223 0
-230 1 5 9 13 17 21 25 29 33 37 41 45 49 53 57 61 65 69 73 77 81 85 89 93 97 101 105 109 113 117 121 125 129 133 137 141 145 149 153 157 161 165 169 173 177 181 185 189 193 197 201 205 209 213 217 221 225 0
-231 2 6 10 14 18 22 26 30 34 38 42 46 50 54 58 62 66 70 74 78 82 86 90 94 98 102 106 110 114 118 122 126 130 134 138 142 146 150 154 158 162 166 170 174 178 182 186 190 194 198 202 206 210 214 218 222 226 0
-232 3 7 11 15 19 23 27 31 35 39 43 47 51 55 59 63 67 71 75 79 83 87 91 95 99 103 107 111 115 119 123 127 131 135 139 143 147 151 155 159 163 167 171 175 179 183 187 191 195 199 203 207 211 215 219 223 227 0
-234 1 5 9 13 17 21 25 29 33 37 41 45 49 53 57 61 65 69 73 77 81 85 89 93 97 101 105 109 113 117 121 125 129 133 137 141 145 149 153 157 161 165 169 173 177 181 185 189 193 197 201 205 209 213 217 221 225 229 0
-235 2 6 10 14 18 22 26 30 34 38 42 46 50 54 58 62 66 70 74 78 82 86 90 94 98 102 106 110 114 118 122 126 130 134 138 142 146 150 154 158 162 166 170 174 178 182 186 190 194 198 202 206 210 214 218 222 226 230 0
-236 3 7 11 15 19 23 27 31 35 39 43 47 51 55 59 63 67 71 75 79 83 87 91 95 99 103 107 111 115 119 123 127 131 135 139 143 147 151 155 159 163 167 171 175 179 183 187 191 195 199 203 207 211 215 219 223 227 231 0
-238 1 5 9 13 17 21 25 29 33 37 41 45 49 53 57 61 65 69 73 77 81 85 89 93 97 101 105 109 113 117 121 125 129 133 137 141 145 149 153 157 161 165 169 173 177 181 185 189 193 197 201 205 209 213 217 221 225 229 233 0
-239 2 6 10 14 18 22 26 30 34 38 42 46 50 54 58 62 66 70 74 78 82 86 90 94 98 102 106 110 114 118 122 126 130 134 138 142 146 150 154 158 162 166 170 174 178 182 186 190 194 198 202 206 210 214 218 222 226 230 234 0
-240 3 7 11 15 19 23 27 31 35 39 43 47 51 55 59 63 67 71 75 79 83 87 91 95 99 103 107 111 115 119 123 127 131 135 139 143 147 151 155 159 163 167 171 175 179 183 187 191 195 199 203 207 211 215 219 223 227 231 235 0
-242 1 5 9 13 17 21 25 29 33 37 41 45 49 53 57 61 65 69 73 77 81 85 89 93 97 101 105 109 113 117 121 125 129 133 137 141 145 149 153 157 161 165 169 173 177 181 185 189 193 197 201 205 209 213 217 221 225 229 233 237 0
-243 2 6 10 14 18 22 26 30 34 38 42 46 50 54 58 62 66 70 74 78 82 86 90 94 98 102 106 110 114 118 122 126 130 134 138 142 146 150 154 158 162 166 170 174 178 182 186 190 194 198 202 206 210 214 218 222 226 230 234 238 0
-244 3 7 11 15 19 23 27 31 35 39 43 47 51 55 59 63 67 71 75 79 83 87 91 95 99 103 107 111 115 119 123 127 131 135 139 143 147 151 155 159 163 167 171 175 179 183 187 191 195 199 203 207 211 215 219 223 227 231 235 239 0
-246 1 5 9 13 17 21 25 29 33 37 41 45 49 53 57 61 65 69 73 77 81 85 89 93 97 101 105 109 113 117 121 125 129 133 137 141 145 149 153 157 161 165 169 173 177 181 185 189 193 197 201 205 209 213 217 221 225 229 233 237 241 0
-247 2 6 10 14 18 22 26 30 34 38 42 46 50 54 58 62 66 70 74 78 82 86 90 94 98 102 106 110 114 118 122 126 130 134 138 142 146 150 154 158 162 166 170 174 178 182 186 190 194 198 202 206 210 214 218 222 226 230 234 238 242 0
-248 3 7 11 15 19 23 27 31 35 39 43 47 51 55 59 63 67 71 75 79 83 87 91 95 99 103 107 111 115 119 123 127 131 135 139 143 147 151 155 159 163 167 171 175 179 183 187 191 195 199 203 207 211 215 219 223 227 231 235 239 243 0
-250 1 5 9 13 17 21 25 29 33 37 41 45 49 53 57 61 65 69 73 77 81 85 89 93 97 101 105 109 113 117 121 125 129 133 137 141 145 149 153 157 161 165 169 173 177 181 185 189 193 197 201 205 209 213 217 221 225 229 233 237 241 245 0
-251 2 6 10 14 18 22 26 30 34 38 42 46 50 54 58 62 66 70 74 78 82 86 90 94 98 102 106 110 114 118 122 126 130 134 138 142 146 150 154 158 162 166 170 174 178 182 186 190 194 198 202 206 210 214 218 222 226 230 234 238 242 246 0
-252 3 7 11 15 19 23 27 31 35 39 43 47 51 55 59 63 67 71 75 79 83 87 91 95 99 103 107 111 115 119 123 127 131 135 139 143 147 151 155 159 163 167 171 175 179 183 187 191 195 199 203 207 211 215 219 223 227 231 235 239 243 247 0
-254 1 5 9 13 17 21 25 29 33 37 41 45 49 53 57 61 65 69 73 77 81 85 89 93 97 101 105 109 113 117 121 125 129 133 137 141 145 149 153 157 161 165 169 173 177 181 185 189 193 197 201 205 209 213 217 221 225 229 233 237 241 245 249 0
-255 2 6 10 14 18 22 26 30 34 38 42 46 50 54 58 62 66 70 74 78 82 86 90 94 98 102 106 110 114 118 122 126 130 134 138 142 146 150 154 158 162 166 170 174 178 182 186 190 194 198 202 206 210 214 218 222 226 230 234 238 242 246 250 0
-256 3 7 11 15 19 23 27 31 35 39 43 47 51 55 59 63 67 71 75 79 83 87 91 95 99 103 107 111 115 119 123 127 131 135 139 143 147 151 155 159 163 167 171 175 179 183 187 191 195 199 203 207 211 215 219 223 227 231 235 239 243 247 251 0
-258 1 5 9 13 17 21 25 29 33 37 41 45 49 53 57 61 65 69 73 77 81 85 89 93 97 101 105 109 113 117 121 125 129 133 137 141 145 149 153 157 161 165 169 173 177 181 185 189 193 197 201 205 209 213 217 221 225 229 233 237 241 245 249 253 0
-259 2 6 10 14 18 22 26 30 34 38 42 46 50 54 58 62 66 70 74 78 82 86 90 94 98 102 106 110 114 118 122 126 130 134 138 142 146 150 154 158 162 166 170 174 178 182 186 190 194 198 202 206 210 214 218 222 226 230 234 238 242 246 250 254 0
-260 3 7 11 15 19 23 27 31 35 39 43 47 51 55 59 63 67 71 75 79 83 87 91 95 99 103 107 111 115 119 123 127 131 135 139 143 147 151 155 159 163 167 171 175 179 183 187 191 195 199 203 207 211 215 219 223 227 231 235 239 243 247 251 255 0
-262 1 5 9 13 17 21 25 29 33 37 41 45 49 53 57 61 65 69 73 77 81 85 89 93 97 101 105 109 113 117 121 125 129 133 137 141 145 149 153 157 161 165 169 173 177 181 185 189 193 197 201 205 209 213 217 221 225 229 233 237 241 245 249 253 257 0
-263 2 6 10 14 18 22 26 30 34 38 42 46 50 54 58 62 66 70 74 78 82 86 90 94 98 102 106 110 114 118 122 126 130 134 138 142 146 150 154 158 162 166 170 174 178 182 186 190 194 198 202 206 210 214 218 222 226 230 234 238 242 246 250 254 258 0
-264 3 7 11 15 19 23 27 31 35 39 43 47 51 55 59 63 67 71 75 79 83 87 91 95 99 103 107 111 115 119 123 127 131 135 139 143 147 151 155 159 163 167 171 175 179 183 187 191 195 199 203 207 211 215 219 223 227 231 235 239 243 247 251 255 259 0
-266 1 5 9 13 17 21 25 29 33 37 41 45 49 53 57 61 65 69 73 77 81 85 89 93 97 101 105 109 113 117 121 125 129 133 137 141 145 149 153 157 161 165 169 173 177 181 185 189 193 197 201 205 209 213 217 221 225 229 233 237 241 245 249 253 257 261 0
-267 2 6 10 14 18 22 26 30 34 38 42 46 50 54 58 62 66 70 74 78 82 86 90 94 98 102 106 110 114 118 122 126 130 134 138 142 146 150 154 158 162 166 170 174 178 182 186 190 194 198 202 206 210 214 218 222 226 230 234 238 242 246 250 254 258 262 0
-268 3 7 11 15 19 23 27 31 35 39 43 47 51 55 59 63 67 71 75 79 83 87 91 95 99 103 107 111 115 119 123 127 131 135 139 143 147 151 155 159 163 167 171 175 179 183 187 191 195 199 203 207 211 215 219 223 227 231 235 239 243 247 251 255 259 263 0
-270 1 5 9 13 17 21 25 29 33 37 41 45 49 53 57 61 65 69 73 77 81 85 89 93 97 101 105 109 113 117 121 125 129 133 137 141 145 149 153 157 161 165 169 173 177 181 185 189 193 197 201 205 209 213 217 221 225 229 233 237 241 245 249 253 257 261 265 0
-271 2 6 10 14 18 22 26 30 34 38 42 46 50 54 58 62 66 70 74 78 82 86 90 94 98 102 106 110 114 118 122 126 130 134 138 142 146 150 154 158 162 166 170 174 178 182 186 190 194 198 202 206 210 214 218 222 226 230 234 238 242 246 250 254 258 262 266 0
-272 3 7 11 15 19 23 27 31 35 39 43 47 51 55 59 63 67 71 75 79 83 87 91 95 99 103 107 111 115 119 123 127 131 135 139 143 147 151 155 159 163 167 171 175 179 183 187 191 195 199 203 207 211 215 219 223 227 231 235 239 243 247 251 255 259 263 267 0
-274 1 5 9 13 17 21 25 29 33 37 41 45 49 53 57 61 65 69 73 77 81 85 89 93 97 101 105 109 113 117 121 125 129 133 137 141 145 149 153 157 161 165 169 173 177 181 185 189 193 197 201 205 209 213 217 221 225 229 233 237 241 245 249 253 257 261 265 269 0
-275 2 6 10 14 18 22 26 30 34 38 42 46 50 54 58 62 66 70 74 78 82 86 90 94 98 102 106 110 114 118 122 126 130 134 138 142 146 150 154 158 162 166 170 174 178 182 186 190 194 198 202 206 210 214 218 222 226 230 234 238 242 246 250 254 258 262 266 270 0
-276 3 7 11 15 19 23 27 31 35 39 43 47 51 55 59 63 67 71 75 79 83 87 91 95 99 103 107 111 115 119 123 127 131 135 139 143 147 151 155 159 163 167 171 175 179 183 187 191 195 199 203 207 211 215 219 223 227 231 235 239 243 247 251 255 259 263 267 271 0
-278 1 5 9 13 17 21 25 29 33 37 41 45 49 53 57 61 65 69 73 77 81 85 89 93 97 101 105 109 113 117 121 125 129 133 137 141 145 149 153 157 161 165 169 173 177 181 185 189 193 197 201 205 209 213 217 221 225 229 233 237 241 245 249 253 257 261 265 269 273 0
-279 2 6 10 14 18 22 26 30 34 38 42 46 50 54 58 62 66 70 74 78 82 86 90 94 98 102 106 110 114 118 122 126 130 134 138 142 146 150 154 158 162 166 170 174 178 182 186 190 194 198 202 206 210 214 218 222 226 230 234 238 242 246 250 254 258 262 266 270 274 0
-280 3 7 11 15 19 23 27 31 35 39 43 47 51 55 59 63 67 71 75 79 83 87 91 95 99 103 107 111 115 119 123 127 131 135 139 143 147 151 155 159 163 167 171 175 179 183 187 191 195 199 203 207 211 215 219 223 227 231 235 239 243 247 251 255 259 263 267 271 275 0
-282 1 5 9 13 17 21 25 29 33 37 41 45 49 53 57 61 65 69 73 77 81 85 89 93 97 101 105 109 113 117 121 125 129 133 137 141 145 149 153 157 161 165 169 173 177 181 185 189 193 197 201 205 209 213 217 221 225 229 233 237 241 245 249 253 257 261 265 269 273 277 0
-283 2 6 10 14 18 22 26 30 34 38 42 46 50 54 58 62 66 70 74 78 82 86 90 94 98 102 106 110 114 118 122 126 130 134 138 142 146 150 154 158 162 166 170 174 178 182 186 190 194 198 202 206 210 214 218 222 226 230 234 238 242 246 250 254 258 262 266 270 274 278 0
-284 3 7 11 15 19 23 27 31 35 39 43 47 51 55 59 63 67 71 75 79 83 87 91 95 99 103 107 111 115 119 123 127 131 135 139 143 147 151 155 159 163 167 171 175 179 183 187 191 195 199 203 207 211 215 219 223 227 231 235 239 243 247 251 255 259 263 267 271 275 279 0
-286 1 5 9 13 17 21 25 29 33 37 41 45 49 53 57 61 65 69 73 77 81 85 89 93 97 101 105 109 113 117 121 125 129 133 137 141 145 149 153 157 161 165 169 173 177 181 185 189 193 197 201 205 209 213 217 221 225 229 233 237 241 245 249 253 257 261 265 269 273 277 281 0
-287 2 6 10 14 18 22 26 30 34 38 42 46 50 54 58 62 66 70 74 78 82 86 90 94 98 102 106 110 114 118 122 126 130 134 138 142 146 150 154 158 162 166 170 174 178 182 186 190 194 198 202 206 210 214 218 222 226 230 234 238 242 246 250 254 258 262 266 270 274 278 282 0
-288 3 7 11 15 19 23 27 31 35 39 43 47 51 55 59 63 67 71 75 79 83 87 91 95 99 103 107 111 115 119 123 127 131 135 139 143 147 151 155 159 163 167 171 175 179 183 187 191 195 199 203 207 211 215 219 223 227 231 235 239 243 247 251 255 259 263 267 271 275 279 283 0
-290 1 5 9 13 17 21 25 29 33 37 41 45 49 53 57 61 65 69 73 77 81 85 89 93 97 101 105 109 113 117 121 125 129 133 137 141 145 149 153 157 161 165 169 173 177 181 185 189 193 197 201 205 209 213 217 221 225 229 233 237 241 245 249 253 257 261 265 269 273 277 281 285 0
-291 2 6 10 14 18 22 26 30 34 38 42 46 50 54 58 62 66 70 74 78 82 86 90 94 98 102 106 110 114 118 122 126 130 134 138 142 146 150 154 158 162 166 170 174 178 182 186 190 194 198 202 206 210 214 218 222 226 230 234 238 242 246 250 254 258 262 266 270 274 278 282 286 0
-292 3 7 11 15 19 23 27 31 35 39 43 47 51 55 59 63 67 71 75 79 83 87 91 95 99 103 107 111 115 119 123 127 131 135 139 143 147 151 155 159 163 167 171 175 179 183 187 191 195 199 203 207 211 215 219 223 227 231 235 239 243 247 251 255 259 263 267 271 275 279 283 287 0
-294 1 5 9 13 17 21 25 29 33 37 41 45 49 53 57 61 65 69 73 77 81 85 89 93 97 101 105 109 113 117 121 125 129 133 137 141 145 149 153 157 161 165 169 173 177 181 185 189 193 197 201 205 209 213 217 221 225 229 233 237 241 245 249 253 257 261 265 269 273 277 281 285 289 0
-295 2 6 10 14 18 22 26 30 34 38 42 46 50 54 58 62 66 70 74 78 82 86 90 94 98 102 106 110 114 118 122 126 130 134 138 142 146 150 154 158 162 166 170 174 178 182 186 190 194 198 202 206 210 214 218 222 226 230 234 238 242 246 250 254 258 262 266 270 274 278 282 286 290 0
-296 3 7 11 15 19 23 27 31 35 39 43 47 51 55 59 63 67 71 75 79 83 87 91 95 99 103 107 111 115 119 123 127 131 135 139 143 147 151 155 159 163 167 171 175 179 183 187 191 195 199 203 207 211 215 219 223 227 231 235 239 243 247 251 255 259 263 267 271 275 279 283 287 291 0
-298 1 5 9 13 17 21 25 29 33 37 41 45 49 53 57 61 65 69 73 77 81 85 89 93 97 101 105 109 113 117 121 125 129 133 137 141 145 149 153 157 161 165 169 173 177 181 185 189 193 197 201 205 209 213 217 221 225 229 233 237 241 245 249 253 257 261 265 269 273 277 281 285 289 293 0
-299 2 6 10 14 18 22 26 30 34 38 42 46 50 54 58 62 66 70 74 78 82 86 90 94 98 102 106 110 114 118 122 126 130 134 138 142 146 150 154 158 162 166 170 174 178 182 186 190 194 198 202 206 210 214 218 222 226 230 234 238 242 246 250 254 258 262 266 270 274 278 282 286 290 294 0
-300 3 7 11 15 19 23 27 31 35 39 43 47 51 55 59 63 67 71 75 79 83 87 91 95 99 103 107 111 115 119 123 127 131 135 139 143 147 151 155 159 163 167 171 175 179 183 187 191 195 199 203 207 211 215 219 223 227 231 235 239 243 247 251 255 259 263 267 271 275 279 283 287 291 295 0
-302 1 5 9 13 17 21 25 29 33 37 41 45 49 53 57 61 65 69 73 77 81 85 89 93 97 101 105 109 113 117 121 125 129 133 137 141 145 149 153 157 161 165 169 173 177 181 185 189 193 197 201 205 209 213 217 221 225 229 233 237 241 245 249 253 257 261 265 269 273 277 281 285 289 293 297 0
-303 2 6 10 14 18 22 26 30 34 38 42 46 50 54 58 62 66 70 74 78 82 86 90 94 98 102 106 110 114 118 122 126 130 134 138 142 146 150 154 158 162 166 170 174 178 182 186 190 194 198 202 206 210 214 218 222 226 230 234 238 242 246 250 254 258 262 266 270 274 278 282 286 290 294 298 0
-304 3 7 11 15 19 23 27 31 35 39 43 47 51 55 59 63 67 71 75 79 83 87 91 95 99 103 107 111 115 119 123 127 131 135 139 143 147 151 155 159 163 167 171 175 179 183 187 191 195 199 203 207 211 215 219 223 227 231 235 239 243 247 251 255 259 263 267 271 275 279 283 287 291 295 299 0
-306 1 5 9 13 17 21 25 29 33 37 41 45 49 53 57 61 65 69 73 77 81 85 89 93 97 101 105 109 113 117 121 125 129 133 137 141 145 149 153 157 161 165 169 173 177 181 185 189 193 197 201 205 209 213 217 221 225 229 233 237 241 245 249 253 257 261 265 269 273 277 281 285 289 293 297 301 0
-307 2 6 10 14 18 22 26 30 34 38 42 46 50 54 58 62 66 70 74 78 82 86 90 94 98 102 106 110 114 118 122 126 130 134 138 142 146 150 154 158 162 166 170 174 178 182 186 190 194 198 202 206 210 214 218 222 226 230 234 238 242 246 250 254 258 262 266 270 274 278 282 286 290 294 298 302 0
-308 3 7 11 15 19 23 27 31 35 39 43 47 51 55 59 63 67 71 75 79 83 87 91 95 99 103 107 111 115 119 123 127 131 135 139 143 147 151 155 159 163 167 171 175 179 183 187 191 195 199 203 207 211 215 219 223 227 231 235 239 243 247 251 255 259 263 267 271 275 279 283 287 291 295 299 303 0
-310 1 5 9 13 17 21 25 29 33 37 41 45 49 53 57 61 65 69 73 77 81 85 89 93 97 101 105 109 113 117 121 125 129 133 137 141 145 149 153 157 161 165 169 173 177 181 185 189 193 197 201 205 209 213 217 221 225 229 233 237 241 245 249 253 257 261 265 269 273 277 281 285 289 293 297 301 305 0
-311 2 6 10 14 18 22 26 30 34 38 42 46 50 54 58 62 66 70 74 78 82 86 90 94 98 102 106 110 114 118 122 126 130 134 138 142 146 150 154 158 162 166 170 174 178 182 186 190 194 198 202 206 210 214 218 222 226 230 234 238 242 246 250 254 258 262 266 270 274 278 282 286 290 294 298 302 306 0
-312 3 7 11 15 19 23 27 31 35 39 43 47 51 55 59 63 67 71 75 79 83 87 91 95 99 103 107 111 115 119 123 127 131 135 139 143 147 151 155 159 163 167 171 175 179 183 187 191 195 199 203 207 211 215 219 223 227 231 235 239 243 247 251 255 259 263 267 271 275 279 283 287 291 295 299 303 307 0
-314 1 5 9 13 17 21 25 29 33 37 41 45 49 53 57 61 65 69 73 77 81 85 89 93 97 101 105 109 113 117 121 125 129 133 137 141 145 149 153 157 161 165 169 173 177 181 185 189 193 197 201 205 209 213 217 221 225 229 233 237 241 245 249 253 257 261 265 269 273 277 281 285 289 293 297 301 305 309 0
-315 2 6 10 14 18 22 26 30 34 38 42 46 50 54 58 62 66 70 74 78 82 86 90 94 98 102 106 110 114 118 122 126 130 134 138 142 146 150 154 158 162 166 170 174 178 182 186 190 194 198 202 206 210 214 218 222 226 230 234 238 242 246 250 254 258 262 266 270 274 278 282 286 290 294 298 302 306 310 0
-316 3 7 11 15 19 23 27 31 35 39 43 47 51 55 59 63 67 71 75 79 83 87 91 95 99 103 107 111 115 119 123 127 131 135 139 143 147 151 155 159 163 167 171 175 179 183 187 191 195 199 203 207 211 215 219 223 227 231 235 239 243 247 251 255 259 263 267 271 275 279 283 287 291 295 299 303 307 311 0
-318 1 5 9 13 17 21 25 29 33 37 41 45 49 53 57 61 65 69 73 77 81 85 89 93 97 101 105 109 113 117 121 125 129 133 137 141 145 149 153 157 161 165 169 173 177 181 185 189 193 197 201 205 209 213 217 221 225 229 233 237 241 245 249 253 257 261 265 269 273 277 281 285 289 293 297 301 305 309 313 0
-319 2 6 10 14 18 22 26 30 34 38 42 46 50 54 58 62 66 70 74 78 82 86 90 94 98 102 106 110 114 118 122 126 130 134 138 142 146 150 154 158 162 166 170 174 178 182 186 190 194 198 202 206 210 214 218 222 226 230 234 238 242 246 250 254 258 262 266 270 274 278 282 286 290 294 298 302 306 310 314 0
-320 3 7 11 15 19 23 27 31 35 39 43 47 51 55 59 63 67 71 75 79 83 87 91 95 99 103 107 111 115 119 123 127 131 135 139 143 147 151 155 159 163 167 171 175 179 183 187 191 195 199 203 207 211 215 219 223 227 231 235 239 243 247 251 255 259 263 267 271 275 279 283 287 291 295 299 303 307 311 315 0
-322 1 5 9 13 17 21 25 29 33 37 41 45 49 53 57 61 65 69 73 77 81 85 89 93 97 101 105 109 113 117 121 125 129 133 137 141 145 149 153 157 161 165 169 173 177 181 185 189 193 197 201 205 209 213 217 221 225 229 233 237 241 245 249 253 257 261 265 269 273 277 281 285 289 293 297 301 305 309 313 317 0
-323 2 6 10 14 18 22 26 30 34 38 42 46 50 54 58 62 66 70 74 78 82 86 90 94 98 102 106 110 114 118 122 126 130 134 138 142 146 150 154 158 162 166 170 174 178 182 186 190 194 198 202 206 210 214 218 222 226 230 234 238 242 246 250 254 258 262 266 270 274 278 282 286 290 294 298 302 306 310 314 318 0
-324 3 7 11 15 19 23 27 31 35 39 43 47 51 55 59 63 67 71 75 79 83 87 91 95 99 103 107 111 115 119 123 127 131 135 139 143 147 151 155 159 163 167 171 175 179 183 187 191 195 199 203 207 211 215 219 223 227 231 235 239 243 247 251 255 259 263 267 271 275 279 283 287 291 295 299 303 307 311 315 319 0
-326 1 5 9 13 17 21 25 29 33 37 41 45 49 53 57 61 65 69 73 77 81 85 89 93 97 101 105 109 113 117 121 125 129 133 137 141 145 149 153 157 161 165 169 173 177 181 185 189 193 197 201 205 209 213 217 221 225 229 233 237 241 245 249 253 257 261 265 269 273 277 281 285 289 293 297 301 305 309 313 317 321 0
-327 2 6 10 14 18 22 26 30 34 38 42 46 50 54 58 62 66 70 74 78 82 86 90 94 98 102 106 110 114 118 122 126 130 134 138 142 146 150 154 158 162 166 170 174 178 182 186 190 194 198 202 206 210 214 218 222 226 230 234 238 242 246 250 254 258 262 266 270 274 278 282 286 290 294 298 302 306 310 314 318 322 0
-328 3 7 11 15 19 23 27 31 35 39 43 47 51 55 59 63 67 71 75 79 83 87 91 95 99 103 107 111 115 119 123 127 131 135 139 143 147 151 155 159 163 167 171 175 179 183 187 191 195 199 203 207 211 215 219 223 227 231 235 239 243 247 251 255 259 263 267 271 275 279 283 287 291 295 299 303 307 311 315 319 323 0
-330 1 5 9 13 17 21 25 29 33 37 41 45 49 53 57 61 65 69 73 77 81 85 89 93 97 101 105 109 113 117 121 125 129 133 137 141 145 149 153 157 161 165 169 173 177 181 185 189 193 197 201 205 209 213 217 221 225 229 233 237 241 245 249 253 257 261 265 269 273 277 281 285 289 293 297 301 305 309 313 317 321 325 0
-331 2 6 10 14 18 22 26 30 34 38 42 46 50 54 58 62 66 70 74 78 82 86 90 94 98 102 106 110 114 118 122 126 130 134 138 142 146 150 154 158 162 166 170 174 178 182 186 190 194 198 202 206 210 214 218 222 226 230 234 238 242 246 250 254 258 262 266 270 274 278 282 286 290 294 298 302 306 310 314 318 322 326 0
-332 3 7 11 15 19 23 27 31 35 39 43 47 51 55 59 63 67 71 75 79 83 87 91 95 99 103 107 111 115 119 123 127 131 135 139 143 147 151 155 159 163 167 171 175 179 183 187 191 195 199 203 207 211 215 219 223 227 231 235 239 243 247 251 255 259 263 267 271 275 279 283 287 291 295 299 303 307 311 315 319 323 327 0
-334 1 5 9 13 17 21 25 29 33 37 41 45 49 53 57 61 65 69 73 77 81 85 89 93 97 101 105 109 113 117 121 125 129 133 137 141 145 149 153 157 161 165 169 173 177 181 185 189 193 197 201 205 209 213 217 221 225 229 233 237 241 245 249 253 257 261 265 269 273 277 281 285 289 293 297 301 305 309 313 317 321 325 329 0
-335 2 6 10 14 18 22 26 30 34 38 42 46 50 54 58 62 66 70 74 78 82 86 90 94 98 102 106 110 114 118 122 126 130 134 138 142 146 150 154 158 162 166 170 174 178 182 186 190 194 198 202 206 210 214 218 222 226 230 234 238 242 246 250 254 258 262 266 270 274 278 282 286 290 294 298 302 306 310 314 318 322 326 330 0
-336 3 7 11 15 19 23 27 31 35 39 43 47 51 55 59 63 67 71 75 79 83 87 91 95 99 103 107 111 115 119 123 127 131 135 139 143 147 151 155 159 163 167 171 175 179 183 187 191 195 199 203 207 211 215 219 223 227 231 235 239 243 247 251 255 259 263 267 271 275 279 283 287 291 295 299 303 307 311 315 319 323 327 331 0
-338 1 5 9 13 17 21 25 29 33 37 41 45 49 53 57 61 65 69 73 77 81 85 89 93 97 101 105 109 113 117 121 125 129 133 137 141 145 149 153 157 161 165 169 173 177 181 185 189 193 197 201 205 209 213 217 221 225 229 233 237 241 245 249 253 257 261 265 269 273 277 281 285 289 293 297 301 305 309 313 317 321 325 329 333 0
-339 2 6 10 14 18 22 26 30 34 38 42 46 50 54 58 62 66 70 74 78 82 86 90 94 98 102 106 110 114 118 122 126 130 134 138 142 146 150 154 158 162 166 170 174 178 182 186 190 194 198 202 206 210 214 218 222 226 230 234 238 242 246 250 254 258 262 266 270 274 278 282 286 290 294 298 302 306 310 314 318 322 326 330 334 0
-340 3 7 11 15 19 23 27 31 35 39 43 47 51 55 59 63 67 71 75 79 83 87 91 95 99 103 107 111 115 119 123 127 131 135 139 143 147 151 155 159 163 167 171 175 179 183 187 191 195 199 203 207 211 215 219 223 227 231 235 239 243 247 251 255 259 263 267 271 275 279 283 287 291 295 299 303 307 311 315 319 323 327 331 335 0
-342 1 5 9 13 17 21 25 29 33 37 41 45 49 53 57 61 65 69 73 77 81 85 89 93 97 101 105 109 113 117 121 125 129 133 137 141 145 149 153 157 161 165 169 173 177 181 185 189 193 197 201 205 209 213 217 221 225 229 233 237 241 245 249 253 257 261 265 269 273 277 281 285 289 293 297 301 305 309 313 317 321 325 329 333 337 0
-343 2 6 10 14 18 22 26 30 34 38 42 46 50 54 58 62 66 70 74 78 82 86 90 94 98 102 106 110 114 118 122 126 130 134 138 142 146 150 154 158 162 166 170 174 178 182 186 190 194 198 202 206 210 214 218 222 226 230 234 238 242 246 250 254 258 262 266 270 274 278 282 286 290 294 298 302 306 310 314 318 322 326 330 334 338 0
-344 3 7 11 15 19 23 27 31 35 39 43 47 51 55 59 63 67 71 75 79 83 87 91 95 99 103 107 111 115 119 123 127 131 135 139 143 147 151 155 159 163 167 171 175 179 183 187 191 195 199 203 207 211 215 219 223 227 231 235 239 243 247 251 255 259 263 267 271 275 279 283 287 291 295 299 303 307 311 315 319 323 327 331 335 339 0
-346 1 5 9 13 17 21 25 29 33 37 41 45 49 53 57 61 65 69 73 77 81 85 89 93 97 101 105 109 113 117 121 125 129 133 137 141 145 149 153 157 161 165 169 173 177 181 185 189 193 197 201 205 209 213 217 221 225 229 233 237 241 245 249 253 257 261 265 269 273 277 281 285 289 293 297 301 305 309 313 317 321 325 329 333 337 341 0
-347 2 6 10 14 18 22 26 30 34 38 42 46 50 54 58 62 66 70 74 78 82 86 90 94 98 102 106 110 114 118 122 126 130 134 138 142 146 150 154 158 162 166 170 174 178 182 186 190 194 198 202 206 210 214 218 222 226 230 234 238 242 246 250 254 258 262 266 270 274 278 282 286 290 294 298 302 306 310 314 318 322 326 330 334 338 342 0
-348 3 7 11 15 19 23 27 31 35 39 43 47 51 55 59 63 67 71 75 79 83 87 91 95 99 103 107 111 115 119 123 127 131 135 139 143 147 151 155 159 163 167 171 175 179 183 187 191 195 199 203 207 211 215 219 223 227 231 235 239 243 247 251 255 259 263 267 271 275 279 283 287 291 295 299 303 307 311 315 319 323 327 331 335 339 343 0
-350 1 5 9 13 17 21 25 29 33 37 41 45 49 53 57 61 65 69 73 77 81 85 89 93 97 101 105 109 113 117 121 125 129 133 137 141 145 149 153 157 161 165 169 173 177 181 185 189 193 197 201 205 209 213 217 221 225 229 233 237 241 245 249 253 257 261 265 269 273 277 281 285 289 293 297 301 305 309 313 317 321 325 329 333 337 341 345 0
-351 2 6 10 14 18 22 26 30 34 38 42 46 50 54 58 62 66 70 74 78 82 86 90 94 98 102 106 110 114 118 122 126 130 134 138 142 146 150 154 158 162 166 170 174 178 182 186 190 194 198 202 206 210 214 218 222 226 230 234 238 242 246 250 254 258 262 266 270 274 278 282 286 290 294 298 302 306 310 314 318 322 326 330 334 338 342 346 0
-352 3 7 11 15 19 23 27 31 35 39 43 47 51 55 59 63 67 71 75 79 83 87 91 95 99 103 107 111 115 119 123 127 131 135 139 143 147 151 155 159 163 167 171 175 179 183 187 191 195 199 203 207 211 215 219 223 227 231 235 239 243 247 251 255 259 263 267 271 275 279 283 287 291 295 299 303 307 311 315 319 323 327 331 335 339 343 347 0
-354 1 5 9 13 17 21 25 29 33 37 41 45 49 53 57 61 65 69 73 77 81 85 89 93 97 101 105 109 113 117 121 125 129 133 137 141 145 149 153 157 161 165 169 173 177 181 185 189 193 197 201 205 209 213 217 221 225 229 233 237 241 245 249 253 257 261 265 269 273 277 281 285 289 293 297 301 305 309 313 317 321 325 329 333 337 341 345 349 0
-355 2 6 10 14 18 22 26 30 34 38 42 46 50 54 58 62 66 70 74 78 82 86 90 94 98 102 106 110 114 118 122 126 130 134 138 142 146 150 154 158 162 166 170 174 178 182 186 190 194 198 202 206 210 214 218 222 226 230 234 238 242 246 250 254 258 262 266 270 274 278 282 286 290 294 298 302 306 310 314 318 322 326 330 334 338 342 346 350 0
-356 3 7 11 15 19 23 27 31 35 39 43 47 51 55 59 63 67 71 75 79 83 87 91 95 99 103 107 111 115 119 123 127 131 135 139 143 147 151 155 159 163 167 171 175 179 183 187 191 195 199 203 207 211 215 219 223 227 231 235 239 243 247 251 255 259 263 267 271 275 279 283 287 291 295 299 303 307 311 315 319 323 327 331 335 339 343 347 351 0
-358 1 5 9 13 17 21 25 29 33 37 41 45 49 53 57 61 65 69 73 77 81 85 89 93 97 101 105 109 113 117 121 125 129 133 137 141 145 149 153 157 161 165 169 173 177 181 185 189 193 197 201 205 209 213 217 221 225 229 233 237 241 245 249 253 257 261 265 269 273 277 281 285 289 293 297 301 305 309 313 317 321 325 329 333 337 341 345 349 353 0
-359 2 6 10 14 18 22 26 30 34 38 42 46 50 54 58 62 66 70 74 78 82 86 90 94 98 102 106 110 114 118 122 126 130 134 138 142 146 150 154 158 162 166 170 174 178 182 186 190 194 198 202 206 210 214 218 222 226 230 234 238 242 246 250 254 258 262 266 270 274 278 282 286 290 294 298 302 306 310 314 318 322 326 330 334 338 342 346 350 354 0
-360 3 7 11 15 19 23 27 31 35 39 43 47 51 55 59 63 67 71 75 79 83 87 91 95 99 103 107 111 115 119 123 127 131 135 139 143 147 151 155 159 163 167 171 175 179 183 187 191 195 199 203 207 211 215 219 223 227 231 235 239 243 247 251 255 259 263 267 271 275 279 283 287 291 295 299 303 307 311 315 319 323 327 331 335 339 343 347 351 355 0
-362 1 5 9 13 17 21 25 29 33 37 41 45 49 53 57 61 65 69 73 77 81 85 89 93 97 101 105 109 113 117 121 125 129 133 137 141 145 149 153 157 161 165 169 173 177 181 185 189 193 197 201 205 209 213 217 221 225 229 233 237 241 245 249 253 257 261 265 269 273 277 281 285 289 293 297 301 305 309 313 317 321 325 329 333 337 341 345 349 353 357 0
-363 2 6 10 14 18 22 26 30 34 38 42 46 50 54 58 62 66 70 74 78 82 86 90 94 98 102 106 110 114 118 122 126 130 134 138 142 146 150 154 158 162 166 170 174 178 182 186 190 194 198 202 206 210 214 218 222 226 230 234 238 242 246 250 254 258 262 266 270 274 278 282 286 290 294 298 302 306 310 314 318 322 326 330 334 338 342 346 350 354 358 0
-364 3 7 11 15 19 23 27 31 35 39 43 47 51 55 59 63 67 71 75 79 83 87 91 95 99 103 107 111 115 119 123 127 131 135 139 143 147 151 155 159 163 167 171 175 179 183 187 191 195 199 203 207 211 215 219 223 227 231 235 239 243 247 251 255 259 263 267 271 275 279 283 287 291 295 299 303 307 311 315 319 323 327 331 335 339 343 347 351 355 359 0
-366 1 5 9 13 17 21 25 29 33 37 41 45 49 53 57 61 65 69 73 77 81 85 89 93 97 101 105 109 113 117 121 125 129 133 137 141 145 149 153 157 161 165 169 173 177 181 185 189 193 197 201 205 209 213 217 221 225 229 233 237 241 245 249 253 257 261 265 269 273 277 281 285 289 293 297 301 305 309 313 317 321 325 329 333 337 341 345 349 353 357 361 0
-367 2 6 10 14 18 22 26 30 34 38 42 46 50 54 58 62 66 70 74 78 82 86 90 94 98 102 106 110 114 118 122 126 130 134 138 142 146 150 154 158 162 166 170 174 178 182 186 190 194 198 202 206 210 214 218 222 226 230 234 238 242 246 250 254 258 262 266 270 274 278 282 286 290 294 298 302 306 310 314 318 322 326 330 334 338 342 346 350 354 358 362 0
-368 3 7 11 15 19 23 27 31 35 39 43 47 51 55 59 63 67 71 75 79 83 87 91 95 99 103 107 111 115 119 123 127 131 135 139 143 147 151 155 159 163 167 171 175 179 183 187 191 195 199 203 207 211 215 219 223 227 231 235 239 243 247 251 255 259 263 267 271 275 279 283 287 291 295 299 303 307 311 315 319 323 327 331 335 339 343 347 351 355 359 363 0
-370 1 5 9 13 17 21 25 29 33 37 41 45 49 53 57 61 65 69 73 77 81 85 89 93 97 101 105 109 113 117 121 125 129 133 137 141 145 149 153 157 161 165 169 173 177 181 185 189 193 197 201 205 209 213 217 221 225 229 233 237 241 245 249 253 257 261 265 269 273 277 281 285 289 293 297 301 305 309 313 317 321 325 329 333 337 341 345 349 353 357 361 365 0
-371 2 6 10 14 18 22 26 30 34 38 42 46 50 54 58 62 66 70 74 78 82 86 90 94 98 102 106 110 114 118 122 126 130 134 138 142 146 150 154 158 162 166 170 174 178 182 186 190 194 198 202 206 210 214 218 222 226 230 234 238 242 246 250 254 258 262 266 270 274 278 282 286 290 294 298 302 306 310 314 318 322 326 330 334 338 342 346 350 354 358 362 366 0
-372 3 7 11 15 19 23 27 31 35 39 43 47 51 55 59 63 67 71 75 79 83 87 91 95 99 103 107 111 115 119 123 127 131 135 139 143 147 151 155 159 163 167 171 175 179 183 187 191 195 199 203 207 211 215 219 223 227 231 235 239 243 247 251 255 259 263 267 271 275 279 283 287 291 295 299 303 307 311 315 319 323 327 331 335 339 343 347 351 355 359 363 367 0
-374 1 5 9 13 17 21 25 29 33 37 41 45 49 53 57 61 65 69 73 77 81 85 89 93 97 101 105 109 113 117 121 125 129 133 137 141 145 149 153 157 161 165 169 173 177 181 185 189 193 197 201 205 209 213 217 221 225 229 233 237 241 245 249 253 257 261 265 269 273 277 281 285 289 293 297 301 305 309 313 317 321 325 329 333 337 341 345 349 353 357 361 365 369 0
-375 2 6 10 14 18 22 26 30 34 38 42 46 50 54 58 62 66 70 74 78 82 86 90 94 98 102 106 110 114 118 122 126 130 134 138 142 146 150 154 158 162 166 170 174 178 182 186 190 194 198 202 206 210 214 218 222 226 230 234 238 242 246 250 254 258 262 266 270 274 278 282 286 290 294 298 302 306 310 314 318 322 326 330 334 338 342 346 350 354 358 362 366 370 0
-376 3 7 11 15 19 23 27 31 35 39 43 47 51 55 59 63 67 71 75 79 83 87 91 95 99 103 107 111 115 119 123 127 131 135 139 143 147 151 155 159 163 167 171 175 179 183 187 191 195 199 203 207 211 215 219 223 227 231 235 239 243 247 251 255 259 263 267 271 275 279 283 287 291 295 299 303 307 311 315 319 323 327 331 335 339 343 347 351 355 359 363 367 371 0
-378 1 5 9 13 17 21 25 29 33 37 41 45 49 53 57 61 65 69 73 77 81 85 89 93 97 101 105 109 113 117 121 125 129 133 137 141 145 149 153 157 161 165 169 173 177 181 185 189 193 197 201 205 209 213 217 221 225 229 233 237 241 245 249 253 257 261 265 269 273 277 281 285 289 293 297 301 305 309 313 317 321 325 329 333 337 341 345 349 353 357 361 365 369 373 0
-379 2 6 10 14 18 22 26 30 34 38 42 46 50 54 58 62 66 70 74 78 82 86 90 94 98 102 106 110 114 118 122 126 130 134 138 142 146 150 154 158 162 166 170 174 178 182 186 190 194 198 202 206 210 214 218 222 226 230 234 238 242 246 250 254 258 262 266 270 274 278 282 286 290 294 298 302 306 310 314 318 322 326 330 334 338 342 346 350 354 358 362 366 370 374 0
-380 3 7 11 15 19 23 27 31 35 39 43 47 51 55 59 63 67 71 75 79 83 87 91 95 99 103 107 111 115 119 123 127 131 135 139 143 147 151 155 159 163 167 171 175 179 183 187 191 195 199 203 207 211 215 219 223 227 231 235 239 243 247 251 255 259 263 267 271 275 279 283 287 291 295 299 303 307 311 315 319 323 327 331 335 339 343 347 351 355 359 363 367 371 375 0
-382 1 5 9 13 17 21 25 29 33 37 41 45 49 53 57 61 65 69 73 77 81 85 89 93 97 101 105 109 113 117 121 125 129 133 137 141 145 149 153 157 161 165 169 173 177 181 185 189 193 197 201 205 209 213 217 221 225 229 233 237 241 245 249 253 257 261 265 269 273 277 281 285 289 293 297 301 305 309 313 317 321 325 329 333 337 341 345 349 353 357 361 365 369 373 377 0
-383 2 6 10 14 18 22 26 30 34 38 42 46 50 54 58 62 66 70 74 78 82 86 90 94 98 102 106 110 114 118 122 126 130 134 138 142 146 150 154 158 162 166 170 174 178 182 186 190 194 198 202 206 210 214 218 222 226 230 234 238 242 246 250 254 258 262 266 270 274 278 282 286 290 294 298 302 306 310 314 318 322 326 330 334 338 342 346 350 354 358 362 366 370 374 378 0
-384 3 7 11 15 19 23 27 31 35 39 43 47 51 55 59 63 67 71 75 79 83 87 91 95 99 103 107 111 115 119 123 127 131 135 139 143 147 151 155 159 163 167 171 175 179 183 187 191 195 199 203 207 211 215 219 223 227 231 235 239 243 247 251 255 259 263 267 271 275 279 283 287 291 295 299 303 307 311 315 319 323 327 331 335 339 343 347 351 355 359 363 367 371 375 379 0
-386 1 5 9 13 17 21 25 29 33 37 41 45 49 53 57 61 65 69 73 77 81 85 89 93 97 101 105 109 113 117 121 125 129 133 137 141 145 149 153 157 161 165 169 173 177 181 185 189 193 197 201 205 209 213 217 221 225 229 233 237 241 245 249 253 257 261 265 269 273 277 281 285 289 293 297 301 305 309 313 317 321 325 329 333 337 341 345 349 353 357 361 365 369 373 377 381 0
-387 2 6 10 14 18 22 26 30 34 38 42 46 50 54 58 62 66 70 74 78 82 86 90 94 98 102 106 110 114 118 122 126 130 134 138 142 146 150 154 158 162 166 170 174 178 182 186 190 194 198 202 206 210 214 218 222 226 230 234 238 242 246 250 254 258 262 266 270 274 278 282 286 290 294 298 302 306 310 314 318 322 326 330 334 338 342 346 350 354 358 362 366 370 374 378 382 0
-388 3 7 11 15 19 23 27 31 35 39 43 47 51 55 59 63 67 71 75 79 83 87 91 95 99 103 107 111 115 119 123 127 131 135 139 143 147 151 155 159 163 167 171 175 179 183 187 191 195 199 203 207 211 215 219 223 227 231 235 239 243 247 251 255 259 263 267 271 275 279 283 287 291 295 299 303 307 311 315 319 323 327 331 335 339 343 347 351 355 359 363 367 371 375 379 383 0
-390 1 5 9 13 17 21 25 29 33 37 41 45 49 53 57 61 65 69 73 77 81 85 89 93 97 101 105 109 113 117 121 125 129 133 137 141 145 149 153 157 161 165 169 173 177 181 185 189 193 197 201 205 209 213 217 221 225 229 233 237 241 245 249 253 257 261 265 269 273 277 281 285 289 293 297 301 305 309 313 317 321 325 329 333 337 341 345 349 353 357 361 365 369 373 377 381 385 0
-391 2 6 10 14 18 22 26 30 34 38 42 46 50 54 58 62 66 70 74 78 82 86 90 94 98 102 106 110 114 118 122 126 130 134 138 142 146 150 154 158 162 166 170 174 178 182 186 190 194 198 202 206 210 214 218 222 226 230 234 238 242 246 250 254 258 262 266 270 274 278 282 286 290 294 298 302 306 310 314 318 322 326 330 334 338 342 346 350 354 358 362 366 370 374 378 382 386 0
-392 3 7 11 15 19 23 27 31 35 39 43 47 51 55 59 63 67 71 75 79 83 87 91 95 99 103 107 111 115 119 123 127 131 135 139 143 147 151 155 159 163 167 171 175 179 183 187 191 195 199 203 207 211 215 219 223 227 231 235 239 243 247 251 255 259 263 267 271 275 279 283 287 291 295 299 303 307 311 315 319 323 327 331 335 339 343 347 351 355 359 363 367 371 375 379 383 387 0
-394 1 5 9 13 17 21 25 29 33 37 41 45 49 53 57 61 65 69 73 77 81 85 89 93 97 101 105 109 113 117 121 125 129 133 137 141 145 149 153 157 161 165 169 173 177 181 185 189 193 197 201 205 209 213 217 221 225 229 233 237 241 245 249 253 257 261 265 269 273 277 281 285 289 293 297 301 305 309 313 317 321 325 329 333 337 341 345 349 353 357 361 365 369 373 377 381 385 389 0
-395 2 6 10 14 18 22 26 30 34 38 42 46 50 54 58 62 66 70 74 78 82 86 90 94 98 102 106 110 114 118 122 126 130 134 138 142 146 150 154 158 162 166 170 174 178 182 186 190 194 198 202 206 210 214 218 222 226 230 234 238 242 246 250 254 258 262 266 270 274 278 282 286 290 294 298 302 306 310 314 318 322 326 330 334 338 342 346 350 354 358 362 366 370 374 378 382 386 390 0
-396 3 7 11 15 19 23 27 31 35 39 43 47 51 55 59 63 67 71 75 79 83 87 91 95 99 103 107 111 115 119 123 127 131 135 139 143 147 151 155 159 163 167 171 175 179 183 187 191 195 199 203 207 211 215 219 223 227 231 235 239 243 247 251 255 259 263 267 271 275 279 283 287 291 295 299 303 307 311 315 319 323 327 331 335 339 343 347 351 355 359 363 367 371 375 379 383 387 391 0
-398 1 5 9 13 17 21 25 29 33 37 41 45 49 53 57 61 65 69 73 77 81 85 89 93 97 101 105 109 113 117 121 125 129 133 137 141 145 149 153 157 161 165 169 173 177 181 185 189 193 197 201 205 209 213 217 221 225 229 233 237 241 245 249 253 257 261 265 269 273 277 281 285 289 293 297 301 305 309 313 317 321 325 329 333 337 341 345 349 353 357 361 365 369 373 377 381 385 389 393 0
-399 2 6 10 14 18 22 26 30 34 38 42 46 50 54 58 62 66 70 74 78 82 86 90 94 98 102 106 110 114 118 122 126 130 134 138 142 146 150 154 158 162 166 170 174 178 182 186 190 194 198 202 206 210 214 218 222 226 230 234 238 242 246 250 254 258 262 266 270 274 278 282 286 290 294 298 302 306 310 314 318 322 326 330 334 338 342 346 350 354 358 362 366 370 374 378 382 386 390 394 0
-400 3 7 11 15 19 23 27 31 35 39 43 47 51 55 59 63 67 71 75 79 83 87 91 95 99 103 107 111 115 119 123 127 131 135 139 143 147 151 155 159 163 167 171 175 179 183 187 191 195 199 203 207 211 215 219 223 227 231 235 239 243 247 251 255 259 263 267 271 275 279 283 287 291 295 299 303 307 311 315 319 323 327 331 335 339 343 347 351 355 359 363 367 371 375 379 383 387 391 395 0
-402 1 5 9 13 17 21 25 29 33 37 41 45 49 53 57 61 65 69 73 77 81 85 89 93 97 101 105 109 113 117 121 125 129 133 137 141 145 149 153 157 161 165 169 173 177 181 185 189 193 197 201 205 209 213 217 221 225 229 233 237 241 245 249 253 257 261 265 269 273 277 281 285 289 293 297 301 305 309 313 317 321 325 329 333 337 341 345 349 353 357 361 365 369 373 377 381 385 389 393 397 0
-403 2 6 10 14 18 22 26 30 34 38 42 46 50 54 58 62 66 70 74 78 82 86 90 94 98 102 106 110 114 118 122 126 130 134 138 142 146 150 154 158 162 166 170 174 178 182 186 190 194 198 202 206 210 214 218 222 226 230 234 238 242 246 250 254 258 262 266 270 274 278 282 286 290 294 298 302 306 310 314 318 322 326 330 334 338 342 346 350 354 358 362 366 370 374 378 382 386 390 394 398 0
-404 3 7 11 15 19 23 27 31 35 39 43 47 51 55 59 63 67 71 75 79 83 87 91 95 99 103 107 111 115 119 123 127 131 135 139 143 147 151 155 159 163 167 171 175 179 183 187 191 195 199 203 207 211 215 219 223 227 231 235 239 243 247 251 255 259 263 267 271 275 279 283 287 291 295 299 303 307 311 315 319 323 327 331 335 339 343 347 351 355 359 363 367 371 375 379 383 387 391 395 399 0
-406 1 5 9 13 17 21 25 29 33 37 41 45 49 53 57 61 65 69 73 77 81 85 89 93 97 101 105 109 113 117 121 125 129 133 137 141 145 149 153 157 161 165 169 173 177 181 185 189 193 197 201 205 209 213 217 221 225 229 233 237 241 245 249 253 257 261 265 269 273 277 281 285 289 293 297 301 305 309 313 317 321 325 329 333 337 341 345 349 353 357 361 365 369 373 377 381 385 389 393 397 401 0
-407 2 6 10 14 18 22 26 30 34 38 42 46 50 54 58 62 66 70 74 78 82 86 90 94 98 102 106 110 114 118 122 126 130 134 138 142 146 150 154 158 162 166 170 174 178 182 186 190 194 198 202 206 210 214 218 222 226 230 234 238 242 246 250 254 258 262 266 270 274 278 282 286 290 294 298 302 306 310 314 318 322 326 330 334 338 342 346 350 354 358 362 366 370 374 378 382 386 390 394 398 402 0
-408 3 7 11 15 19 23 27 31 35 39 43 47 51 55 59 63 67 71 75 79 83 87 91 95 99 103 107 111 115 119 123 127 131 135 139 143 147 151 155 159 163 167 171 175 179 183 187 191 195 199 203 207 211 215 219 223 227 231 235 239 243 247 251 255 259 263 267 271 275 279 283 287 291 295 299 303 307 311 315 319 323 327 331 335 339 343 347 351 355 359 363 367 371 375 379 383 387 391 395 399 403 0
-410 1 5 9 13 17 21 25 29 33 37 41 45 49 53 57 61 65 69 73 77 81 85 89 93 97 101 105 109 113 117 121 125 129 133 137 141 145 149 153 157 161 165 169 173 177 181 185 189 193 197 201 205 209 213 217 221 225 229 233 237 241 245 249 253 257 261 265 269 273 277 281 285 289 293 297 301 305 309 313 317 321 325 329 333 337 341 345 349 353 357 361 365 369 373 377 381 385 389 393 397 401 405 0
-411 2 6 10 14 18 22 26 30 34 38 42 46 50 54 58 62 66 70 74 78 82 86 90 94 98 102 106 110 114 118 122 126 130 134 138 142 146 150 154 158 162 166 170 174 178 182 186 190 194 198 202 206 210 214 218 222 226 230 234 238 242 246 250 254 258 262 266 270 274 278 282 286 290 294 298 302 306 310 314 318 322 326 330 334 338 342 346 350 354 358 362 366 370 374 378 382 386 390 394 398 402 406 0
-412 3 7 11 15 19 23 27 31 35 39 43 47 51 55 59 63 67 71 75 79 83 87 91 95 99 103 107 111 115 119 123 127 131 135 139 143 147 151 155 159 163 167 171 175 179 183 187 191 195 199 203 207 211 215 219 223 227 231 235 239 243 247 251 255 259 263 267 271 275 279 283 287 291 295 299 303 307 311 315 319 323 327 331 335 339 343 347 351 355 359 363 367 371 375 379 383 387 391 395 399 403 407 0
