p cnf 70 479
1 2 0
3 4 0
5 6 0
7 8 0
9 10 0
11 12 0
13 14 0
15 16 0
17 18 0
19 20 0
21 22 0
23 24 0
25 26 0
27 28 0
29 30 0
31 32 0
33 34 0
35 36 0
37 38 0
39 40 0
41 42 0
43 44 0
45 46 0
47 48 0
49 50 0
51 52 0
53 54 0
55 56 0
57 58 0
59 60 0
61 62 0
63 64 0
65 66 0
67 68 0
69 70 0
-1 -3 -5 -7 0
-2 -4 -6 -8 0
-3 -5 -7 -9 0
-4 -6 -8 -10 0
-5 -7 -9 -11 0
-6 -8 -10 -12 0
-7 -9 -11 -13 0
-8 -10 -12 -14 0
-9 -11 -13 -15 0
-10 -12 -14 -16 0
-11 -13 -15 -17 0
-12 -14 -16 -18 0
-13 -15 -17 -19 0
-14 -16 -18 -20 0
-15 -17 -19 -21 0
-16 -18 -20 -22 0
-17 -19 -21 -23 0
-18 -20 -22 -24 0
-19 -21 -23 -25 0
-20 -22 -24 -26 0
-21 -23 -25 -27 0
-22 -24 -26 -28 0
-23 -25 -27 -29 0
-24 -26 -28 -30 0
-25 -27 -29 -31 0
-26 -28 -30 -32 0
-27 -29 -31 -33 0
-28 -30 -32 -34 0
-29 -31 -33 -35 0
-30 -32 -34 -36 0
-31 -33 -35 -37 0
-32 -34 -36 -38 0
-33 -35 -37 -39 0
-34 -36 -38 -40 0
-35 -37 -39 -41 0
-36 -38 -40 -42 0
-37 -39 -41 -43 0
-38 -40 -42 -44 0
-39 -41 -43 -45 0
-40 -42 -44 -46 0
-41 -43 -45 -47 0
-42 -44 -46 -48 0
-43 -45 -47 -49 0
-44 -46 -48 -50 0
-45 -47 -49 -51 0
-46 -48 -50 -52 0
-47 -49 -51 -53 0
-48 -50 -52 -54 0
-49 -51 -53 -55 0
-50 -52 -54 -56 0
-51 -53 -55 -57 0
-52 -54 -56 -58 0
-53 -55 -57 -59 0
-54 -56 -58 -60 0
-55 -57 -59 -61 0
-56 -58 -60 -62 0
-57 -59 -61 -63 0
-58 -60 -62 -64 0
-59 -61 -63 -65 0
-60 -62 -64 -66 0
-61 -63 -65 -67 0
-62 -64 -66 -68 0
-63 -65 -67 -69 0
-64 -66 -68 -70 0
-1 -5 -9 -13 0
-2 -6 -10 -14 0
-3 -7 -11 -15 0
-4 -8 -12 -16 0
-5 -9 -13 -17 0
-6 -10 -14 -18 0
-7 -11 -15 -19 0
-8 -12 -16 -20 0
-9 -13 -17 -21 0
-10 -14 -18 -22 0
-11 -15 -19 -23 0
-12 -16 -20 -24 0
-13 -17 -21 -25 0
-14 -18 -22 -26 0
-15 -19 -23 -27 0
-16 -20 -24 -28 0
-17 -21 -25 -29 0
-18 -22 -26 -30 0
-19 -23 -27 -31 0
-20 -24 -28 -32 0
-21 -25 -29 -33 0
-22 -26 -30 -34 0
-23 -27 -31 -35 0
-24 -28 -32 -36 0
-25 -29 -33 -37 0
-26 -30 -34 -38 0
-27 -31 -35 -39 0
-28 -32 -36 -40 0
-29 -33 -37 -41 0
-30 -34 -38 -42 0
-31 -35 -39 -43 0
-32 -36 -40 -44 0
-33 -37 -41 -45 0
-34 -38 -42 -46 0
-35 -39 -43 -47 0
-36 -40 -44 -48 0
-37 -41 -45 -49 0
-38 -42 -46 -50 0
-39 -43 -47 -51 0
-40 -44 -48 -52 0
-41 -45 -49 -53 0
-42 -46 -50 -54 0
-43 -47 -51 -55 0
-44 -48 -52 -56 0
-45 -49 -53 -57 0
-46 -50 -54 -58 0
-47 -51 -55 -59 0
-48 -52 -56 -60 0
-49 -53 -57 -61 0
-50 -54 -58 -62 0
-51 -55 -59 -63 0
-52 -56 -60 -64 0
-53 -57 -61 -65 0
-54 -58 -62 -66 0
-55 -59 -63 -67 0
-56 -60 -64 -68 0
-57 -61 -65 -69 0
-58 -62 -66 -70 0
-1 -7 -13 -19 0
-2 -8 -14 -20 0
-3 -9 -15 -21 0
-4 -10 -16 -22 0
-5 -11 -17 -23 0
-6 -12 -18 -24 0
-7 -13 -19 -25 0
-8 -14 -20 -26 0
-9 -15 -21 -27 0
-10 -16 -22 -28 0
-11 -17 -23 -29 0
-12 -18 -24 -30 0
-13 -19 -25 -31 0
-14 -20 -26 -32 0
-15 -21 -27 -33 0
-16 -22 -28 -34 0
-17 -23 -29 -35 0
-18 -24 -30 -36 0
-19 -25 -31 -37 0
-20 -26 -32 -38 0
-21 -27 -33 -39 0
-22 -28 -34 -40 0
-23 -29 -35 -41 0
-24 -30 -36 -42 0
-25 -31 -37 -43 0
-26 -32 -38 -44 0
-27 -33 -39 -45 0
-28 -34 -40 -46 0
-29 -35 -41 -47 0
-30 -36 -42 -48 0
-31 -37 -43 -49 0
-32 -38 -44 -50 0
-33 -39 -45 -51 0
-34 -40 -46 -52 0
-35 -41 -47 -53 0
-36 -42 -48 -54 0
-37 -43 -49 -55 0
-38 -44 -50 -56 0
-39 -45 -51 -57 0
-40 -46 -52 -58 0
-41 -47 -53 -59 0
-42 -48 -54 -60 0
-43 -49 -55 -61 0
-44 -50 -56 -62 0
-45 -51 -57 -63 0
-46 -52 -58 -64 0
-47 -53 -59 -65 0
-48 -54 -60 -66 0
-49 -55 -61 -67 0
-50 -56 -62 -68 0
-51 -57 -63 -69 0
-52 -58 -64 -70 0
-1 -9 -17 -25 0
-2 -10 -18 -26 0
-3 -11 -19 -27 0
-4 -12 -20 -28 0
-5 -13 -21 -29 0
-6 -14 -22 -30 0
-7 -15 -23 -31 0
-8 -16 -24 -32 0
-9 -17 -25 -33 0
-10 -18 -26 -34 0
-11 -19 -27 -35 0
-12 -20 -28 -36 0
-13 -21 -29 -37 0
-14 -22 -30 -38 0
-15 -23 -31 -39 0
-16 -24 -32 -40 0
-17 -25 -33 -41 0
-18 -26 -34 -42 0
-19 -27 -35 -43 0
-20 -28 -36 -44 0
-21 -29 -37 -45 0
-22 -30 -38 -46 0
-23 -31 -39 -47 0
-24 -32 -40 -48 0
-25 -33 -41 -49 0
-26 -34 -42 -50 0
-27 -35 -43 -51 0
-28 -36 -44 -52 0
-29 -37 -45 -53 0
-30 -38 -46 -54 0
-31 -39 -47 -55 0
-32 -40 -48 -56 0
-33 -41 -49 -57 0
-34 -42 -50 -58 0
-35 -43 -51 -59 0
-36 -44 -52 -60 0
-37 -45 -53 -61 0
-38 -46 -54 -62 0
-39 -47 -55 -63 0
-40 -48 -56 -64 0
-41 -49 -57 -65 0
-42 -50 -58 -66 0
-43 -51 -59 -67 0
-44 -52 -60 -68 0
-45 -53 -61 -69 0
-46 -54 -62 -70 0
-1 -11 -21 -31 0
-2 -12 -22 -32 0
-3 -13 -23 -33 0
-4 -14 -24 -34 0
-5 -15 -25 -35 0
-6 -16 -26 -36 0
-7 -17 -27 -37 0
-8 -18 -28 -38 0
-9 -19 -29 -39 0
-10 -20 -30 -40 0
-11 -21 -31 -41 0
-12 -22 -32 -42 0
-13 -23 -33 -43 0
-14 -24 -34 -44 0
-15 -25 -35 -45 0
-16 -26 -36 -46 0
-17 -27 -37 -47 0
-18 -28 -38 -48 0
-19 -29 -39 -49 0
-20 -30 -40 -50 0
-21 -31 -41 -51 0
-22 -32 -42 -52 0
-23 -33 -43 -53 0
-24 -34 -44 -54 0
-25 -35 -45 -55 0
-26 -36 -46 -56 0
-27 -37 -47 -57 0
-28 -38 -48 -58 0
-29 -39 -49 -59 0
-30 -40 -50 -60 0
-31 -41 -51 -61 0
-32 -42 -52 -62 0
-33 -43 -53 -63 0
-34 -44 -54 -64 0
-35 -45 -55 -65 0
-36 -46 -56 -66 0
-37 -47 -57 -67 0
-38 -48 -58 -68 0
-39 -49 -59 -69 0
-40 -50 -60 -70 0
-1 -13 -25 -37 0
-2 -14 -26 -38 0
-3 -15 -27 -39 0
-4 -16 -28 -40 0
-5 -17 -29 -41 0
-6 -18 -30 -42 0
-7 -19 -31 -43 0
-8 -20 -32 -44 0
-9 -21 -33 -45 0
-10 -22 -34 -46 0
-11 -23 -35 -47 0
-12 -24 -36 -48 0
-13 -25 -37 -49 0
-14 -26 -38 -50 0
-15 -27 -39 -51 0
-16 -28 -40 -52 0
-17 -29 -41 -53 0
-18 -30 -42 -54 0
-19 -31 -43 -55 0
-20 -32 -44 -56 0
-21 -33 -45 -57 0
-22 -34 -46 -58 0
-23 -35 -47 -59 0
-24 -36 -48 -60 0
-25 -37 -49 -61 0
-26 -38 -50 -62 0
-27 -39 -51 -63 0
-28 -40 -52 -64 0
-29 -41 -53 -65 0
-30 -42 -54 -66 0
-31 -43 -55 -67 0
-32 -44 -56 -68 0
-33 -45 -57 -69 0
-34 -46 -58 -70 0
-1 -15 -29 -43 0
-2 -16 -30 -44 0
-3 -17 -31 -45 0
-4 -18 -32 -46 0
-5 -19 -33 -47 0
-6 -20 -34 -48 0
-7 -21 -35 -49 0
-8 -22 -36 -50 0
-9 -23 -37 -51 0
-10 -24 -38 -52 0
-11 -25 -39 -53 0
-12 -26 -40 -54 0
-13 -27 -41 -55 0
-14 -28 -42 -56 0
-15 -29 -43 -57 0
-16 -30 -44 -58 0
-17 -31 -45 -59 0
-18 -32 -46 -60 0
-19 -33 -47 -61 0
-20 -34 -48 -62 0
-21 -35 -49 -63 0
-22 -36 -50 -64 0
-23 -37 -51 -65 0
-24 -38 -52 -66 0
-25 -39 -53 -67 0
-26 -40 -54 -68 0
-27 -41 -55 -69 0
-28 -42 -56 -70 0
-1 -17 -33 -49 0
-2 -18 -34 -50 0
-3 -19 -35 -51 0
-4 -20 -36 -52 0
-5 -21 -37 -53 0
-6 -22 -38 -54 0
-7 -23 -39 -55 0
-8 -24 -40 -56 0
-9 -25 -41 -57 0
-10 -26 -42 -58 0
-11 -27 -43 -59 0
-12 -28 -44 -60 0
-13 -29 -45 -61 0
-14 -30 -46 -62 0
-15 -31 -47 -63 0
-16 -32 -48 -64 0
-17 -33 -49 -65 0
-18 -34 -50 -66 0
-19 -35 -51 -67 0
-20 -36 -52 -68 0
-21 -37 -53 -69 0
-22 -38 -54 -70 0
-1 -19 -37 -55 0
-2 -20 -38 -56 0
-3 -21 -39 -57 0
-4 -22 -40 -58 0
-5 -23 -41 -59 0
-6 -24 -42 -60 0
-7 -25 -43 -61 0
-8 -26 -44 -62 0
-9 -27 -45 -63 0
-10 -28 -46 -64 0
-11 -29 -47 -65 0
-12 -30 -48 -66 0
-13 -31 -49 -67 0
-14 -32 -50 -68 0
-15 -33 -51 -69 0
-16 -34 -52 -70 0
-1 -21 -41 -61 0
-2 -22 -42 -62 0
-3 -23 -43 -63 0
-4 -24 -44 -64 0
-5 -25 -45 -65 0
-6 -26 -46 -66 0
-7 -27 -47 -67 0
-8 -28 -48 -68 0
-9 -29 -49 -69 0
-10 -30 -50 -70 0
-1 -23 -45 -67 0
-2 -24 -46 -68 0
-3 -25 -47 -69 0
-4 -26 -48 -70 0
-1 -2 0
-3 -4 0
-5 -6 0
-7 -8 0
-9 -10 0
-11 -12 0
-13 -14 0
-15 -16 0
-17 -18 0
-19 -20 0
-21 -22 0
-23 -24 0
-25 -26 0
-27 -28 0
-29 -30 0
-31 -32 0
-33 -34 0
-35 -36 0
-37 -38 0
-39 -40 0
-41 -42 0
-43 -44 0
-45 -46 0
-47 -48 0
-49 -50 0
-51 -52 0
-53 -54 0
-55 -56 0
-57 -58 0
-59 -60 0
-61 -62 0
-63 -64 0
-65 -66 0
-67 -68 0
-69 -70 0
1 0
-4 1 0
-6 1 3 0
-8 1 3 5 0
-10 1 3 5 7 0
-12 1 3 5 7 9 0
-14 1 3 5 7 9 11 0
-16 1 3 5 7 9 11 13 0
-18 1 3 5 7 9 11 13 15 0
-20 1 3 5 7 9 11 13 15 17 0
-22 1 3 5 7 9 11 13 15 17 19 0
-24 1 3 5 7 9 11 13 15 17 19 21 0
-26 1 3 5 7 9 11 13 15 17 19 21 23 0
-28 1 3 5 7 9 11 13 15 17 19 21 23 25 0
-30 1 3 5 7 9 11 13 15 17 19 21 23 25 27 0
-32 1 3 5 7 9 11 13 15 17 19 21 23 25 27 29 0
-34 1 3 5 7 9 11 13 15 17 19 21 23 25 27 29 31 0
-36 1 3 5 7 9 11 13 15 17 19 21 23 25 27 29 31 33 0
-38 1 3 5 7 9 11 13 15 17 19 21 23 25 27 29 31 33 35 0
-40 1 3 5 7 9 11 13 15 17 19 21 23 25 27 29 31 33 35 37 0
-42 1 3 5 7 9 11 13 15 17 19 21 23 25 27 29 31 33 35 37 39 0
-44 1 3 5 7 9 11 13 15 17 19 21 23 25 27 29 31 33 35 37 39 41 0
-46 1 3 5 7 9 11 13 15 17 19 21 23 25 27 29 31 33 35 37 39 41 43 0
-48 1 3 5 7 9 11 13 15 17 19 21 23 25 27 29 31 33 35 37 39 41 43 45 0
-50 1 3 5 7 9 11 13 15 17 19 21 23 25 27 29 31 33 35 37 39 41 43 45 47 0
-52 1 3 5 7 9 11 13 15 17 19 21 23 25 27 29 31 33 35 37 39 41 43 45 47 49 0
-54 1 3 5 7 9 11 13 15 17 19 21 23 25 27 29 31 33 35 37 39 41 43 45 47 49 51 0
-56 1 3 5 7 9 11 13 15 17 19 21 23 25 27 29 31 33 35 37 39 41 43 45 47 49 51 53 0
-58 1 3 5 7 9 11 13 15 17 19 21 23 25 27 29 31 33 35 37 39 41 43 45 47 49 51 53 55 0
-60 1 3 5 7 9 11 13 15 17 19 21 23 25 27 29 31 33 35 37 39 41 43 45 47 49 51 53 55 57 0
-62 1 3 5 7 9 11 13 15 17 19 21 23 25 27 29 31 33 35 37 39 41 43 45 47 49 51 53 55 57 59 0
-64 1 3 5 7 9 11 13 15 17 19 21 23 25 27 29 31 33 35 37 39 41 43 45 47 49 51 53 55 57 59 61 0
-66 1 3 5 7 9 11 13 15 17 19 21 23 25 27 29 31 33 35 37 39 41 43 45 47 49 51 53 55 57 59 61 63 0
-68 1 3 5 7 9 11 13 15 17 19 21 23 25 27 29 31 33 35 37 39 41 43 45 47 49 51 53 55 57 59 61 63 65 0
-70 1 3 5 7 9 11 13 15 17 19 21 23 25 27 29 31 33 35 37 39 41 43 45 47 49 51 53 55 57 59 61 63 65 67 0
